p cnf 100 642
52 -75 0
-78 5 0
-69 -76 0
-27 0
-15 0
-86 -51 0
17 -46 0
72 -25 0
-23 0
-74 -1 0
39 -9 0
-73 0
-8 79 0
-98 0
-28 0
-33 0
-27 0
-82 0
-17 0
-62 -49 0
66 -58 0
-82 0
-15 0
3 -35 0
-15 0
-94 0
-2 55 0
-56 0
-64 0
-93 -97 0
-92 -18 0
-96 0
-25 0
-24 79 0
40 -94 0
-97 0
76 -18 0
-83 0
25 -62 0
-40 0
-22 0
-86 3 0
-88 -36 0
-55 0
-23 0
-6 93 0
-6 -75 0
16 -71 0
-36 84 0
-59 0
-29 0
-1 -57 0
10 -12 0
-57 0
-17 0
-96 -85 0
-84 30 0
-90 0
-96 59 0
-15 35 0
-22 0
-86 -30 0
-84 -33 0
-29 -35 0
27 -50 0
-51 -73 0
-96 100 0
-77 -36 0
-29 0
-8 -19 0
-49 0
-37 -84 0
64 -42 0
-95 0
-64 -54 0
-61 -34 0
-42 0
-24 93 0
-10 15 0
16 -42 0
-22 -13 0
-55 76 0
-85 0
4 -58 0
-4 47 0
-100 0
-62 0
56 -33 0
-44 -42 0
-24 0
-55 -28 0
11 -83 0
-69 6 0
-97 0
9 -51 0
-70 0
-26 0
-65 71 0
-69 0
-31 42 0
-73 0
-69 39 0
-86 0
-37 0
64 -92 0
-50 -9 0
-6 0
-1 0
40 -38 0
-59 0
-30 31 0
-7 -66 0
21 -33 0
-30 0
-57 0
-58 0
-87 -44 0
-41 0
-70 -54 0
-25 0
-45 -12 0
-35 0
-8 -3 0
-68 0
-95 44 0
-89 0
-4 -91 0
-92 0
-83 23 0
96 -72 0
-76 0
-86 10 0
-69 54 0
48 -94 0
-83 0
91 -52 0
72 -80 0
-63 95 0
-35 54 0
-70 0
74 -9 0
-34 71 0
-24 -49 0
-50 0
-66 -57 0
-28 55 0
-62 0
-41 0
-37 0
-23 45 0
-47 42 0
-94 0
-63 -46 0
-28 -58 0
83 -21 0
-20 0
-71 0
-94 58 0
-94 83 0
-13 0
-34 0
-12 0
-76 0
74 -84 0
-99 0
-23 -45 0
-70 66 0
96 -41 0
27 -81 0
-71 0
-76 69 0
-96 0
-3 0
-88 -26 0
-21 0
-85 0
-62 0
-93 0
-66 0
-46 0
-43 0
-60 45 0
-57 0
-51 86 0
-16 -22 0
-44 0
28 -91 0
-55 0
-16 0
-7 0
-64 48 0
-11 95 0
-98 0
-75 -2 0
9 -13 0
-4 -28 0
38 -82 0
-72 12 0
-33 0
-51 0
-17 0
-38 -34 0
-69 -68 0
78 -57 0
-43 0
-31 0
59 -92 0
-65 0
-52 0
-42 0
-76 -10 0
-3 -18 0
-63 98 0
78 -18 0
-88 0
-19 0
88 -49 0
-60 -89 0
-28 0
-62 0
-7 43 0
-63 0
-82 0
-11 61 0
42 -26 0
-86 -58 0
-9 0
-68 0
-43 0
58 -25 0
-75 0
35 -49 0
60 -27 0
-87 63 0
-71 0
-80 -74 0
96 -34 0
-76 0
-74 0
-40 61 0
40 -18 0
89 -77 0
-70 -51 0
-87 -65 0
-27 -89 0
-24 58 0
-11 0
20 -26 0
-3 0
-32 -7 0
-87 -47 0
-56 0
-31 -2 0
-40 44 0
-15 62 0
-7 -93 0
-63 -43 0
-21 0
-38 0
72 -67 0
-38 -76 0
7 -25 0
-74 0
-12 -10 0
81 -18 0
42 -2 0
91 -58 0
-47 -17 0
-62 -50 0
-23 -69 0
-15 35 0
-33 0
10 -6 0
41 -69 0
-54 0
-22 0
-55 -93 0
-1 0
-69 0
-26 0
93 -58 0
33 -37 0
-10 0
-23 30 0
-7 51 0
-39 -58 0
-35 -83 0
72 -39 0
-26 0
-9 0
-10 0
-56 -37 0
-35 0
-15 0
-56 -10 0
65 -61 0
-32 0
-22 0
40 -11 0
-6 43 0
-27 79 0
-92 0
-69 -20 0
-60 0
-16 0
-34 0
-1 0
-19 -57 0
83 -61 0
98 -53 0
36 -3 0
-73 0
-53 0
-49 0
-13 -98 0
-1 0
-46 95 0
-55 0
-80 22 0
96 -9 0
-87 0
-28 -43 0
-62 0
-50 0
-86 92 0
-47 -27 0
-91 0
-34 0
-7 21 0
-15 0
-90 55 0
43 -9 0
98 -89 0
-67 0
-31 0
43 -12 0
-94 -74 0
-46 0
3 -77 0
69 -99 0
-26 0
-11 0
-64 56 0
-10 -73 0
-49 0
-3 -9 0
-37 0
-71 9 0
-58 -49 0
-85 0
-12 60 0
32 -36 0
-22 -14 0
-39 0
65 -7 0
-75 0
-85 -1 0
-56 0
-24 0
-77 -34 0
-41 0
-62 0
85 -33 0
-62 0
-13 93 0
-77 -66 0
-50 0
-92 -66 0
-13 0
-31 19 0
-69 0
-76 0
-3 -26 0
-40 -24 0
-30 0
-56 -49 0
-81 0
88 -85 0
-87 -18 0
33 -82 0
-84 60 0
64 -4 0
-24 88 0
34 -99 0
-38 -1 0
12 -19 0
-91 0
58 -57 0
-61 22 0
-5 -19 0
-99 0
-60 -57 0
-86 -12 0
-30 0
17 -43 0
-63 27 0
-58 0
49 -54 0
-52 -4 0
-49 0
82 -84 0
10 -57 0
-93 5 0
57 -12 0
-63 -89 0
-53 29 0
-24 17 0
-14 51 0
-96 91 0
-58 0
-16 0
-60 0
-55 0
93 -10 0
-34 0
-58 0
-43 -34 0
-40 56 0
-6 35 0
-12 0
-60 0
-36 -12 0
-72 -20 0
-24 81 0
-52 0
40 -31 0
48 -19 0
-33 0
-67 0
-77 -81 0
-34 0
-19 0
-92 0
59 -84 0
-5 0
-47 -35 0
-22 0
-86 0
-6 0
-14 0
-43 63 0
-8 40 0
-71 0
-48 31 0
-7 0
-92 0
84 -3 0
-92 0
-53 -59 0
44 -81 0
-25 -73 0
-32 -57 0
-46 28 0
-36 -26 0
-60 0
-87 0
-44 0
-64 75 0
64 -54 0
-8 0
-87 -82 0
-91 15 0
-46 0
-82 0
-31 79 0
-51 0
-52 0
72 -27 0
-78 0
-67 0
-94 0
-74 0
-16 41 0
-79 13 0
-78 0
85 -9 0
-14 0
-99 0
-98 0
-66 0
-10 0
-22 -33 0
41 -4 0
65 -25 0
4 -25 0
-85 0
-10 -89 0
-56 69 0
-68 0
-51 0
-78 -1 0
-35 0
-22 -25 0
-64 62 0
-85 0
-45 -27 0
8 -29 0
-82 -49 0
-15 94 0
-52 0
91 -84 0
100 -33 0
41 -20 0
-7 -22 0
-16 0
-89 0
-79 -18 0
-15 0
-44 0
-39 90 0
72 -54 0
-9 0
-100 0
-84 -98 0
-24 11 0
-79 -70 0
-80 0
50 -5 0
-78 0
-78 0
-45 21 0
57 -22 0
-9 0
-85 0
-56 -42 0
9 -18 0
-16 42 0
-13 -21 0
-56 29 0
-92 0
-95 0
-7 0
-43 0
68 -65 0
72 -7 0
-86 0
-63 82 0
89 -28 0
67 -9 0
-95 0
-51 86 0
-94 0
-74 0
-1 -41 0
-79 0
-18 0
-100 0
-50 0
-95 83 0
-68 0
66 -49 0
-57 0
-90 0
-1 -33 0
27 -10 0
-45 -27 0
-16 -17 0
-95 0
-78 0
-95 79 0
19 -91 0
-87 -85 0
-40 -52 0
-93 39 0
-50 0
-71 2 0
-100 0
99 -90 0
-27 14 0
-59 0
97 -1 0
64 -67 0
-78 38 0
-12 -83 0
-44 -90 0
-38 58 0
57 -21 0
-49 0
-93 -68 0
-78 4 0
-59 0
-26 0
48 -3 0
-53 69 0
-29 20 0
-38 0
-16 72 0
-31 0
-67 54 0
-88 -89 0
-60 47 0
-44 -75 0
-11 0
-46 -45 0
-31 -91 0
-31 -4 0
-54 0
-70 0
32 -36 0
9 -97 0
-84 100 0
55 -17 0
69 -2 0
-56 0
-39 -92 0
-15 0
-84 29 0
99 -83 0
16 -7 0
-87 36 0
-2 -65 0
-51 31 0
56 -37 0
-56 -41 0
-1 0
-8 -99 0
-62 0
-35 -50 0
-29 -100 0
-47 -95 0
-52 44 0
-100 78 0
-93 76 0
-19 0
-49 15 0
72 -37 0
87 -33 0
-77 79 0
-91 0
-47 -39 0
-72 -11 0
-16 -35 0
-55 0
-21 0
-24 13 0
-62 -54 0
-24 -85 0
-96 18 0
-28 63 0
-84 0
40 -71 0
-15 1 0
