p cnf 175 584
79 0
75 0
75 0
89 0
60 62 0
21 0
26 0
99 30 0
42 4 0
35 54 0
89 33 0
67 0
46 0
31 0
82 14 0
23 0
25 0
33 10 0
47 0
91 0
76 21 0
38 31 0
8 10 0
72 89 0
89 0
94 0
33 2 0
73 54 0
56 38 0
28 4 0
73 37 0
81 33 0
35 0
10 0
35 94 0
84 0
53 0
57 0
45 0
55 0
55 0
73 0
10 0
64 0
84 0
34 0
58 12 0
25 0
53 0
67 0
53 0
58 0
56 0
63 0
22 0
21 0
58 0
7 0
22 0
53 0
52 0
56 0
62 0
25 0
27 0
10 83 0
20 0
87 0
35 0
29 63 0
56 0
71 0
76 0
82 84 0
52 87 0
91 0
16 30 0
57 100 0
73 0
36 0
59 93 0
12 0
35 0
1 82 0
1 0
93 0
21 0
1 22 0
88 45 0
31 0
80 66 0
89 0
73 59 0
24 0
27 0
4 0
61 0
95 0
46 0
49 0
27 0
13 0
66 0
93 77 0
27 0
86 0
93 0
100 0
15 0
41 68 0
73 0
34 0
7 0
41 0
81 75 0
66 2 0
36 92 0
41 0
57 36 0
42 15 0
87 0
24 0
21 0
31 0
51 0
1 94 0
47 0
27 0
65 73 0
12 0
69 87 0
56 90 0
11 0
8 0
11 63 0
68 22 0
21 0
13 0
1 0
9 19 0
48 41 0
51 0
69 71 0
37 77 0
1 0
34 0
44 0
67 0
84 0
43 0
89 27 0
78 7 0
62 0
83 5 0
66 0
92 0
80 0
32 0
38 0
70 0
95 0
66 0
73 46 0
93 15 0
1 0
19 0
59 20 0
17 0
44 0
4 0
97 0
12 86 0
59 0
88 0
69 0
3 0
63 0
8 0
56 88 0
73 0
69 0
40 0
12 60 0
49 0
31 0
34 27 0
79 0
66 0
48 0
94 0
77 63 0
97 84 0
83 0
67 0
52 0
91 0
83 0
46 0
49 0
42 3 0
15 0
10 68 0
73 0
21 31 0
1 23 0
85 0
81 10 0
33 34 0
3 71 0
18 0
96 31 0
63 0
99 68 0
77 0
82 0
24 44 0
97 0
13 0
46 7 0
19 0
83 30 0
86 0
24 91 0
21 0
78 0
50 0
79 0
8 83 0
64 0
69 6 0
40 26 0
76 0
64 0
61 0
94 0
86 0
60 76 0
57 67 0
18 0
41 0
11 0
64 97 0
34 0
82 0
20 0
67 0
65 17 0
42 0
56 35 0
21 0
42 85 0
16 25 0
21 0
67 20 0
38 0
50 7 0
62 0
33 26 0
34 0
24 0
39 0
36 0
38 0
16 0
85 0
50 77 0
40 0
57 37 0
4 0
76 0
84 0
72 73 0
66 0
96 0
41 0
62 0
56 0
72 27 0
9 0
35 62 0
43 0
17 0
18 100 0
18 12 0
10 0
30 0
97 0
100 0
99 0
18 0
35 0
17 0
29 38 0
90 0
98 69 0
80 0
25 0
73 0
1 0
44 0
44 20 0
49 0
92 0
96 0
32 0
75 0
5 0
16 0
44 78 0
22 0
20 0
66 0
42 0
94 0
8 27 0
19 52 0
26 0
80 92 0
49 0
33 0
67 0
33 82 0
38 30 0
66 0
96 87 0
97 77 0
75 0
56 75 0
58 0
30 0
92 0
74 0
93 71 0
52 0
21 13 0
97 0
98 0
76 0
10 0
53 0
58 0
25 0
80 0
56 0
41 0
81 0
93 0
64 8 0
40 0
97 100 0
49 0
74 100 0
56 0
27 0
44 0
89 0
88 0
16 0
55 -101 0
28 -101 0
-55 -28 101 0
-93 -102 0
58 -102 0
93 -58 102 0
-88 -103 0
85 -103 0
88 -85 103 0
28 -104 0
43 -104 0
-28 -43 104 0
96 -105 0
85 -105 0
-96 -85 105 0
-9 -106 0
18 -106 0
9 -18 106 0
29 -107 0
-20 -107 0
-29 20 107 0
82 -108 0
49 -108 0
-82 -49 108 0
95 -109 0
-44 -109 0
-95 44 109 0
-96 -110 0
34 -110 0
96 -34 110 0
80 -111 0
74 -111 0
-80 -74 111 0
36 -112 0
12 -112 0
-36 -12 112 0
-40 -113 0
38 -113 0
40 -38 113 0
23 -114 0
-45 -114 0
-23 45 114 0
-85 -115 0
9 -115 0
85 -9 115 0
-59 -116 0
92 -116 0
59 -92 116 0
10 -117 0
-15 -117 0
-10 15 117 0
8 -118 0
-40 -118 0
-8 40 118 0
87 -119 0
85 -119 0
-87 -85 119 0
-27 -120 0
50 -120 0
27 -50 120 0
24 -121 0
-79 -121 0
-24 79 121 0
77 -122 0
-79 -122 0
-77 79 122 0
53 -123 0
-29 -123 0
-53 29 123 0
24 -124 0
-13 -124 0
-24 13 124 0
-69 -125 0
99 -125 0
69 -99 125 0
38 -126 0
1 -126 0
-38 -1 126 0
40 -127 0
-56 -127 0
-40 56 127 0
-49 -128 0
54 -128 0
49 -54 128 0
60 -129 0
-47 -129 0
-60 47 129 0
93 -130 0
97 -130 0
-93 -97 130 0
28 -131 0
-63 -131 0
-28 63 131 0
25 -132 0
73 -132 0
-25 -73 132 0
-42 -133 0
26 -133 0
42 -26 133 0
-9 -134 0
51 -134 0
9 -51 134 0
79 -135 0
-13 -135 0
-79 13 135 0
51 -136 0
-86 -136 0
-51 86 136 0
24 -137 0
-81 -137 0
-24 81 137 0
-78 -138 0
57 -138 0
78 -57 138 0
-56 -139 0
33 -139 0
56 -33 139 0
-7 -140 0
25 -140 0
7 -25 140 0
86 -141 0
12 -141 0
-86 -12 141 0
-72 -142 0
39 -142 0
72 -39 142 0
87 -143 0
-36 -143 0
-87 36 143 0
56 -144 0
41 -144 0
-56 -41 144 0
-25 -145 0
62 -145 0
25 -62 145 0
-48 -146 0
19 -146 0
48 -19 146 0
38 -147 0
34 -147 0
-38 -34 147 0
-69 -148 0
2 -148 0
69 -2 148 0
-91 -149 0
52 -149 0
91 -52 149 0
13 -150 0
98 -150 0
-13 -98 150 0
-3 -151 0
35 -151 0
3 -35 151 0
-43 -152 0
12 -152 0
43 -12 152 0
6 -153 0
75 -153 0
-6 -75 153 0
-74 -154 0
84 -154 0
74 -84 154 0
12 -155 0
83 -155 0
-12 -83 155 0
56 -156 0
-29 -156 0
-56 29 156 0
50 -157 0
9 -157 0
-50 -9 157 0
44 -158 0
75 -158 0
-44 -75 158 0
12 -159 0
10 -159 0
-12 -10 159 0
-96 -160 0
9 -160 0
96 -9 160 0
23 -161 0
45 -161 0
-23 -45 161 0
67 -162 0
-54 -162 0
-67 54 162 0
64 -163 0
-62 -163 0
-64 62 163 0
69 -164 0
76 -164 0
-69 -76 164 0
8 -165 0
3 -165 0
-8 -3 165 0
-41 -166 0
4 -166 0
41 -4 166 0
-16 -167 0
7 -167 0
16 -7 167 0
60 -168 0
89 -168 0
-60 -89 168 0
-72 -169 0
7 -169 0
72 -7 169 0
22 -170 0
25 -170 0
-22 -25 170 0
-9 -171 0
97 -171 0
9 -97 171 0
-52 -172 0
75 -172 0
52 -75 172 0
7 -173 0
-43 -173 0
-7 43 173 0
72 -174 0
20 -174 0
-72 -20 174 0
96 -175 0
-100 -175 0
-96 100 175 0
101 102 103 104 22 105 106 107 39 22 108 42 109 110 111 112 113 57 114 115 116 117 118 119 120 21 41 43 121 92 122 74 123 124 125 126 97 14 127 128 90 129 33 130 131 132 34 133 134 135 136 137 138 59 51 91 139 6 140 141 6 28 142 91 143 144 62 19 25 145 146 147 148 149 95 150 151 94 152 153 154 54 83 58 92 155 156 86 157 158 159 160 161 62 27 100 162 23 49 66 8 11 163 164 165 166 167 18 15 57 23 168 169 170 9 171 22 31 71 172 43 173 174 71 42 66 175 17 0
