p cnf 412 1306
12 0
74 12 0
97 0
37 0
79 0
24 51 0
89 0
41 0
81 31 0
91 4 0
62 0
99 28 0
52 61 0
55 0
69 0
57 31 0
22 0
37 31 0
63 0
31 0
92 70 0
87 0
53 0
33 0
58 0
54 71 0
84 0
62 0
62 0
53 0
64 76 0
43 20 0
55 23 0
98 0
28 69 0
98 60 0
88 38 0
42 0
83 0
6 0
69 0
98 0
49 46 0
90 99 0
98 36 0
65 0
17 0
51 0
100 0
60 0
13 0
23 0
52 0
18 0
11 0
11 0
79 0
8 0
95 0
79 0
32 0
49 15 0
54 0
84 0
44 0
31 0
79 0
39 0
57 0
66 14 0
84 0
13 0
82 0
89 85 0
10 2 0
32 77 0
6 0
18 0
48 11 0
50 0
16 28 0
54 0
92 0
51 0
75 6 0
63 0
77 0
23 0
38 0
26 0
91 0
19 0
50 6 0
20 0
82 20 0
63 0
62 0
79 0
92 0
41 0
48 0
89 0
18 0
9 83 0
4 0
66 47 0
86 31 0
31 0
5 0
22 0
11 0
67 0
44 0
37 0
12 52 0
97 4 0
91 38 0
79 0
8 59 0
16 0
27 13 0
17 0
27 99 0
25 0
72 23 0
54 0
29 47 0
40 0
96 0
64 30 0
58 31 0
68 0
73 0
81 90 0
79 0
5 23 0
29 0
65 0
97 0
4 0
93 63 0
93 38 0
80 0
70 0
30 0
33 82 0
69 0
20 0
82 0
64 33 0
6 0
19 47 0
82 0
51 70 0
90 59 0
53 54 0
64 0
56 38 0
35 0
81 0
65 0
59 0
77 0
33 0
36 0
90 14 0
98 0
78 54 0
70 0
29 0
56 89 0
57 2 0
29 0
68 0
76 44 0
87 0
32 0
66 0
27 0
78 31 0
66 99 0
38 0
100 0
50 13 0
54 0
55 0
81 78 0
20 79 0
97 0
19 0
56 29 0
36 0
54 0
40 18 0
46 0
52 0
35 0
24 80 0
9 0
70 0
42 5 0
11 0
17 43 0
27 0
19 0
90 0
16 0
17 67 0
41 0
71 0
19 0
52 0
50 0
98 28 0
30 39 0
22 0
23 0
43 0
65 50 0
98 0
80 0
23 0
97 19 0
33 59 0
71 0
51 0
95 0
98 66 0
14 0
44 47 0
27 0
64 0
12 0
52 0
32 0
69 0
14 0
73 0
9 0
58 42 0
89 46 0
60 0
14 0
97 0
90 0
11 0
14 0
42 0
88 0
27 45 0
23 0
64 11 0
17 26 0
81 0
63 0
35 0
88 39 0
9 0
90 0
18 0
61 0
84 0
89 0
9 0
85 0
50 0
29 39 0
59 63 0
62 0
12 0
59 0
82 0
43 77 0
73 97 0
99 30 0
91 52 0
81 0
88 5 0
96 0
42 0
93 6 0
31 0
2 31 0
33 0
4 0
8 0
35 20 0
89 49 0
99 47 0
4 0
29 0
72 0
32 82 0
82 0
10 0
61 0
95 0
56 0
83 0
53 0
67 0
11 0
33 19 0
73 34 0
90 0
19 0
90 0
88 90 0
82 28 0
28 0
25 0
60 0
16 0
11 0
29 0
75 0
9 0
40 10 0
48 0
67 0
58 0
20 0
66 21 0
84 0
83 0
84 0
67 0
91 0
56 0
35 0
59 15 0
40 91 0
75 0
18 0
21 62 0
41 0
22 0
72 19 0
98 91 0
23 0
11 0
36 71 0
38 0
38 0
41 12 0
40 0
10 0
10 0
33 34 0
41 15 0
17 0
98 0
77 0
58 36 0
91 0
10 86 0
23 0
76 0
12 0
50 0
4 0
18 0
60 0
12 77 0
43 36 0
20 46 0
13 0
53 95 0
13 15 0
84 0
44 0
56 0
-35 -101 0
73 -101 0
35 -73 101 0
-100 -102 0
59 -102 0
100 -59 102 0
61 -103 0
12 -103 0
-61 -12 103 0
66 -104 0
33 -104 0
-66 -33 104 0
84 -105 0
-52 -105 0
-84 52 105 0
45 -106 0
97 -106 0
-45 -97 106 0
85 -107 0
-69 -107 0
-85 69 107 0
95 -108 0
-37 -108 0
-95 37 108 0
-89 -109 0
69 -109 0
89 -69 109 0
30 -110 0
2 -110 0
-30 -2 110 0
-10 -111 0
27 -111 0
10 -27 111 0
5 -112 0
18 -112 0
-5 -18 112 0
71 -113 0
54 -113 0
-71 -54 113 0
6 -114 0
30 -114 0
-6 -30 114 0
40 -115 0
-66 -115 0
-40 66 115 0
37 -116 0
51 -116 0
-37 -51 116 0
-84 -117 0
58 -117 0
84 -58 117 0
-13 -118 0
89 -118 0
13 -89 118 0
12 -119 0
41 -119 0
-12 -41 119 0
46 -120 0
22 -120 0
-46 -22 120 0
80 -121 0
-84 -121 0
-80 84 121 0
16 -122 0
-44 -122 0
-16 44 122 0
51 -123 0
99 -123 0
-51 -99 123 0
-74 -124 0
82 -124 0
74 -82 124 0
-68 -125 0
25 -125 0
68 -25 125 0
72 -126 0
-91 -126 0
-72 91 126 0
-8 -127 0
93 -127 0
8 -93 127 0
75 -128 0
74 -128 0
-75 -74 128 0
-83 -129 0
69 -129 0
83 -69 129 0
62 -130 0
57 -130 0
-62 -57 130 0
-44 -131 0
97 -131 0
44 -97 131 0
61 -132 0
57 -132 0
-61 -57 132 0
56 -133 0
-12 -133 0
-56 12 133 0
80 -134 0
-22 -134 0
-80 22 134 0
-69 -135 0
35 -135 0
69 -35 135 0
84 -136 0
-100 -136 0
-84 100 136 0
68 -137 0
75 -137 0
-68 -75 137 0
96 -138 0
-54 -138 0
-96 54 138 0
72 -139 0
-29 -139 0
-72 29 139 0
35 -140 0
65 -140 0
-35 -65 140 0
16 -141 0
-89 -141 0
-16 89 141 0
16 -142 0
29 -142 0
-16 -29 142 0
79 -143 0
-46 -143 0
-79 46 143 0
37 -144 0
57 -144 0
-37 -57 144 0
34 -145 0
-47 -145 0
-34 47 145 0
-8 -146 0
62 -146 0
8 -62 146 0
-81 -147 0
29 -147 0
81 -29 147 0
30 -148 0
-75 -148 0
-30 75 148 0
10 -149 0
9 -149 0
-10 -9 149 0
77 -150 0
90 -150 0
-77 -90 150 0
48 -151 0
54 -151 0
-48 -54 151 0
52 -152 0
98 -152 0
-52 -98 152 0
80 -153 0
-69 -153 0
-80 69 153 0
68 -154 0
90 -154 0
-68 -90 154 0
79 -155 0
43 -155 0
-79 -43 155 0
-33 -156 0
69 -156 0
33 -69 156 0
8 -157 0
-75 -157 0
-8 75 157 0
11 -158 0
58 -158 0
-11 -58 158 0
92 -159 0
-84 -159 0
-92 84 159 0
-100 -160 0
12 -160 0
100 -12 160 0
31 -161 0
74 -161 0
-31 -74 161 0
32 -162 0
75 -162 0
-32 -75 162 0
-81 -163 0
65 -163 0
81 -65 163 0
-17 -164 0
52 -164 0
17 -52 164 0
24 -165 0
81 -165 0
-24 -81 165 0
37 -166 0
84 -166 0
-37 -84 166 0
96 -167 0
-34 -167 0
-96 34 167 0
-97 -168 0
98 -168 0
97 -98 168 0
40 -169 0
-49 -169 0
-40 49 169 0
46 -170 0
-90 -170 0
-46 90 170 0
-67 -171 0
5 -171 0
67 -5 171 0
-99 -172 0
19 -172 0
99 -19 172 0
39 -173 0
65 -173 0
-39 -65 173 0
30 -174 0
43 -174 0
-30 -43 174 0
22 -175 0
66 -175 0
-22 -66 175 0
-58 -176 0
89 -176 0
58 -89 176 0
61 -177 0
5 -177 0
-61 -5 177 0
39 -178 0
-92 -178 0
-39 92 178 0
-49 -179 0
4 -179 0
49 -4 179 0
20 -180 0
18 -180 0
-20 -18 180 0
-50 -181 0
13 -181 0
50 -13 181 0
-35 -182 0
57 -182 0
35 -57 182 0
-84 -183 0
12 -183 0
84 -12 183 0
47 -184 0
29 -184 0
-47 -29 184 0
38 -185 0
-15 -185 0
-38 15 185 0
94 -186 0
91 -186 0
-94 -91 186 0
-51 -187 0
83 -187 0
51 -83 187 0
-96 -188 0
41 -188 0
96 -41 188 0
39 -189 0
-83 -189 0
-39 83 189 0
79 -190 0
-53 -190 0
-79 53 190 0
-32 -191 0
100 -191 0
32 -100 191 0
-82 -192 0
97 -192 0
82 -97 192 0
85 -193 0
-23 -193 0
-85 23 193 0
-24 -194 0
60 -194 0
24 -60 194 0
71 -195 0
-7 -195 0
-71 7 195 0
-16 -196 0
-94 -196 0
16 94 196 0
50 -197 0
-31 -197 0
-50 31 197 0
-83 -198 0
91 -198 0
83 -91 198 0
87 -199 0
-67 -199 0
-87 67 199 0
50 -200 0
-71 -200 0
-50 71 200 0
69 -201 0
-77 -201 0
-69 77 201 0
-20 -202 0
18 -202 0
20 -18 202 0
48 -203 0
-74 -203 0
-48 74 203 0
62 -204 0
52 -204 0
-62 -52 204 0
40 -205 0
30 -205 0
-40 -30 205 0
60 -206 0
65 -206 0
-60 -65 206 0
72 -207 0
-7 -207 0
-72 7 207 0
87 -208 0
-75 -208 0
-87 75 208 0
-9 -209 0
39 -209 0
9 -39 209 0
60 -210 0
-55 -210 0
-60 55 210 0
-38 -211 0
9 -211 0
38 -9 211 0
-40 -212 0
5 -212 0
40 -5 212 0
55 -213 0
4 -213 0
-55 -4 213 0
-9 -214 0
34 -214 0
9 -34 214 0
40 -215 0
63 -215 0
-40 -63 215 0
-12 -216 0
26 -216 0
12 -26 216 0
-37 -217 0
91 -217 0
37 -91 217 0
-86 -218 0
25 -218 0
86 -25 218 0
60 -219 0
12 -219 0
-60 -12 219 0
-33 -220 0
57 -220 0
33 -57 220 0
69 -221 0
35 -221 0
-69 -35 221 0
51 -222 0
2 -222 0
-51 -2 222 0
-90 -223 0
50 -223 0
90 -50 223 0
78 -224 0
81 -224 0
-78 -81 224 0
-9 -225 0
84 -225 0
9 -84 225 0
53 -226 0
18 -226 0
-53 -18 226 0
20 -227 0
27 -227 0
-20 -27 227 0
75 -228 0
-22 -228 0
-75 22 228 0
51 -229 0
-47 -229 0
-51 47 229 0
-77 -230 0
42 -230 0
77 -42 230 0
82 -231 0
25 -231 0
-82 -25 231 0
10 -232 0
18 -232 0
-10 -18 232 0
-46 -233 0
18 -233 0
46 -18 233 0
88 -234 0
-67 -234 0
-88 67 234 0
-40 -235 0
43 -235 0
40 -43 235 0
-67 -236 0
100 -236 0
67 -100 236 0
-33 -237 0
69 -238 0
-77 -238 0
-69 77 238 0
80 -239 0
-19 -239 0
-80 19 239 0
48 -240 0
83 -240 0
-48 -83 240 0
18 -241 0
-7 -241 0
-18 7 241 0
23 -242 0
-85 -242 0
-23 85 242 0
7 -243 0
-53 -243 0
-7 53 243 0
36 -244 0
-93 -244 0
-36 93 244 0
-10 -245 0
12 -245 0
10 -12 245 0
94 -246 0
90 -246 0
-94 -90 246 0
79 -247 0
1 -247 0
-79 -1 247 0
68 -248 0
-62 -248 0
-68 62 248 0
80 -249 0
-62 -249 0
-80 62 249 0
69 -250 0
-62 -250 0
-69 62 250 0
52 -251 0
99 -251 0
-52 -99 251 0
-78 -252 0
10 -252 0
78 -10 252 0
10 -253 0
-71 -253 0
-10 71 253 0
-49 -254 0
100 -254 0
49 -100 254 0
-11 -255 0
69 -255 0
11 -69 255 0
-50 -256 0
37 -256 0
50 -37 256 0
37 -257 0
-54 -257 0
-37 54 257 0
93 -258 0
-46 -258 0
-93 46 258 0
100 -259 0
-6 -259 0
-100 6 259 0
21 -260 0
10 -260 0
-21 -10 260 0
50 -261 0
-31 -261 0
-50 31 261 0
48 -262 0
-45 -262 0
-48 45 262 0
-50 -263 0
19 -263 0
50 -19 263 0
85 -264 0
-95 -264 0
-85 95 264 0
51 -265 0
82 -265 0
-51 -82 265 0
13 -266 0
58 -266 0
-13 -58 266 0
62 -267 0
52 -267 0
-62 -52 267 0
70 -268 0
60 -268 0
-70 -60 268 0
82 -269 0
-14 -269 0
-82 14 269 0
80 -270 0
-13 -270 0
-80 13 270 0
-32 -271 0
62 -271 0
32 -62 271 0
95 -272 0
20 -272 0
-95 -20 272 0
-42 -273 0
44 -273 0
42 -44 273 0
23 -274 0
-62 -274 0
-23 62 274 0
96 -275 0
40 -275 0
-96 -40 275 0
-35 -276 0
76 -276 0
35 -76 276 0
45 -277 0
-86 -277 0
-45 86 277 0
74 -278 0
-63 -278 0
-74 63 278 0
79 -279 0
-34 -279 0
-79 34 279 0
88 -280 0
-70 -280 0
-88 70 280 0
-90 -281 0
52 -281 0
90 -52 281 0
-27 -282 0
1 -282 0
27 -1 282 0
52 -283 0
-45 -283 0
-52 45 283 0
78 -284 0
74 -284 0
-78 -74 284 0
-32 -285 0
91 -285 0
32 -91 285 0
16 -286 0
88 -286 0
-16 -88 286 0
-16 -287 0
92 -287 0
16 -92 287 0
-92 -288 0
99 -288 0
92 -99 288 0
44 -289 0
-71 -289 0
-44 71 289 0
7 -290 0
-47 -290 0
-7 47 290 0
60 -291 0
-6 -291 0
-60 6 291 0
-78 -292 0
2 -292 0
78 -2 292 0
-81 -293 0
18 -293 0
81 -18 293 0
44 -294 0
27 -294 0
-44 -27 294 0
-25 -295 0
76 -295 0
25 -76 295 0
-97 -296 0
23 -296 0
97 -23 296 0
-9 -297 0
11 -297 0
9 -11 297 0
15 -298 0
5 -298 0
-15 -5 298 0
55 -299 0
-100 -299 0
-55 100 299 0
-89 -300 0
73 -300 0
89 -73 300 0
8 -301 0
86 -301 0
-8 -86 301 0
61 -302 0
52 -302 0
-61 -52 302 0
-41 -303 0
62 -303 0
41 -62 303 0
96 -304 0
-19 -304 0
-96 19 304 0
-62 -305 0
25 -305 0
62 -25 305 0
80 -306 0
37 -306 0
-80 -37 306 0
29 -307 0
-93 -307 0
-29 93 307 0
-18 -308 0
53 -308 0
18 -53 308 0
61 -309 0
2 -309 0
-61 -2 309 0
-2 -310 0
13 -310 0
2 -13 310 0
19 -311 0
74 -311 0
-19 -74 311 0
48 -312 0
-53 -312 0
-48 53 312 0
40 -313 0
14 -313 0
-40 -14 313 0
54 -314 0
99 -314 0
-54 -99 314 0
-38 -315 0
49 -315 0
38 -49 315 0
53 -316 0
89 -316 0
-53 -89 316 0
-97 -317 0
45 -317 0
97 -45 317 0
63 -318 0
-44 -318 0
-63 44 318 0
-14 -319 0
73 -319 0
14 -73 319 0
39 -320 0
-54 -320 0
-39 54 320 0
-80 -321 0
11 -321 0
80 -11 321 0
16 -322 0
-92 -322 0
-16 92 322 0
-27 -323 0
61 -323 0
27 -61 323 0
38 -324 0
69 -324 0
-38 -69 324 0
-19 -325 0
45 -325 0
19 -45 325 0
39 -326 0
66 -326 0
-39 -66 326 0
-94 -327 0
33 -327 0
94 -33 327 0
-88 -328 0
83 -328 0
88 -83 328 0
95 -329 0
50 -329 0
-95 -50 329 0
60 -330 0
-39 -330 0
-60 39 330 0
8 -331 0
-49 -331 0
-8 49 331 0
-16 -332 0
57 -332 0
16 -57 332 0
-72 -333 0
91 -333 0
72 -91 333 0
29 -334 0
99 -334 0
-29 -99 334 0
96 -335 0
5 -335 0
-96 -5 335 0
-97 -336 0
57 -336 0
97 -57 336 0
40 -337 0
-68 -337 0
-40 68 337 0
55 -338 0
18 -338 0
-55 -18 338 0
31 -339 0
73 -339 0
-31 -73 339 0
62 -340 0
-14 -340 0
-62 14 340 0
45 -341 0
67 -341 0
-45 -67 341 0
52 -342 0
75 -342 0
-52 -75 342 0
91 -343 0
75 -343 0
-91 -75 343 0
64 -344 0
93 -344 0
-64 -93 344 0
-27 -345 0
73 -345 0
27 -73 345 0
78 -346 0
1 -346 0
-78 -1 346 0
-32 -347 0
41 -347 0
32 -41 347 0
40 -348 0
46 -348 0
-40 -46 348 0
48 -349 0
58 -349 0
-48 -58 349 0
51 -350 0
82 -350 0
-51 -82 350 0
24 -351 0
-26 -351 0
-24 26 351 0
43 -352 0
50 -352 0
-43 -50 352 0
-52 -353 0
42 -353 0
52 -42 353 0
-20 -354 0
73 -354 0
20 -73 354 0
-49 -355 0
61 -355 0
49 -61 355 0
55 -356 0
-4 -356 0
-55 4 356 0
80 -357 0
-78 -357 0
-80 78 357 0
37 -358 0
43 -358 0
-37 -43 358 0
-24 -359 0
54 -359 0
24 -54 359 0
60 -360 0
81 -360 0
-60 -81 360 0
55 -361 0
-17 -361 0
-55 17 361 0
-75 -362 0
82 -362 0
75 -82 362 0
-64 -363 0
84 -363 0
64 -84 363 0
48 -364 0
91 -364 0
-48 -91 364 0
-96 -365 0
57 -365 0
96 -57 365 0
88 -366 0
-10 -366 0
-88 10 366 0
63 -367 0
41 -367 0
-63 -41 367 0
47 -368 0
-19 -368 0
-47 19 368 0
-56 -369 0
1 -369 0
56 -1 369 0
-11 -370 0
25 -370 0
11 -25 370 0
24 -371 0
79 -371 0
-24 -79 371 0
6 -372 0
-38 -372 0
-6 38 372 0
-98 -373 0
58 -373 0
98 -58 373 0
59 -374 0
89 -374 0
-59 -89 374 0
16 -375 0
13 -375 0
-16 -13 375 0
16 -376 0
-31 -376 0
-16 31 376 0
-61 -377 0
74 -377 0
61 -74 377 0
77 -378 0
-86 -378 0
-77 86 378 0
30 -379 0
43 -379 0
-30 -43 379 0
-17 -380 0
31 -380 0
17 -31 380 0
-80 -381 0
90 -381 0
80 -90 381 0
62 -382 0
-75 -382 0
-62 75 382 0
-74 -383 0
69 -383 0
74 -69 383 0
-25 -384 0
70 -384 0
25 -70 384 0
39 -385 0
25 -385 0
-39 -25 385 0
31 -386 0
99 -386 0
-31 -99 386 0
-92 -387 0
26 -387 0
92 -26 387 0
100 -388 0
27 -388 0
-100 -27 388 0
-24 -389 0
71 -389 0
24 -71 389 0
-76 -390 0
19 -390 0
76 -19 390 0
92 -391 0
18 -391 0
-92 -18 391 0
55 -392 0
58 -392 0
-55 -58 392 0
-57 -393 0
70 -393 0
57 -70 393 0
10 -394 0
-7 -394 0
-10 7 394 0
24 -395 0
57 -395 0
-24 -57 395 0
-74 -396 0
44 -396 0
74 -44 396 0
-83 -397 0
82 -397 0
83 -82 397 0
12 -398 0
-45 -398 0
-12 45 398 0
41 -399 0
9 -399 0
-41 -9 399 0
46 -400 0
-51 -400 0
-46 51 400 0
-24 -401 0
98 -401 0
24 -98 401 0
-59 -402 0
25 -402 0
59 -25 402 0
12 -403 0
35 -403 0
-12 -35 403 0
95 -404 0
59 -404 0
-95 -59 404 0
-88 -405 0
98 -405 0
88 -98 405 0
-28 -406 0
97 -406 0
28 -97 406 0
63 -407 0
-92 -407 0
-63 92 407 0
54 -408 0
12 -408 0
-54 -12 408 0
86 -409 0
81 -409 0
-86 -81 409 0
-96 -410 0
92 -410 0
96 -92 410 0
95 -411 0
-29 -411 0
-95 29 411 0
46 -412 0
35 -412 0
-46 -35 412 0
