p cnf 100 640
-74 -25 0
-91 0
87 -33 0
-38 -1 0
-48 92 0
59 -11 0
42 -58 0
-91 95 0
-14 100 0
-16 0
-10 0
-22 0
-1 0
-69 0
-28 0
-63 0
-27 -26 0
-6 -51 0
-98 0
-62 0
-24 0
-15 0
-80 -86 0
-20 0
66 -100 0
-16 0
73 -69 0
-90 0
-47 0
18 -3 0
-2 6 0
91 -50 0
49 -17 0
99 -43 0
-68 0
-20 -9 0
-70 -51 0
-100 0
-41 0
-3 0
18 -9 0
-56 -2 0
-78 -82 0
-44 -36 0
36 -91 0
-37 0
-46 0
8 -69 0
12 -10 0
-30 28 0
-4 -97 0
-24 0
-14 0
-69 0
-39 -73 0
-39 0
-38 69 0
-99 -18 0
45 -57 0
-73 0
-96 -38 0
-86 -18 0
-58 0
-32 0
-62 -92 0
-59 0
-88 0
-45 92 0
-80 90 0
14 -49 0
-54 23 0
-74 -89 0
-7 78 0
-93 0
-99 0
-3 0
-5 -85 0
-44 0
-15 0
84 -58 0
-39 0
-8 -75 0
-60 0
-77 62 0
72 -55 0
27 -29 0
17 -33 0
-40 -17 0
-3 0
-72 -53 0
-40 0
-44 0
27 -84 0
-71 -94 0
64 -23 0
83 -11 0
-87 78 0
48 -15 0
-46 0
25 -43 0
-88 -75 0
-39 -99 0
-63 53 0
-56 -61 0
-40 25 0
-78 0
-96 0
-95 0
-58 -26 0
-51 0
-16 -10 0
-22 0
15 -25 0
-12 0
26 -58 0
-88 2 0
-78 -2 0
-63 -100 0
51 -99 0
-91 0
-23 0
-80 -72 0
44 -3 0
-10 0
-37 0
-98 0
-7 42 0
-41 0
-20 -83 0
-42 0
-85 0
-73 47 0
-72 0
-69 29 0
48 -28 0
72 -26 0
-32 0
-86 0
-53 0
-22 0
-21 0
-48 17 0
-3 0
-91 79 0
-83 0
19 -92 0
-15 -14 0
41 -30 0
-93 -37 0
75 -17 0
11 -73 0
66 -77 0
-32 95 0
-8 0
-44 0
-26 79 0
-9 0
-65 0
-16 -39 0
-6 0
-24 28 0
-82 38 0
-42 0
-70 0
-7 0
-50 0
-12 0
-50 0
-8 0
-55 -11 0
-11 -74 0
-64 0
-96 6 0
-38 0
-70 0
67 -99 0
-8 43 0
-63 18 0
-70 47 0
-96 0
-47 0
82 -37 0
82 -10 0
-23 39 0
-27 0
-82 0
-48 0
67 -83 0
-25 0
-84 6 0
-84 0
-61 -19 0
-92 0
44 -67 0
-59 -51 0
-31 52 0
8 -92 0
-7 0
-44 86 0
-31 -28 0
-59 -50 0
45 -89 0
-16 -4 0
-33 0
-26 0
-25 0
-38 39 0
-8 -39 0
89 -49 0
-93 0
-31 0
-43 -74 0
81 -25 0
-22 21 0
-57 0
-46 0
-7 0
-2 0
-52 44 0
5 -17 0
-79 6 0
-96 82 0
34 -45 0
-69 -17 0
-78 99 0
-22 0
-64 0
-44 0
41 -18 0
-11 0
-38 0
-78 44 0
51 -45 0
-49 0
-88 -98 0
-90 0
86 -49 0
-16 0
-30 0
-76 0
-70 74 0
8 -66 0
-9 0
-76 0
-91 0
-95 -81 0
-26 0
5 -98 0
61 -65 0
-27 54 0
-59 0
-82 0
43 -19 0
-98 0
-92 0
1 -54 0
21 -9 0
-94 99 0
-61 -100 0
-44 12 0
11 -60 0
-71 0
11 -65 0
-86 6 0
74 -50 0
-53 0
-6 54 0
-38 -10 0
-80 0
-30 -45 0
-79 18 0
-26 47 0
-77 0
-66 0
-58 0
1 -94 0
-21 0
33 -54 0
-55 0
-4 0
-16 0
-13 0
13 -11 0
93 -25 0
18 -41 0
-42 0
-81 0
26 -14 0
-1 0
-53 -4 0
40 -1 0
-42 -33 0
-52 -73 0
-83 -57 0
-70 -83 0
-100 0
-42 62 0
67 -84 0
-8 0
-11 0
-29 -17 0
-48 0
-34 0
-86 0
10 -84 0
-42 15 0
67 -21 0
-77 0
-35 0
19 -65 0
-32 -83 0
-90 0
-94 -70 0
-85 39 0
-24 36 0
-86 0
-12 21 0
-62 -28 0
-14 0
-83 -33 0
-48 88 0
-87 0
-15 -59 0
-14 -26 0
-80 27 0
-49 0
-97 -81 0
16 -50 0
33 -20 0
-71 0
-21 94 0
-76 0
-11 -98 0
-22 95 0
-72 2 0
-36 -98 0
-61 86 0
30 -57 0
-45 0
74 -84 0
-43 -67 0
-80 64 0
3 -45 0
-100 -27 0
40 -63 0
-90 0
-54 0
72 -21 0
-61 100 0
75 -66 0
-83 0
25 -36 0
8 -62 0
-64 -30 0
-5 61 0
-34 0
-16 0
-28 0
-23 0
43 -85 0
-62 -66 0
-66 -65 0
-70 20 0
-40 0
-82 0
-91 0
-75 94 0
-47 70 0
-24 0
-98 0
-13 0
-85 68 0
-24 89 0
-60 69 0
-66 0
35 -81 0
-40 70 0
9 -59 0
-78 0
-53 0
-87 -89 0
-78 0
-46 -14 0
-47 -57 0
-20 95 0
10 -44 0
-64 65 0
-15 0
-18 0
41 -78 0
-47 7 0
65 -6 0
-28 0
-40 58 0
-9 23 0
-24 0
-16 0
-42 0
-46 0
-29 -25 0
-38 0
88 -86 0
-12 60 0
-62 39 0
38 -66 0
-72 73 0
-86 -11 0
-85 0
-14 -21 0
-72 -61 0
-27 0
-96 0
-12 0
-20 0
11 -4 0
-98 0
-8 19 0
80 -23 0
-76 -90 0
-38 0
26 -73 0
-17 0
-7 -14 0
26 -98 0
99 -13 0
19 -58 0
-19 -75 0
-8 0
-93 14 0
-29 -35 0
-44 0
-64 40 0
-70 -50 0
-15 94 0
-71 0
-22 45 0
-3 0
-27 62 0
-64 77 0
88 -95 0
-56 49 0
-85 7 0
-65 0
64 -42 0
10 -17 0
-48 94 0
-80 0
-43 0
-86 0
58 -69 0
-90 0
43 -53 0
-70 0
-27 0
-41 0
-3 78 0
86 -82 0
-7 0
-77 30 0
4 -58 0
-5 -74 0
-77 6 0
-41 0
-16 -61 0
27 -82 0
-22 0
-73 0
-68 -27 0
-13 0
-62 -11 0
-35 0
-5 -11 0
-6 -1 0
-72 0
-6 -58 0
-69 0
-80 0
85 -18 0
-16 0
5 -91 0
-88 -3 0
-50 -26 0
34 -25 0
-1 0
-100 6 0
-18 0
-4 0
-29 0
-52 0
13 -66 0
10 -58 0
-19 0
-32 0
-79 0
48 -97 0
-62 11 0
-39 0
16 -38 0
25 -46 0
-42 0
19 -58 0
-49 0
-37 0
-45 -76 0
-38 0
9 -7 0
-28 -75 0
-12 0
-11 0
-12 0
-68 -89 0
-31 -95 0
59 -85 0
-100 0
-3 0
-89 0
82 -51 0
-79 0
-38 -20 0
-22 -91 0
-99 0
-27 -65 0
-22 37 0
44 -12 0
-71 0
-29 0
-89 -97 0
-45 -3 0
-67 0
3 -74 0
-61 0
-71 -65 0
-30 -19 0
1 -99 0
-31 46 0
-45 14 0
-8 4 0
-8 -2 0
-31 0
34 -89 0
-1 -81 0
-12 0
-27 0
72 -13 0
-62 -28 0
-22 -4 0
-17 0
-16 94 0
-16 46 0
19 -92 0
-23 87 0
88 -18 0
-53 94 0
-57 63 0
83 -37 0
-71 -59 0
-63 0
-87 7 0
-26 0
-13 -35 0
-43 0
58 -51 0
-14 0
-96 0
-8 35 0
-47 3 0
-86 28 0
-70 -61 0
96 -35 0
-96 -71 0
-10 -1 0
-22 93 0
-36 -74 0
-58 0
28 -98 0
-44 0
-49 0
-88 1 0
-54 93 0
-75 22 0
-68 -51 0
51 -52 0
-97 0
-84 63 0
-40 29 0
-72 0
-32 -47 0
-32 0
-5 0
-47 -90 0
-17 0
-47 0
88 -40 0
-94 0
-46 0
-5 -58 0
25 -81 0
65 -81 0
-20 -18 0
-64 0
75 -29 0
-5 84 0
42 -100 0
-37 0
-35 0
-82 0
51 -57 0
34 -17 0
-25 0
-3 86 0
96 -72 0
-72 0
-19 0
-61 0
83 -19 0
-63 0
-67 0
-40 39 0
-98 0
-30 63 0
-71 0
-60 15 0
-31 0
-24 -86 0
-21 84 0
13 -10 0
8 -4 0
-88 -10 0
81 -97 0
97 -77 0
-34 0
-2 0
-53 -3 0
-11 -41 0
-88 0
-13 -57 0
-81 71 0
38 -10 0
16 -2 0
-69 -5 0
