p cnf 314 993
86 63 0
26 0
45 0
17 90 0
64 0
77 0
19 0
29 0
36 0
57 0
89 23 0
57 14 0
9 0
29 0
2 0
16 83 0
25 71 0
55 0
60 0
49 0
4 70 0
67 0
96 60 0
54 71 0
38 0
68 45 0
52 5 0
61 0
80 23 0
33 10 0
99 59 0
24 0
66 59 0
9 29 0
100 0
36 62 0
65 75 0
96 0
66 0
25 82 0
80 21 0
47 0
3 0
82 0
42 54 0
93 0
21 0
88 0
69 45 0
82 0
41 0
80 0
42 0
84 0
50 82 0
89 17 0
97 0
65 59 0
15 63 0
41 93 0
90 30 0
17 0
90 67 0
38 0
86 0
73 0
31 0
91 0
92 0
57 37 0
50 84 0
29 79 0
10 0
17 0
49 79 0
59 0
70 0
61 0
67 0
45 0
40 53 0
81 0
74 0
91 0
45 0
90 0
25 0
5 15 0
9 44 0
25 0
86 14 0
64 57 0
7 0
6 0
45 0
91 0
26 22 0
24 44 0
39 0
26 92 0
26 0
32 85 0
74 0
48 34 0
13 79 0
60 0
45 0
97 2 0
72 14 0
72 95 0
87 0
100 0
36 0
27 87 0
24 50 0
72 93 0
70 0
68 77 0
36 7 0
68 0
87 0
21 61 0
87 0
73 0
19 52 0
90 0
34 0
97 0
72 0
70 0
38 22 0
84 0
6 79 0
72 0
12 0
1 0
69 0
20 0
8 0
23 0
38 87 0
90 0
56 0
11 0
44 0
7 0
86 0
75 0
3 38 0
82 35 0
87 0
14 0
100 0
37 0
42 0
25 0
88 14 0
83 0
3 0
24 0
94 0
87 95 0
55 0
37 95 0
47 0
82 0
24 71 0
24 28 0
22 0
77 0
89 60 0
77 0
87 0
6 0
26 15 0
2 0
35 0
100 0
72 0
66 0
100 0
1 2 0
99 0
14 55 0
14 79 0
15 0
10 94 0
65 0
40 0
35 0
91 54 0
66 0
19 0
49 0
88 0
68 0
32 0
66 0
100 0
7 0
4 47 0
54 0
14 0
60 0
51 0
26 42 0
26 20 0
67 79 0
76 14 0
26 0
42 0
52 0
25 63 0
57 0
85 0
66 0
48 96 0
84 0
66 79 0
34 47 0
49 20 0
78 0
44 0
17 66 0
8 0
22 0
99 79 0
85 38 0
17 0
50 0
14 0
28 14 0
74 0
52 0
97 0
80 29 0
27 85 0
60 0
40 0
86 0
3 0
99 0
95 0
54 14 0
95 0
98 15 0
61 0
96 57 0
65 0
43 37 0
75 31 0
55 0
58 0
74 0
53 0
85 0
82 0
81 4 0
81 18 0
26 0
39 0
45 0
45 0
90 30 0
61 0
88 0
71 0
59 71 0
73 0
40 48 0
48 88 0
100 0
31 0
9 0
16 0
36 0
35 0
19 76 0
41 94 0
49 0
13 5 0
9 0
83 0
40 0
89 91 0
44 0
19 0
73 70 0
99 0
84 22 0
3 86 0
41 0
32 0
58 21 0
66 0
43 0
47 0
19 63 0
18 85 0
43 0
28 0
52 0
44 0
73 51 0
91 30 0
28 0
13 0
23 0
38 0
20 5 0
26 77 0
12 0
16 0
78 0
10 0
23 0
28 84 0
29 0
98 20 0
87 0
58 0
82 0
38 0
58 38 0
50 67 0
89 0
62 0
98 84 0
73 0
81 0
100 0
35 0
90 91 0
2 0
4 0
4 0
34 4 0
82 55 0
77 0
82 54 0
34 0
96 75 0
72 0
64 0
77 0
30 0
96 75 0
86 0
96 0
92 0
17 4 0
80 37 0
16 20 0
62 0
27 0
48 0
81 63 0
-34 -101 0
25 -101 0
34 -25 101 0
-74 -102 0
84 -102 0
74 -84 102 0
-86 -103 0
49 -103 0
86 -49 103 0
40 -104 0
-70 -104 0
-40 70 104 0
29 -105 0
25 -105 0
-29 -25 105 0
29 -106 0
17 -106 0
-29 -17 106 0
47 -107 0
-3 -107 0
-47 3 107 0
48 -108 0
-94 -108 0
-48 94 108 0
-58 -109 0
69 -109 0
58 -69 109 0
-66 -110 0
77 -110 0
66 -77 110 0
-9 -111 0
59 -111 0
9 -59 111 0
-65 -112 0
81 -112 0
65 -81 112 0
3 -113 0
-86 -113 0
-3 86 113 0
-38 -114 0
66 -114 0
38 -66 114 0
8 -115 0
75 -115 0
-8 -75 115 0
-8 -116 0
69 -116 0
8 -69 116 0
-17 -117 0
33 -117 0
17 -33 117 0
72 -118 0
-73 -118 0
-72 73 118 0
9 -119 0
-23 -119 0
-9 23 119 0
-33 -120 0
20 -120 0
33 -20 120 0
64 -121 0
30 -121 0
-64 -30 121 0
4 -122 0
97 -122 0
-4 -97 122 0
-5 -123 0
17 -123 0
5 -17 123 0
-75 -124 0
17 -124 0
75 -17 124 0
72 -125 0
-2 -125 0
-72 2 125 0
-82 -126 0
37 -126 0
82 -37 126 0
-25 -127 0
81 -127 0
25 -81 127 0
32 -128 0
47 -128 0
-32 -47 128 0
5 -129 0
11 -129 0
-5 -11 129 0
-16 -130 0
38 -130 0
16 -38 130 0
-88 -131 0
95 -131 0
88 -95 131 0
56 -132 0
2 -132 0
-56 -2 132 0
-19 -133 0
92 -133 0
19 -92 133 0
73 -134 0
-47 -134 0
-73 47 134 0
1 -135 0
81 -135 0
-1 -81 135 0
-16 -136 0
50 -136 0
16 -50 136 0
24 -137 0
-36 -137 0
-24 36 137 0
44 -138 0
-12 -138 0
-44 12 138 0
-11 -139 0
65 -139 0
11 -65 139 0
89 -140 0
97 -140 0
-89 -97 140 0
85 -141 0
-68 -141 0
-85 68 141 0
54 -142 0
-23 -142 0
-54 23 142 0
36 -143 0
98 -143 0
-36 -98 143 0
20 -144 0
-95 -144 0
-20 95 144 0
8 -145 0
-4 -145 0
-8 4 145 0
75 -146 0
-22 -146 0
-75 22 146 0
76 -147 0
90 -147 0
-76 -90 147 0
-72 -148 0
26 -148 0
72 -26 148 0
77 -149 0
-30 -149 0
-77 30 149 0
99 -150 0
18 -150 0
-99 -18 150 0
-18 -151 0
3 -151 0
18 -3 151 0
94 -152 0
70 -152 0
-94 -70 152 0
48 -153 0
-92 -153 0
-48 92 153 0
78 -154 0
-99 -154 0
-78 99 154 0
-67 -155 0
99 -155 0
67 -99 155 0
10 -156 0
1 -156 0
-10 -1 156 0
-83 -157 0
11 -157 0
83 -11 157 0
-48 -158 0
28 -158 0
48 -28 158 0
-88 -159 0
86 -159 0
88 -86 159 0
-1 -160 0
54 -160 0
1 -54 160 0
-89 -161 0
49 -161 0
89 -49 161 0
93 -162 0
-14 -162 0
-93 14 162 0
62 -163 0
-39 -163 0
-62 39 163 0
-97 -164 0
77 -164 0
97 -77 164 0
-13 -165 0
11 -165 0
13 -11 165 0
-58 -166 0
51 -166 0
58 -51 166 0
31 -167 0
85 -168 0
-7 -168 0
-85 7 168 0
40 -169 0
17 -169 0
-40 -17 169 0
88 -170 0
10 -170 0
-88 -10 170 0
-74 -171 0
50 -171 0
74 -50 171 0
-8 -172 0
92 -172 0
8 -92 172 0
80 -173 0
-27 -173 0
-80 27 173 0
54 -174 0
-93 -174 0
-54 93 174 0
70 -175 0
51 -175 0
-70 -51 175 0
-67 -176 0
21 -176 0
67 -21 176 0
80 -177 0
-90 -177 0
-80 90 177 0
-4 -178 0
58 -178 0
4 -58 178 0
87 -179 0
-78 -179 0
-87 78 179 0
-44 -180 0
3 -180 0
44 -3 180 0
14 -181 0
12 -182 0
-21 -182 0
-12 21 182 0
96 -183 0
71 -183 0
-96 -71 183 0
26 -184 0
-79 -184 0
-26 79 184 0
69 -185 0
5 -185 0
-69 -5 185 0
-3 -186 0
74 -186 0
3 -74 186 0
-43 -187 0
85 -187 0
43 -85 187 0
15 -188 0
59 -188 0
-15 -59 188 0
53 -189 0
4 -189 0
-53 -4 189 0
38 -190 0
1 -190 0
-38 -1 190 0
-65 -191 0
6 -191 0
65 -6 191 0
-93 -192 0
25 -192 0
93 -25 192 0
-34 -193 0
45 -193 0
34 -45 193 0
74 -194 0
89 -194 0
-74 -89 194 0
64 -195 0
-65 -195 0
-64 65 195 0
-41 -196 0
30 -196 0
41 -30 196 0
12 -197 0
-60 -197 0
-12 60 197 0
68 -198 0
89 -198 0
-68 -89 198 0
-51 -199 0
45 -199 0
51 -45 199 0
47 -200 0
-7 -200 0
-47 7 200 0
82 -201 0
-38 -201 0
-82 38 201 0
-86 -202 0
82 -202 0
86 -82 202 0
-26 -203 0
73 -203 0
26 -73 203 0
44 -204 0
-86 -204 0
-44 86 204 0
6 -205 0
-54 -205 0
-6 54 205 0
88 -206 0
-2 -206 0
-88 2 206 0
14 -207 0
21 -207 0
-14 -21 207 0
56 -208 0
-49 -208 0
-56 49 208 0
21 -209 0
-84 -209 0
-21 84 209 0
27 -210 0
-54 -210 0
-27 54 210 0
62 -211 0
11 -211 0
-62 -11 211 0
64 -212 0
-77 -212 0
-64 77 212 0
86 -213 0
11 -213 0
-86 -11 213 0
88 -214 0
-1 -214 0
-88 1 214 0
59 -215 0
50 -215 0
-59 -50 215 0
71 -216 0
65 -216 0
-71 -65 216 0
80 -217 0
86 -217 0
-80 -86 217 0
48 -218 0
-17 -218 0
-48 17 218 0
-84 -219 0
58 -219 0
84 -58 219 0
-5 -220 0
98 -220 0
5 -98 220 0
16 -221 0
61 -221 0
-16 -61 221 0
96 -222 0
-82 -222 0
-96 82 222 0
-41 -223 0
78 -223 0
41 -78 223 0
70 -224 0
-20 -224 0
-70 20 224 0
31 -225 0
28 -225 0
-31 -28 225 0
-18 -226 0
41 -226 0
18 -41 226 0
16 -227 0
-94 -227 0
-16 94 227 0
70 -228 0
-74 -228 0
-70 74 228 0
20 -229 0
83 -229 0
-20 -83 229 0
-9 -230 0
7 -230 0
9 -7 230 0
-72 -231 0
55 -231 0
72 -55 231 0
23 -232 0
-87 -232 0
-23 87 232 0
-11 -233 0
73 -233 0
11 -73 233 0
-42 -234 0
100 -234 0
42 -100 234 0
22 -235 0
4 -235 0
-22 -4 235 0
28 -236 0
75 -236 0
-28 -75 236 0
45 -237 0
3 -237 0
-45 -3 237 0
80 -238 0
72 -238 0
-80 -72 238 0
-99 -239 0
43 -239 0
99 -43 239 0
-38 -240 0
10 -240 0
38 -10 240 0
-51 -241 0
57 -241 0
51 -57 241 0
59 -242 0
51 -242 0
-59 -51 242 0
53 -243 0
3 -243 0
-53 -3 243 0
7 -244 0
-78 -244 0
-7 78 244 0
-66 -245 0
100 -245 0
66 -100 245 0
63 -246 0
-53 -246 0
-63 53 246 0
61 -247 0
100 -247 0
-61 -100 247 0
7 -248 0
14 -248 0
-7 -14 248 0
6 -249 0
51 -249 0
-6 -51 249 0
-19 -250 0
58 -250 0
19 -58 250 0
56 -251 0
61 -251 0
-56 -61 251 0
-99 -252 0
13 -252 0
99 -13 252 0
-10 -253 0
58 -253 0
10 -58 253 0
-42 -254 0
58 -254 0
42 -58 254 0
68 -255 0
51 -255 0
-68 -51 255 0
66 -256 0
65 -256 0
-66 -65 256 0
11 -257 0
98 -257 0
-11 -98 257 0
24 -258 0
86 -258 0
-24 -86 258 0
85 -259 0
-39 -259 0
-85 39 259 0
-82 -260 0
51 -260 0
82 -51 260 0
-87 -261 0
33 -261 0
87 -33 261 0
45 -262 0
76 -262 0
-45 -76 262 0
47 -263 0
90 -263 0
-47 -90 263 0
79 -264 0
-18 -264 0
-79 18 264 0
-88 -265 0
40 -265 0
88 -40 265 0
22 -266 0
91 -266 0
-22 -91 266 0
78 -267 0
-44 -267 0
-78 44 267 0
42 -268 0
-15 -268 0
-42 15 268 0
77 -269 0
-6 -269 0
-77 6 269 0
60 -270 0
-69 -270 0
-60 69 270 0
57 -271 0
-63 -271 0
-57 63 271 0
-25 -272 0
43 -272 0
25 -43 272 0
88 -273 0
3 -273 0
-88 -3 273 0
5 -274 0
-61 -274 0
-5 61 274 0
-11 -275 0
4 -275 0
11 -4 275 0
100 -276 0
27 -276 0
-100 -27 276 0
43 -277 0
67 -277 0
-43 -67 277 0
74 -278 0
25 -278 0
-74 -25 278 0
-8 -279 0
4 -279 0
8 -4 279 0
-44 -280 0
67 -280 0
44 -67 280 0
31 -281 0
-52 -281 0
-31 52 281 0
88 -282 0
98 -282 0
-88 -98 282 0
11 -283 0
41 -283 0
-11 -41 283 0
20 -284 0
18 -284 0
-20 -18 284 0
29 -285 0
35 -285 0
-29 -35 285 0
100 -286 0
-6 -286 0
-100 6 286 0
-10 -287 0
84 -287 0
10 -84 287 0
-26 -288 0
58 -288 0
26 -58 288 0
24 -289 0
-28 -289 0
-24 28 289 0
16 -290 0
32 -291 0
-95 -291 0
-32 95 291 0
63 -292 0
100 -292 0
-63 -100 292 0
84 -293 0
-6 -293 0
-84 6 293 0
-44 -294 0
12 -294 0
44 -12 294 0
61 -295 0
-100 -295 0
-61 100 295 0
-19 -296 0
65 -296 0
19 -65 296 0
-83 -297 0
19 -297 0
83 -19 297 0
-67 -298 0
84 -298 0
67 -84 298 0
-14 -299 0
49 -299 0
14 -49 299 0
-48 -300 0
97 -300 0
48 -97 300 0
-67 -301 0
83 -301 0
67 -83 301 0
62 -302 0
-11 -302 0
-62 11 302 0
40 -303 0
-58 -303 0
-40 58 303 0
20 -304 0
9 -304 0
-20 -9 304 0
-36 -305 0
91 -305 0
36 -91 305 0
-51 -306 0
99 -306 0
51 -99 306 0
-61 -307 0
65 -307 0
61 -65 307 0
60 -308 0
-15 -308 0
-60 15 308 0
15 -309 0
14 -309 0
-15 -14 309 0
-10 -310 0
17 -310 0
10 -17 310 0
5 -311 0
58 -311 0
-5 -58 311 0
88 -312 0
75 -312 0
-88 -75 312 0
47 -313 0
-70 -313 0
-47 70 313 0
5 -314 0
85 -314 0
-5 -85 314 0
