p cnf 100 640
40 -20 0
56 -58 0
-46 0
12 -51 0
-15 -10 0
-93 -12 0
72 -87 0
-11 94 0
-39 -84 0
-21 37 0
-55 0
-77 0
99 -91 0
-92 0
44 -43 0
-82 0
-70 -53 0
29 -81 0
-32 0
92 -75 0
-63 27 0
-86 28 0
-5 55 0
-3 -98 0
71 -57 0
84 -90 0
-68 77 0
-64 75 0
65 -76 0
-62 0
-94 0
-29 0
-99 87 0
-86 37 0
-19 0
-72 -22 0
-21 0
-15 0
-54 -89 0
-76 -20 0
50 -33 0
10 -73 0
-40 0
-23 20 0
-29 0
90 -14 0
50 -89 0
-72 -93 0
-14 45 0
-86 0
-31 0
-24 0
-81 0
-26 0
-88 18 0
-51 0
-88 -28 0
59 -57 0
60 -10 0
-61 69 0
-66 0
32 -13 0
-100 63 0
17 -97 0
-62 0
-95 60 0
45 -89 0
-53 0
43 -85 0
-62 -11 0
-29 -60 0
-72 0
-27 0
-78 0
1 -84 0
-71 0
-100 0
-69 5 0
-83 -18 0
-25 0
-24 -94 0
-36 0
-76 -59 0
-71 -75 0
33 -18 0
96 -52 0
-44 0
-94 0
-8 -65 0
98 -50 0
-14 29 0
1 -81 0
-6 -61 0
-54 76 0
-72 84 0
-10 0
-37 0
-55 -1 0
-54 -60 0
25 -19 0
-7 0
4 -9 0
33 -25 0
-38 0
-55 98 0
-77 -81 0
72 -44 0
-4 0
-53 0
-64 0
-40 21 0
-71 -54 0
-54 0
-83 0
-45 -21 0
-4 0
-24 91 0
-5 -17 0
-6 0
-72 -14 0
-62 -12 0
49 -59 0
20 -17 0
-5 -75 0
-6 0
-31 -4 0
-71 0
-95 0
73 -90 0
-61 44 0
-69 0
-62 47 0
-5 7 0
-96 0
-72 -42 0
-64 8 0
-44 0
-36 -50 0
88 -98 0
34 -44 0
-56 -43 0
-64 0
-57 0
-28 0
74 -25 0
-95 -57 0
-96 -97 0
-23 0
89 -9 0
17 -57 0
-86 -50 0
-53 -74 0
-77 -73 0
-10 0
-72 -41 0
-13 0
-16 -66 0
-62 86 0
-49 0
-76 0
-7 0
-85 0
-38 0
-13 0
-46 0
-98 0
-64 12 0
44 -49 0
-56 66 0
-72 -68 0
-7 0
-16 0
-48 99 0
-76 0
-44 0
83 -53 0
-8 -19 0
-63 59 0
-32 29 0
-23 0
-87 45 0
-7 -43 0
-87 -44 0
-91 0
-76 0
-88 0
-88 -34 0
-48 -19 0
12 -17 0
-23 0
-19 0
-86 0
-9 0
-30 0
35 -81 0
-73 0
-56 43 0
-68 0
-80 -24 0
-31 -47 0
-35 0
-16 0
-73 0
-68 0
-30 0
-87 37 0
81 -43 0
-23 0
-71 26 0
28 -20 0
-29 -18 0
-90 0
-52 0
-16 -49 0
-18 0
-76 0
-46 79 0
-29 5 0
-62 0
-36 0
74 -100 0
-22 -29 0
-96 -73 0
-22 0
-99 94 0
-35 -27 0
-60 0
-25 0
-35 0
56 -10 0
-48 0
-53 0
-78 5 0
89 -43 0
-70 -34 0
-87 0
-31 -19 0
-31 0
-100 0
-38 52 0
17 -51 0
-32 0
-31 100 0
-90 0
-9 0
-80 0
-97 0
-7 0
-79 26 0
28 -89 0
-15 -54 0
-37 0
-29 0
-72 45 0
-10 0
-3 0
-15 1 0
-24 0
-93 0
98 -17 0
-86 38 0
-38 91 0
-97 0
-52 -49 0
-72 -50 0
-23 78 0
-24 94 0
-8 79 0
-49 0
-72 0
-40 0
-86 -5 0
-10 0
-99 0
-74 -2 0
-70 0
-15 70 0
-59 -83 0
-64 27 0
-64 0
-50 0
-8 39 0
-92 0
-100 39 0
-86 -83 0
-13 -67 0
-53 38 0
-80 21 0
-99 0
-14 -68 0
-48 -78 0
-92 -36 0
-48 -97 0
-44 0
31 -73 0
-56 74 0
-70 6 0
78 -42 0
-46 93 0
34 -82 0
-23 71 0
69 -10 0
-99 -33 0
-47 3 0
-6 -28 0
64 -38 0
-45 30 0
53 -34 0
-18 0
33 -19 0
-50 -2 0
-12 0
-64 -53 0
88 -81 0
-39 22 0
-75 0
-53 0
-7 5 0
-72 9 0
-52 0
-71 -97 0
-97 -81 0
-4 0
-71 13 0
-73 0
-11 -97 0
-87 76 0
-62 0
-14 -45 0
51 -83 0
-61 -82 0
-96 -7 0
-42 0
-24 0
-55 -95 0
-62 -28 0
-54 78 0
-59 0
-41 0
-94 37 0
98 -1 0
-39 -45 0
-79 54 0
-49 0
96 -54 0
80 -44 0
-16 0
75 -76 0
-75 30 0
60 -41 0
-22 46 0
-7 3 0
24 -51 0
-31 0
-48 57 0
-95 66 0
-31 -61 0
-28 0
-98 0
-97 23 0
25 -20 0
-82 95 0
65 -10 0
65 -23 0
-53 86 0
-78 0
-63 0
-48 -75 0
-32 -4 0
12 -83 0
-22 -44 0
-21 -41 0
-79 21 0
-47 -76 0
-87 -38 0
-59 0
-50 0
-10 0
-74 0
-94 0
-77 -34 0
-80 -95 0
-60 7 0
-27 0
-75 6 0
-77 -18 0
-55 0
43 -19 0
-61 -59 0
48 -26 0
30 -73 0
-4 70 0
-30 0
-61 -28 0
3 -37 0
-24 -70 0
77 -73 0
29 -9 0
-51 -57 0
-72 -55 0
-71 0
63 -57 0
-99 -9 0
-37 54 0
33 -28 0
34 -61 0
40 -74 0
-94 -26 0
-40 0
-16 0
-23 0
93 -74 0
-54 19 0
-53 -34 0
-29 0
32 -22 0
27 -19 0
-75 -57 0
-7 3 0
-61 0
-66 15 0
-32 -9 0
-26 0
-31 -6 0
97 -13 0
49 -47 0
32 -44 0
-39 91 0
-68 22 0
-62 0
-83 0
-15 -52 0
-5 -67 0
-87 42 0
-58 0
88 -2 0
-20 0
-24 -35 0
-3 0
-52 0
-57 0
-34 0
-80 -24 0
-2 -10 0
-47 9 0
-21 47 0
82 -9 0
-18 0
-53 0
-12 0
-62 0
-97 0
-21 0
-16 0
-95 6 0
73 -5 0
73 -78 0
-55 -20 0
-29 0
69 -26 0
-68 95 0
-16 0
-32 -59 0
-55 0
-7 47 0
-48 0
75 -82 0
-85 0
40 -66 0
-97 0
-35 37 0
-75 0
-61 0
-54 0
81 -55 0
96 -10 0
17 -70 0
-25 0
-65 0
-33 0
-13 -5 0
-96 69 0
-72 -50 0
-100 -97 0
-73 15 0
-10 14 0
-51 0
-72 0
-23 44 0
-46 55 0
-63 94 0
-60 0
-24 0
-6 100 0
44 -41 0
-73 0
-60 0
-24 -82 0
97 -69 0
-79 74 0
-94 76 0
-24 62 0
-17 0
-31 54 0
-11 -98 0
-55 0
-59 0
80 -20 0
73 -23 0
-95 -99 0
-74 0
96 -50 0
-62 -6 0
-40 5 0
-79 -41 0
-1 79 0
-45 0
87 -17 0
-34 0
-64 -19 0
-52 -98 0
56 -6 0
49 -68 0
-74 0
-58 0
-4 0
-24 -62 0
-47 62 0
81 -38 0
-16 67 0
4 -74 0
-74 0
-83 0
-9 0
8 -58 0
-85 0
-96 79 0
-64 55 0
1 -29 0
-41 0
-61 0
12 -19 0
-55 0
34 -27 0
-15 0
-38 -49 0
-51 -65 0
-5 -10 0
-64 0
97 -84 0
-79 -41 0
93 -98 0
-50 0
-62 -70 0
-55 -30 0
-76 -57 0
-20 -98 0
-30 15 0
-45 -36 0
-77 68 0
64 -88 0
-62 39 0
-88 0
-54 39 0
-39 10 0
-32 0
-63 0
-55 0
-51 -17 0
-12 0
-48 46 0
-44 0
-76 -28 0
-11 0
93 -83 0
-23 0
-73 0
88 -36 0
81 -7 0
-83 -67 0
48 -30 0
-87 60 0
-18 0
-81 0
-47 0
-57 0
92 -81 0
-4 -99 0
-47 -75 0
16 -35 0
80 -46 0
-75 0
-44 86 0
11 -61 0
-55 0
35 -25 0
-63 44 0
-85 0
-46 -81 0
35 -36 0
24 -31 0
-52 0
-38 0
-28 -58 0
99 -29 0
-5 45 0
88 -63 0
-85 12 0
-15 -36 0
-5 0
-16 -54 0
-47 -42 0
-50 0
-7 -94 0
-27 30 0
-70 -34 0
-48 0
-36 47 0
36 -34 0
-80 0
-67 31 0
-57 0
-54 0
-82 0
-65 -33 0
-78 -14 0
-6 0
98 -12 0
76 -9 0
-22 5 0
-58 0
-10 0
-22 3 0
-95 0
25 -90 0
-78 0
-55 13 0
-78 0
-94 0
-11 0
