p cnf 267 844
72 0
42 0
1 0
14 0
56 0
52 15 0
53 0
8 0
88 70 0
30 0
50 0
32 0
10 37 0
34 0
42 0
11 0
42 0
50 93 0
27 0
86 0
61 0
12 84 0
48 0
41 0
86 0
73 46 0
90 85 0
91 0
42 0
65 0
76 0
75 0
40 94 0
83 23 0
6 0
52 0
94 0
61 0
47 0
72 0
75 0
93 0
20 0
46 6 0
16 0
40 4 0
27 6 0
75 0
78 0
34 87 0
18 0
44 0
19 61 0
43 0
15 0
49 0
87 0
97 0
70 0
7 0
61 0
10 20 0
42 100 0
47 0
89 25 0
38 0
10 0
38 7 0
23 0
13 0
33 0
71 0
88 0
42 0
96 0
81 46 0
81 0
82 69 0
82 0
74 0
38 0
16 0
26 50 0
5 0
90 0
81 0
80 0
9 0
31 0
18 0
51 0
69 0
12 0
98 13 0
49 0
94 0
58 66 0
77 0
67 0
22 0
40 0
15 0
78 0
59 0
52 0
27 70 0
19 0
98 0
61 0
69 0
22 0
90 98 0
9 83 0
3 0
95 0
9 0
40 0
91 0
89 25 0
36 0
72 0
2 0
3 4 0
16 0
38 0
82 12 0
10 12 0
81 0
23 0
90 0
55 0
99 70 0
8 35 0
88 0
91 0
50 77 0
13 0
65 92 0
45 0
97 0
36 0
44 87 0
85 79 0
37 54 0
41 0
61 0
55 0
39 0
17 0
40 0
52 15 0
71 0
16 94 0
88 67 0
1 92 0
16 94 0
55 0
54 0
25 6 0
8 39 0
35 0
65 84 0
4 0
72 35 0
67 52 0
65 0
13 0
51 0
55 0
96 0
93 0
57 0
86 0
51 0
26 0
57 26 0
48 0
15 0
60 38 0
26 0
72 0
20 0
2 0
60 0
65 63 0
15 0
53 0
82 0
15 0
9 0
12 53 0
49 0
5 0
96 28 0
32 0
5 0
27 0
30 0
53 62 0
5 0
20 0
77 86 0
51 0
15 0
72 0
61 0
8 0
21 0
52 0
44 0
17 75 0
34 0
8 74 0
48 0
55 0
21 0
99 11 0
9 0
65 0
91 0
52 39 0
80 0
33 35 0
61 70 0
21 0
22 0
24 2 0
7 0
41 0
53 0
53 0
27 0
31 0
100 0
84 0
94 0
10 39 0
96 0
73 0
17 0
18 0
10 0
58 0
36 0
15 0
50 0
58 0
63 0
60 93 0
89 62 0
80 0
9 0
28 0
43 0
17 19 0
98 0
81 71 0
70 0
1 0
48 55 0
85 0
82 0
1 87 0
50 0
70 0
58 0
10 0
68 85 0
91 0
83 0
41 78 0
16 60 0
98 52 0
100 22 0
65 0
16 0
69 0
67 0
38 0
9 3 0
78 0
33 35 0
93 0
73 47 0
90 0
6 7 0
16 0
9 67 0
65 0
8 0
91 0
5 0
41 0
48 0
29 0
10 92 0
12 85 0
36 0
38 0
43 0
47 0
87 0
88 15 0
19 0
69 0
5 0
90 0
97 76 0
73 0
9 0
83 55 0
74 10 0
66 0
68 0
43 0
16 47 0
11 52 0
68 79 0
63 0
38 0
97 0
85 0
42 76 0
25 0
92 0
17 0
9 0
13 0
11 45 0
73 44 0
8 0
80 74 0
23 0
1 0
62 0
8 44 0
54 0
56 93 0
16 26 0
63 0
33 6 0
83 0
1 69 0
31 0
81 0
68 14 0
1 87 0
30 0
94 0
40 57 0
19 67 0
95 0
8 0
30 0
80 0
40 0
74 0
88 -101 0
-18 -101 0
-88 18 101 0
-1 -102 0
81 -102 0
1 -81 102 0
45 -103 0
-30 -103 0
-45 30 103 0
62 -104 0
11 -104 0
-62 -11 104 0
74 -105 0
2 -105 0
-74 -2 105 0
38 -106 0
49 -106 0
-38 -49 106 0
7 -107 0
-3 -107 0
-7 3 107 0
-33 -108 0
25 -108 0
33 -25 108 0
-51 -109 0
83 -109 0
51 -83 109 0
-74 -110 0
25 -110 0
74 -25 110 0
-49 -111 0
59 -111 0
49 -59 111 0
-33 -112 0
19 -112 0
33 -19 112 0
-78 -113 0
42 -113 0
78 -42 113 0
-72 -114 0
87 -114 0
72 -87 114 0
22 -115 0
29 -115 0
-22 -29 115 0
5 -116 0
-7 -116 0
-5 7 116 0
8 -117 0
-39 -117 0
-8 39 117 0
31 -118 0
-54 -118 0
-31 54 118 0
-25 -119 0
19 -119 0
25 -19 119 0
6 -120 0
28 -120 0
-6 -28 120 0
-73 -121 0
23 -121 0
73 -23 121 0
72 -122 0
50 -122 0
-72 -50 122 0
38 -123 0
-91 -123 0
-38 91 123 0
-8 -124 0
86 -125 0
-28 -125 0
-86 28 125 0
65 -126 0
33 -126 0
-65 -33 126 0
96 -127 0
7 -127 0
-96 -7 127 0
79 -128 0
41 -128 0
-79 -41 128 0
36 -129 0
50 -129 0
-36 -50 129 0
-29 -130 0
81 -130 0
29 -81 130 0
-3 -131 0
37 -131 0
3 -37 131 0
-32 -132 0
44 -132 0
32 -44 132 0
-20 -133 0
17 -133 0
20 -17 133 0
63 -134 0
-94 -134 0
-63 94 134 0
68 -135 0
-22 -135 0
-68 22 135 0
85 -136 0
-12 -136 0
-85 12 136 0
95 -137 0
99 -137 0
-95 -99 137 0
87 -138 0
38 -138 0
-87 -38 138 0
62 -139 0
6 -139 0
-62 -6 139 0
-4 -140 0
74 -140 0
4 -74 140 0
-34 -141 0
27 -141 0
34 -27 141 0
-17 -142 0
51 -142 0
17 -51 142 0
-75 -143 0
82 -143 0
75 -82 143 0
72 -144 0
68 -144 0
-72 -68 144 0
69 -145 0
-5 -145 0
-69 5 145 0
11 -146 0
97 -146 0
-11 -97 146 0
22 -147 0
-5 -147 0
-22 5 147 0
-56 -148 0
10 -148 0
56 -10 148 0
10 -149 0
-14 -149 0
-10 14 149 0
-45 -150 0
89 -150 0
45 -89 150 0
13 -151 0
67 -151 0
-13 -67 151 0
92 -152 0
36 -152 0
-92 -36 152 0
-43 -153 0
19 -153 0
43 -19 153 0
21 -154 0
-37 -154 0
-21 37 154 0
56 -155 0
-66 -155 0
-56 66 155 0
48 -156 0
97 -156 0
-48 -97 156 0
48 -157 0
-57 -157 0
-48 57 157 0
-65 -158 0
10 -158 0
65 -10 158 0
39 -159 0
-10 -159 0
-39 10 159 0
-89 -160 0
9 -160 0
89 -9 160 0
-8 -161 0
58 -161 0
8 -58 161 0
-29 -162 0
9 -162 0
29 -9 162 0
-93 -163 0
83 -163 0
93 -83 163 0
11 -164 0
98 -164 0
-11 -98 164 0
56 -165 0
-74 -165 0
-56 74 165 0
1 -166 0
-79 -166 0
-1 79 166 0
47 -167 0
42 -167 0
-47 -42 167 0
-50 -168 0
89 -168 0
50 -89 168 0
-4 -169 0
9 -169 0
4 -9 169 0
72 -170 0
50 -170 0
-72 -50 170 0
56 -171 0
43 -171 0
-56 -43 171 0
55 -172 0
20 -172 0
-55 -20 172 0
86 -173 0
83 -173 0
-86 -83 173 0
-73 -174 0
78 -174 0
73 -78 174 0
96 -175 0
-79 -175 0
-96 79 175 0
95 -176 0
-66 -176 0
-95 66 176 0
19 -177 0
-12 -178 0
51 -178 0
12 -51 178 0
-53 -179 0
34 -179 0
53 -34 179 0
100 -180 0
-39 -180 0
-100 39 180 0
72 -181 0
41 -181 0
-72 -41 181 0
-83 -182 0
53 -182 0
83 -53 182 0
35 -183 0
27 -183 0
-35 -27 183 0
8 -184 0
-79 -184 0
-8 79 184 0
-99 -185 0
91 -185 0
99 -91 185 0
48 -186 0
75 -186 0
-48 -75 186 0
-99 -187 0
29 -187 0
99 -29 187 0
-56 -188 0
6 -188 0
56 -6 188 0
24 -189 0
35 -189 0
-24 -35 189 0
4 -190 0
99 -190 0
-4 -99 190 0
-59 -191 0
57 -191 0
59 -57 191 0
-89 -192 0
43 -192 0
89 -43 192 0
76 -193 0
28 -193 0
-76 -28 193 0
72 -194 0
-9 -194 0
-72 9 194 0
-24 -195 0
31 -195 0
24 -31 195 0
47 -196 0
-3 -196 0
-47 3 196 0
70 -197 0
-6 -197 0
-70 6 197 0
95 -198 0
-60 -198 0
-95 60 198 0
63 -199 0
-27 -199 0
-63 27 199 0
80 -200 0
24 -200 0
-80 -24 200 0
77 -201 0
34 -201 0
-77 -34 201 0
87 -202 0
44 -202 0
-87 -44 202 0
-40 -203 0
74 -203 0
40 -74 203 0
70 -204 0
34 -204 0
-70 -34 204 0
-97 -205 0
69 -205 0
97 -69 205 0
-34 -206 0
82 -206 0
34 -82 206 0
67 -207 0
-31 -207 0
-67 31 207 0
-43 -208 0
85 -208 0
43 -85 208 0
37 -209 0
-54 -209 0
-37 54 209 0
-73 -210 0
90 -210 0
73 -90 210 0
79 -211 0
-54 -211 0
-79 54 211 0
39 -212 0
45 -212 0
-39 -45 212 0
38 -213 0
96 -214 0
97 -214 0
-96 -97 214 0
40 -215 0
-5 -215 0
-40 5 215 0
-49 -216 0
47 -216 0
49 -47 216 0
23 -217 0
-20 -217 0
-23 20 217 0
-65 -218 0
76 -218 0
65 -76 218 0
-97 -219 0
84 -219 0
97 -84 219 0
75 -220 0
-6 -220 0
-75 6 220 0
47 -221 0
76 -221 0
-47 -76 221 0
7 -222 0
-3 -222 0
-7 3 222 0
71 -223 0
54 -223 0
-71 -54 223 0
-75 -224 0
16 -225 0
54 -225 0
-16 -54 225 0
73 -226 0
-15 -226 0
-73 15 226 0
-33 -227 0
28 -227 0
33 -28 227 0
-69 -228 0
10 -228 0
69 -10 228 0
27 -229 0
-30 -229 0
-27 30 229 0
-11 -230 0
61 -230 0
11 -61 230 0
45 -231 0
36 -231 0
-45 -36 231 0
22 -232 0
44 -232 0
-22 -44 232 0
-35 -233 0
81 -233 0
35 -81 233 0
50 -234 0
2 -234 0
-50 -2 234 0
-48 -235 0
30 -235 0
48 -30 235 0
54 -236 0
-78 -236 0
-54 78 236 0
-98 -237 0
17 -237 0
98 -17 237 0
-98 -238 0
1 -238 0
98 -1 238 0
31 -239 0
-100 -239 0
-31 100 239 0
79 -240 0
-21 -240 0
-79 21 240 0
20 -241 0
98 -241 0
-20 -98 241 0
72 -242 0
42 -242 0
-72 -42 242 0
40 -243 0
-21 -243 0
-40 21 243 0
21 -244 0
41 -244 0
-21 -41 244 0
-55 -245 0
-74 -246 0
100 -246 0
74 -100 246 0
-88 -247 0
2 -247 0
88 -2 247 0
-75 -248 0
76 -248 0
75 -76 248 0
-17 -249 0
97 -249 0
17 -97 249 0
29 -250 0
60 -250 0
-29 -60 250 0
88 -251 0
86 -252 0
-37 -252 0
-86 37 252 0
79 -253 0
41 -253 0
-79 -41 253 0
7 -254 0
-47 -254 0
-7 47 254 0
61 -255 0
-44 -255 0
-61 44 255 0
-88 -256 0
36 -256 0
88 -36 256 0
-27 -257 0
55 -258 0
1 -258 0
-55 -1 258 0
86 -259 0
50 -259 0
-86 -50 259 0
54 -260 0
-76 -260 0
-54 76 260 0
-96 -261 0
52 -261 0
96 -52 261 0
87 -262 0
-37 -262 0
-87 37 262 0
-77 -263 0
73 -263 0
77 -73 263 0
-76 -264 0
9 -264 0
76 -9 264 0
-80 -265 0
46 -265 0
80 -46 265 0
94 -266 0
-76 -266 0
-94 76 266 0
-34 -267 0
61 -267 0
34 -61 267 0
