p cnf 20 87
-16 -8 4 -3 0
-11 -12 5 0
3 -20 -19 0
11 14 -17 0
-3 -6 -14 5 0
-11 -2 0
2 11 -19 0
3 16 -13 0
-4 -12 0
-14 4 13 -17 0
20 12 0
2 13 -9 0
-15 0
-15 4 0
-5 -20 0
-16 -3 -18 -10 0
1 -13 14 0
-8 -16 -19 6 0
8 -2 0
9 5 4 -3 0
-6 -20 0
9 18 0
-8 1 5 -19 0
-2 0
17 -20 -19 14 0
-12 -4 0
-5 4 0
-12 6 -17 0
10 -14 6 0
17 20 -19 -2 0
8 -12 -11 0
-3 -2 0
-6 -5 -18 -9 0
10 -5 0
-1 0
-7 10 2 12 0
-15 13 14 0
17 -3 -1 0
-3 0
3 -19 0
19 -3 -9 0
-7 -4 -3 1 0
17 -9 0
-13 -5 0
8 -4 0
20 -2 0
-16 -4 -9 0
2 12 -19 0
10 -14 6 0
17 2 -6 0
16 11 0
8 -14 -4 -18 0
-3 -9 0
-14 4 0
-14 5 0
-7 3 0
-1 0
-6 -2 15 0
-8 -16 12 0
-8 9 0
-14 15 0
16 -5 -12 -11 0
13 -18 -9 0
-15 4 -9 0
-7 -14 -5 -11 0
-5 7 0
3 -20 -18 15 0
-5 4 15 0
-4 0
-13 2 10 15 0
17 10 3 -9 0
20 -11 0
-14 0
-6 0
-7 0
-8 -7 -14 -13 0
-13 6 0
-8 7 0
9 -6 0
8 -14 18 -13 0
8 1 18 0
3 19 4 -17 0
2 12 20 14 0
-8 -5 -10 0
9 -14 0
-3 0
2 -18 -17 0
