p cnf 500 6200
-284 0
-437 316 0
384 -350 0
-364 -281 0
-33 0
-318 0
-235 0
253 -475 0
-207 -26 0
-246 -420 0
274 -308 0
-173 0
-203 239 0
-475 7 0
-445 0
-360 0
498 -60 0
86 -329 0
-280 0
-302 0
-199 479 0
307 -426 0
-463 0
-46 0
51 -74 0
-308 -499 0
-189 -313 0
-135 0
-283 0
-308 0
-183 -228 0
-495 0
-197 0
-34 0
-477 0
-238 -465 0
-217 0
-384 30 0
-37 302 0
-56 0
-86 439 0
-444 0
-395 0
-176 71 0
-192 471 0
-30 61 0
-157 -49 0
-110 0
-297 0
-26 0
105 -113 0
-153 0
-100 0
-29 207 0
-367 -60 0
-3 0
-109 77 0
186 -137 0
253 -114 0
-278 -467 0
-219 0
-96 22 0
-495 306 0
-320 0
-162 -282 0
-62 0
-159 0
402 -227 0
-23 0
-111 77 0
-32 -447 0
-379 0
-390 475 0
-79 114 0
308 -371 0
431 -409 0
-498 0
-219 0
-442 -145 0
-380 0
489 -253 0
-376 0
-147 0
49 -300 0
-7 0
-434 0
-40 -346 0
298 -414 0
-467 0
496 -73 0
-174 0
-128 308 0
178 -395 0
-400 0
-28 0
-172 118 0
-231 58 0
-451 0
-468 0
-182 -489 0
-40 -172 0
-471 -445 0
-345 0
-124 286 0
-30 0
-340 0
-488 0
-19 0
-52 0
265 -193 0
-299 0
-450 0
156 -9 0
-246 0
-387 0
-95 0
-436 5 0
-213 -442 0
-398 0
-95 0
-197 0
-165 0
49 -77 0
-109 171 0
-404 0
-129 0
130 -49 0
-487 181 0
-197 -129 0
-343 101 0
-188 -179 0
108 -354 0
-74 0
-157 -260 0
-229 -460 0
-439 0
-349 0
-73 0
-312 -474 0
-63 84 0
-294 0
-328 0
-474 0
-236 197 0
-107 0
-208 -500 0
395 -314 0
-490 0
-165 317 0
-373 0
458 -387 0
413 -466 0
-357 0
-266 -281 0
-351 0
-44 0
474 -289 0
-286 -443 0
-22 54 0
-263 233 0
329 -356 0
-471 0
323 -353 0
-246 -466 0
-116 0
301 -9 0
-232 0
-164 0
-471 -69 0
148 -291 0
-142 -228 0
-236 0
182 -394 0
-114 0
-198 -242 0
200 -437 0
-382 419 0
-382 133 0
-339 0
-8 -265 0
328 -132 0
309 -449 0
-221 -58 0
-166 -171 0
-29 0
-239 149 0
-487 0
-398 212 0
-196 -465 0
-360 0
136 -191 0
-176 -376 0
106 -146 0
-118 0
43 -77 0
272 -220 0
228 -41 0
-160 66 0
-433 0
-156 68 0
423 -57 0
337 -113 0
-464 0
-290 0
-125 0
-61 231 0
-48 0
326 -498 0
-467 0
-94 0
26 -21 0
-361 0
-191 222 0
-24 0
59 -105 0
50 -292 0
-335 57 0
-317 428 0
-5 0
-263 0
-85 -42 0
-465 0
206 -153 0
-371 0
84 -57 0
-23 0
-62 0
-103 186 0
-399 135 0
-86 0
464 -115 0
455 -169 0
-132 0
-163 -42 0
-464 441 0
65 -20 0
-172 -338 0
-83 0
-10 0
-439 -495 0
-119 -486 0
-210 0
-70 0
-307 -283 0
-240 -70 0
217 -318 0
-197 387 0
-437 0
-357 0
-35 0
-118 0
-166 43 0
-193 0
-479 266 0
-392 0
-422 455 0
-304 -401 0
-72 -243 0
-173 431 0
-205 0
-348 0
-165 475 0
257 -412 0
238 -249 0
-242 0
-406 44 0
-360 143 0
-32 75 0
-481 0
354 -51 0
-388 -371 0
-35 342 0
-454 0
-238 0
291 -122 0
-447 348 0
-368 0
-91 437 0
320 -272 0
-8 261 0
145 -313 0
-413 0
-470 -190 0
-462 0
-291 0
-64 -450 0
-179 0
-286 0
318 -410 0
-221 0
346 -3 0
16 -15 0
-497 0
-430 0
-179 437 0
-145 0
-288 -286 0
-432 -495 0
-56 0
-39 -441 0
-289 0
-480 0
443 -465 0
-52 0
-142 0
227 -180 0
-320 440 0
208 -196 0
-204 63 0
-379 126 0
-408 -14 0
-40 46 0
290 -225 0
-21 364 0
-32 0
411 -443 0
-11 0
300 -195 0
-69 0
-335 238 0
-269 0
-490 0
-104 0
-53 0
-479 0
-75 487 0
313 -204 0
-238 0
392 -244 0
-95 438 0
-44 351 0
369 -334 0
57 -177 0
424 -344 0
-452 127 0
-138 0
-401 0
-239 0
52 -212 0
-395 0
-344 0
107 -131 0
-336 140 0
-183 31 0
-336 63 0
-443 -275 0
-406 0
-11 238 0
-105 0
-194 0
-320 10 0
-110 -313 0
387 -500 0
-192 108 0
-215 0
-416 205 0
306 -473 0
-408 427 0
-52 0
-313 0
-419 0
-280 295 0
-265 0
-314 0
-438 0
-23 0
-63 287 0
416 -43 0
-254 315 0
-88 -493 0
-96 0
-422 0
-92 -9 0
-183 450 0
-385 0
-205 485 0
-456 411 0
-303 -49 0
-389 0
-333 -89 0
-50 0
-198 -445 0
-343 244 0
-488 0
372 -425 0
-56 -137 0
-262 0
-84 0
-470 -52 0
-46 0
417 -190 0
-341 111 0
-350 -478 0
-222 439 0
256 -157 0
265 -130 0
56 -47 0
-198 133 0
-397 0
-335 0
265 -268 0
-397 0
-62 -86 0
-415 -340 0
-336 0
128 -109 0
-286 -467 0
114 -3 0
483 -292 0
-103 0
-210 0
-127 -58 0
110 -97 0
-121 -361 0
-370 0
-334 0
-410 0
-239 -211 0
-407 -201 0
131 -17 0
-118 21 0
-480 0
-201 0
-120 421 0
-317 -33 0
-292 0
106 -41 0
-43 0
-173 -161 0
-183 0
-500 -122 0
-244 430 0
-37 413 0
-3 0
-243 -161 0
-196 0
-466 0
-383 0
-336 0
-108 0
474 -316 0
-155 -217 0
74 -212 0
-403 0
-55 234 0
-154 0
65 -150 0
-272 0
209 -337 0
-188 0
-454 -28 0
32 -318 0
-357 -188 0
-239 -236 0
-226 0
-476 0
464 -402 0
-388 -89 0
-207 -457 0
366 -297 0
-326 0
425 -75 0
-496 191 0
-52 -411 0
-329 0
153 -393 0
-484 0
-328 0
-62 0
-491 197 0
-297 0
-191 0
75 -178 0
-399 -91 0
-319 426 0
-49 0
-287 -443 0
-13 102 0
-22 133 0
-484 0
404 -330 0
-215 499 0
-137 0
-46 0
-294 405 0
-352 -415 0
-150 462 0
-101 0
-20 0
42 -3 0
-301 0
321 -466 0
-69 0
-321 0
-421 0
-422 0
-397 47 0
-272 402 0
-460 0
-51 0
-164 319 0
-410 0
-369 0
-120 -11 0
-308 126 0
-294 -217 0
120 -351 0
-423 469 0
-28 -234 0
114 -332 0
-351 -156 0
-207 -178 0
-92 -187 0
-441 135 0
-102 0
329 -159 0
-231 217 0
468 -396 0
-199 -364 0
393 -399 0
-93 -217 0
-471 -108 0
-253 493 0
-500 0
-115 0
-273 0
221 -243 0
-63 183 0
241 -452 0
-418 0
-202 -137 0
-423 51 0
-183 -425 0
-99 0
-60 0
-31 -314 0
-41 0
-245 0
-444 0
-245 446 0
-111 -277 0
-374 0
-492 0
45 -3 0
-338 0
-375 -206 0
-486 0
-145 -81 0
-467 109 0
201 -155 0
-75 -178 0
-147 134 0
-278 130 0
-340 413 0
301 -315 0
-319 0
-447 0
-239 0
-128 -135 0
248 -28 0
-228 0
-89 0
-381 0
-337 0
-455 -323 0
-418 0
91 -121 0
-259 0
-468 -97 0
-416 -263 0
-87 -337 0
-493 341 0
-423 114 0
-50 0
-152 -50 0
-279 0
-339 421 0
378 -155 0
-134 -473 0
-132 -281 0
-192 -354 0
-345 247 0
-15 0
-182 0
448 -414 0
-429 0
-445 -338 0
-194 0
-477 0
-500 -290 0
-294 0
-156 0
-133 0
-52 0
-482 0
-77 0
-144 129 0
465 -412 0
-67 0
496 -290 0
-231 0
-492 197 0
-46 0
-359 -97 0
-350 -161 0
307 -346 0
-151 0
481 -268 0
-79 -204 0
411 -42 0
-309 0
-298 0
-414 -329 0
245 -418 0
-205 0
-267 0
-349 0
-462 0
-350 -50 0
-171 0
-228 -435 0
-390 0
-95 340 0
-183 -321 0
-344 0
-207 0
-104 0
-211 0
-156 -203 0
-415 -261 0
280 -44 0
-222 -438 0
-221 203 0
25 -300 0
-203 53 0
262 -361 0
-56 0
-151 260 0
-307 -99 0
-58 0
97 -244 0
-198 -301 0
-262 0
-288 0
-12 308 0
260 -394 0
-24 -430 0
-359 45 0
-100 -498 0
-206 -267 0
-215 71 0
-287 0
-200 493 0
-360 -10 0
-88 -144 0
-244 -322 0
-112 373 0
-255 -382 0
-484 149 0
-59 -474 0
281 -331 0
-496 -355 0
-263 270 0
-17 0
-71 27 0
-336 0
-487 0
-190 0
-285 15 0
-61 0
-145 0
-470 221 0
-260 0
-432 -281 0
-440 0
410 -51 0
-310 86 0
-5 -163 0
-62 364 0
-136 0
-24 0
-71 476 0
-339 15 0
-139 -371 0
-365 0
321 -68 0
-234 0
-124 302 0
-359 -27 0
-416 0
-424 -41 0
-219 -186 0
-405 -53 0
-273 0
160 -52 0
-306 0
-211 0
-288 415 0
-467 0
-251 0
-37 -75 0
42 -138 0
-387 0
-462 0
-54 326 0
-128 -82 0
-350 -83 0
-463 -107 0
-149 0
-213 0
-223 0
-264 461 0
-307 0
-164 -106 0
-316 0
-426 0
-228 0
-257 0
-346 -186 0
171 -361 0
-101 358 0
-392 0
170 -78 0
-76 0
181 -418 0
-112 94 0
-224 0
-369 0
-407 -404 0
-85 0
-445 0
-456 0
-314 0
461 -425 0
-441 0
-191 -138 0
-64 -265 0
-393 0
-307 0
-277 0
-278 211 0
-155 151 0
-90 0
218 -237 0
-102 127 0
268 -115 0
-69 -242 0
-456 119 0
-254 -477 0
-56 61 0
-103 -274 0
-270 51 0
-254 -122 0
-117 100 0
-194 -153 0
-197 335 0
-46 261 0
-499 0
-134 0
-400 -51 0
-278 -210 0
-342 -260 0
-374 0
-6 388 0
394 -77 0
-174 -150 0
283 -41 0
-309 -217 0
-70 10 0
-472 0
276 -2 0
-140 0
-256 0
-150 -219 0
248 -164 0
338 -157 0
226 -131 0
-150 0
384 -116 0
386 -121 0
-300 4 0
-269 471 0
-271 -380 0
-438 0
164 -346 0
252 -329 0
-29 0
-303 0
-407 -1 0
-29 0
-277 -234 0
-496 -144 0
-269 -475 0
-403 0
-95 0
-109 -465 0
-56 -194 0
-39 236 0
201 -427 0
364 -210 0
-182 356 0
-481 0
-181 36 0
73 -311 0
-401 0
-2 0
-300 167 0
-49 0
-12 0
-373 278 0
-456 0
64 -227 0
-305 0
-461 -378 0
-440 124 0
372 -113 0
129 -394 0
-344 -194 0
-101 0
-479 0
320 -183 0
312 -453 0
-254 0
-457 0
-383 -262 0
-112 0
-224 3 0
-151 0
-190 299 0
-1 -217 0
-496 -489 0
-354 239 0
-187 0
-380 0
-27 0
-422 195 0
449 -383 0
56 -229 0
344 -443 0
-67 0
-328 17 0
-197 0
144 -189 0
-302 174 0
-230 0
-296 0
293 -139 0
-257 0
-179 430 0
-484 350 0
-173 0
-71 22 0
-178 0
-425 0
-377 0
-8 202 0
-487 -459 0
17 -347 0
347 -105 0
330 -388 0
-198 0
-300 -201 0
-372 236 0
-86 0
-8 0
-336 364 0
-392 -157 0
-194 0
-29 0
-219 415 0
129 -132 0
-166 -205 0
-171 495 0
474 -497 0
-145 0
41 -449 0
-50 -449 0
313 -242 0
-413 0
377 -441 0
-116 -500 0
160 -395 0
-312 -500 0
-459 0
155 -217 0
-90 0
-357 0
-400 0
-188 462 0
-232 0
138 -149 0
-135 217 0
-303 156 0
-369 495 0
-484 0
484 -209 0
-490 -265 0
-448 235 0
312 -487 0
-307 -289 0
92 -164 0
-124 0
-474 0
-343 478 0
-419 38 0
-448 341 0
112 -181 0
-179 102 0
-402 -281 0
-349 0
-349 0
393 -341 0
-237 307 0
-19 0
-371 0
-270 -181 0
-239 62 0
-244 -467 0
186 -293 0
179 -261 0
227 -58 0
-293 228 0
-493 -465 0
-304 0
-260 -194 0
-294 125 0
-154 0
-391 -174 0
-393 119 0
23 -49 0
-121 -481 0
190 -1 0
472 -278 0
-219 0
81 -188 0
436 -332 0
-75 0
276 -187 0
-456 0
-64 246 0
-408 -236 0
-211 0
-106 0
-117 403 0
-126 293 0
120 -299 0
-47 0
-143 -481 0
-88 0
21 -289 0
97 -333 0
-287 -293 0
-105 0
-373 -53 0
284 -314 0
141 -289 0
-298 0
-51 55 0
-94 0
-270 0
498 -203 0
-8 -50 0
-334 398 0
475 -348 0
-316 0
-336 -463 0
-205 -420 0
-115 -146 0
-96 -414 0
-71 4 0
-480 0
-156 389 0
496 -206 0
-374 182 0
273 -218 0
182 -489 0
364 -185 0
-80 0
-36 0
212 -180 0
-36 0
-488 -92 0
105 -60 0
-491 -169 0
-170 287 0
-295 -12 0
-142 0
-96 -365 0
324 -226 0
-311 0
-469 0
-31 134 0
391 -393 0
20 -26 0
-87 477 0
-445 -474 0
-385 0
328 -81 0
-136 0
-199 0
-219 0
-261 0
-197 -451 0
-153 0
301 -378 0
-236 -411 0
-112 353 0
-99 -26 0
-398 139 0
-488 -8 0
-83 159 0
-385 0
331 -468 0
-293 0
-291 -218 0
-415 -326 0
-23 452 0
-478 0
-159 -433 0
-332 0
-387 0
-423 321 0
-110 -170 0
-245 0
-93 119 0
-253 195 0
73 -436 0
209 -396 0
-255 0
-447 0
-261 -354 0
321 -22 0
-431 0
-362 0
-231 0
261 -497 0
-224 0
-481 0
168 -314 0
-213 486 0
-195 0
-292 15 0
-84 164 0
-469 222 0
475 -170 0
-464 -307 0
-478 436 0
-422 0
-112 -129 0
-435 -65 0
138 -140 0
-206 0
-48 -312 0
-109 0
-88 0
-286 0
-312 -225 0
-217 0
-398 0
-222 -252 0
-293 20 0
-284 21 0
-116 -257 0
-471 55 0
-278 165 0
-160 143 0
117 -258 0
-431 -250 0
-360 0
-309 63 0
-86 189 0
-343 0
264 -362 0
453 -411 0
-160 0
-35 -482 0
-286 -246 0
-145 0
-136 0
416 -124 0
-343 257 0
-409 0
-225 0
-316 0
-226 0
425 -92 0
273 -122 0
-404 0
-399 0
264 -249 0
-350 220 0
3 -227 0
-197 -201 0
-291 -114 0
254 -129 0
-310 -133 0
440 -394 0
-358 0
-393 0
-383 0
497 -407 0
-133 -33 0
-112 -79 0
-448 -483 0
-85 -356 0
-353 0
-215 0
341 -161 0
-412 -321 0
-66 415 0
-239 289 0
-5 0
-123 0
-27 0
-135 0
-315 0
-393 0
-72 441 0
-461 0
-434 0
-85 0
-405 0
-74 0
241 -438 0
-260 277 0
489 -475 0
-414 0
-29 101 0
-298 0
-69 0
-180 -57 0
-195 0
-175 0
-101 -185 0
-419 350 0
248 -299 0
-128 -110 0
-83 0
154 -5 0
-72 8 0
-486 0
-200 0
-245 -18 0
-391 155 0
-6 0
-118 -389 0
-466 0
-166 -163 0
-426 0
140 -92 0
-404 -10 0
-494 -417 0
146 -420 0
-490 -393 0
-374 -307 0
-215 -39 0
-162 0
-419 0
-64 0
-493 157 0
-113 0
-263 -402 0
-16 -58 0
361 -190 0
105 -324 0
105 -413 0
421 -290 0
253 -73 0
117 -146 0
109 -34 0
-102 0
-330 0
-95 -373 0
177 -381 0
-344 -44 0
-419 0
-43 0
-181 -273 0
-296 385 0
-456 225 0
297 -347 0
-309 0
-149 52 0
424 -95 0
-480 481 0
264 -393 0
-339 391 0
-200 -160 0
-437 -457 0
-175 461 0
-56 -251 0
-163 0
101 -410 0
-488 0
-276 238 0
-175 0
-34 63 0
-67 0
-403 0
386 -141 0
-359 100 0
-64 0
-75 54 0
475 -452 0
-445 0
-500 29 0
-95 0
-441 0
-170 0
375 -313 0
-479 -369 0
-222 -267 0
-347 14 0
305 -154 0
-45 364 0
-255 -459 0
-486 0
-14 0
-49 -241 0
-140 0
1 -301 0
-378 0
-93 0
-402 0
-168 0
354 -437 0
-292 -321 0
-74 -89 0
-66 -482 0
-455 0
-119 -259 0
-207 -202 0
-477 0
-358 341 0
-33 0
-287 0
67 -117 0
-278 0
-200 145 0
-87 468 0
-491 0
-24 0
-364 0
-245 495 0
-367 0
-381 -84 0
-253 247 0
-160 90 0
153 -485 0
-171 -193 0
-142 406 0
129 -422 0
-174 -238 0
41 -482 0
-404 415 0
413 -90 0
-142 -491 0
-37 0
-24 0
-129 0
-230 -317 0
-117 -108 0
437 -18 0
-470 -299 0
-124 190 0
-382 0
-43 0
107 -108 0
-400 269 0
344 -51 0
-405 484 0
44 -1 0
-143 0
-431 106 0
90 -76 0
42 -121 0
-52 -179 0
451 -121 0
-488 -233 0
-327 0
-421 0
260 -33 0
-467 0
-303 -17 0
-422 0
-23 307 0
-25 0
-362 -242 0
457 -130 0
-324 0
-144 0
497 -85 0
-64 449 0
211 -3 0
-24 -360 0
456 -491 0
-405 383 0
-432 0
-127 -334 0
-172 0
-374 215 0
-142 0
-40 -263 0
-9 0
-262 -276 0
-268 0
-53 -147 0
-485 -433 0
404 -195 0
129 -169 0
-416 36 0
-328 0
-247 -151 0
-327 163 0
-338 438 0
-402 0
-47 -282 0
-107 486 0
-137 0
-96 0
321 -133 0
-45 -131 0
-100 0
160 -114 0
-424 257 0
-251 0
276 -498 0
-397 0
-431 -76 0
-416 -343 0
417 -93 0
-276 0
-113 0
-249 0
-241 0
-70 0
-486 75 0
-78 -428 0
-230 0
465 -50 0
-173 -394 0
350 -457 0
-73 0
-217 0
-398 0
-400 -358 0
-478 115 0
-175 12 0
-144 -410 0
98 -443 0
404 -468 0
-82 0
-229 324 0
-216 0
441 -221 0
-99 495 0
172 -178 0
-396 0
266 -354 0
-191 0
-486 0
-243 0
-85 54 0
96 -388 0
-234 0
-204 0
-482 95 0
68 -483 0
-441 0
-320 118 0
-36 -468 0
-429 131 0
-104 284 0
-128 137 0
-16 0
-314 279 0
-90 0
-461 -210 0
-172 0
-378 0
-128 0
-240 -60 0
-16 446 0
-96 -353 0
216 -257 0
138 -49 0
-93 0
68 -43 0
-224 0
456 -446 0
-40 -111 0
-91 175 0
-49 0
-180 -393 0
-254 -461 0
10 -50 0
-102 355 0
-146 0
-119 411 0
-356 0
-359 -491 0
-454 410 0
17 -445 0
-443 391 0
-389 0
-366 -178 0
-469 0
-84 276 0
128 -329 0
-334 159 0
368 -124 0
-41 0
-248 18 0
-402 391 0
-478 0
-498 0
-230 -398 0
-152 -481 0
-245 0
-141 -139 0
-96 410 0
-244 0
-240 0
-285 0
-25 0
153 -462 0
-422 0
-32 -265 0
-60 -163 0
-293 -220 0
-87 422 0
-183 -325 0
-268 61 0
-16 478 0
-214 0
-96 409 0
-422 51 0
-267 -362 0
-222 0
-406 -205 0
-492 -218 0
-238 341 0
-484 0
-356 0
-344 0
-27 0
41 -241 0
332 -217 0
-462 380 0
45 -481 0
-338 0
-121 -17 0
-373 413 0
-287 0
-451 0
-92 -347 0
-175 -132 0
4 -145 0
-283 445 0
-227 0
-130 0
-19 0
-38 0
-54 0
8 -398 0
-419 0
-127 -390 0
-40 0
-348 0
-181 0
219 -426 0
-82 -18 0
-25 0
-31 -53 0
393 -281 0
-101 190 0
-76 0
-451 0
-388 0
-110 0
-457 0
-325 190 0
307 -444 0
-381 0
42 -250 0
-263 -115 0
-210 119 0
396 -146 0
-224 0
-456 0
-432 0
464 -38 0
-48 -364 0
-39 -177 0
281 -475 0
-488 454 0
-192 53 0
-41 -153 0
-480 0
-72 104 0
-499 0
-248 372 0
-95 0
-363 0
-437 0
-114 0
-202 7 0
-59 0
-32 483 0
-252 0
-450 0
-118 0
389 -442 0
-8 0
-260 391 0
-386 0
-246 0
-304 0
-388 -283 0
409 -326 0
-210 0
96 -383 0
321 -174 0
-194 -282 0
369 -295 0
-60 -236 0
-120 0
-83 -434 0
-226 0
-286 0
72 -295 0
-163 0
-165 0
-246 0
-390 343 0
-233 0
314 -169 0
-244 -484 0
348 -481 0
-245 116 0
-98 0
-351 -317 0
154 -373 0
-140 4 0
-263 -349 0
272 -488 0
-93 0
-437 0
394 -110 0
-376 282 0
-423 77 0
-457 0
-341 174 0
-398 295 0
-454 0
-298 30 0
-39 -455 0
-235 0
-246 118 0
-232 -257 0
-130 0
13 -434 0
-143 0
-136 452 0
458 -396 0
-317 -227 0
369 -119 0
-297 0
-343 77 0
-68 -252 0
-239 0
-326 341 0
-486 0
-238 261 0
-55 437 0
-317 0
-180 0
230 -377 0
-499 -257 0
-328 -499 0
322 -98 0
-391 189 0
-166 397 0
-83 0
-88 0
-100 -195 0
146 -161 0
-374 299 0
-296 233 0
-29 388 0
-102 -374 0
418 -28 0
-324 94 0
-238 0
33 -50 0
-375 26 0
-200 -247 0
462 -50 0
-104 -42 0
-12 0
-417 0
-192 -169 0
260 -387 0
-36 0
-178 -17 0
-384 431 0
83 -476 0
64 -353 0
-60 0
-280 -149 0
-310 378 0
-39 -259 0
-303 363 0
267 -365 0
-372 407 0
-333 28 0
-344 0
-136 158 0
-429 341 0
-326 407 0
-107 63 0
-13 0
-439 0
365 -354 0
-99 0
265 -43 0
365 -115 0
136 -304 0
48 -416 0
176 -455 0
-288 -269 0
-407 -268 0
57 -365 0
-222 198 0
328 -355 0
-249 0
8 -145 0
-296 -161 0
-279 -397 0
-248 37 0
491 -276 0
368 -11 0
-470 54 0
-116 0
-384 -218 0
-6 61 0
-131 0
-33 0
-86 -188 0
-271 0
-177 0
-487 84 0
-364 0
-413 0
91 -370 0
-89 0
-355 -234 0
177 -268 0
-443 0
-21 255 0
-476 0
-141 -314 0
215 -361 0
436 -75 0
-388 143 0
-352 -345 0
-334 -221 0
469 -59 0
-331 0
-310 451 0
-397 -301 0
424 -462 0
-412 446 0
203 -340 0
-116 -441 0
-243 -34 0
-59 0
256 -295 0
-375 0
-352 465 0
-142 -412 0
-182 0
224 -346 0
-391 0
-286 335 0
130 -348 0
-124 0
-338 0
-76 -99 0
-272 -225 0
-393 0
170 -410 0
-363 0
-478 -118 0
-242 0
-20 -371 0
-161 0
-353 0
-31 231 0
-357 326 0
-399 0
-448 127 0
-383 0
-190 198 0
-487 -318 0
-390 0
283 -177 0
243 -348 0
-470 0
-318 122 0
-54 0
-348 261 0
20 -203 0
-200 0
-111 -140 0
336 -130 0
-443 358 0
-406 -137 0
459 -81 0
-479 -230 0
-479 -463 0
-57 0
-11 -466 0
-31 474 0
-244 0
-373 -394 0
484 -202 0
-132 244 0
-216 246 0
-174 0
-142 -50 0
-230 258 0
-390 0
-324 -436 0
-342 -235 0
105 -483 0
-36 484 0
-208 -14 0
-157 327 0
-292 0
-244 0
-352 -50 0
-223 0
-140 -364 0
-392 251 0
-399 7 0
-52 0
-267 0
-472 -370 0
-99 222 0
-148 0
-126 -403 0
-429 395 0
-466 0
-211 0
-343 385 0
-143 0
-465 0
-246 -393 0
-401 0
290 -409 0
-456 19 0
-145 0
432 -180 0
-222 -442 0
-431 -475 0
-366 0
-472 112 0
142 -377 0
344 -356 0
-154 0
-291 -345 0
-304 0
-91 199 0
-84 -25 0
-164 102 0
-271 371 0
449 -314 0
-14 -114 0
-206 324 0
-93 0
-125 -179 0
306 -117 0
401 -51 0
493 -339 0
-435 229 0
497 -172 0
-303 -103 0
-391 -398 0
-94 0
376 -337 0
-191 355 0
-488 402 0
227 -41 0
449 -42 0
-261 364 0
-168 -307 0
-174 0
-310 -237 0
252 -290 0
-145 0
-466 0
-61 0
-71 234 0
-328 0
-293 -186 0
-419 0
-473 0
-326 0
-155 -481 0
-342 0
-135 0
384 -182 0
-136 16 0
336 -399 0
-58 0
263 -145 0
220 -275 0
-340 0
-62 0
-64 -423 0
267 -332 0
-335 -353 0
-343 0
-366 0
-488 307 0
274 -85 0
-378 479 0
-253 -89 0
-96 391 0
-143 426 0
-306 0
-349 -428 0
-356 0
329 -73 0
-446 0
-420 0
-62 0
-296 102 0
-370 0
370 -251 0
-399 0
-222 0
396 -91 0
-247 0
-38 415 0
-223 -363 0
-142 -500 0
-323 0
-24 0
-159 -194 0
-263 0
-110 0
-472 0
366 -314 0
-207 -353 0
44 -57 0
-233 0
-184 423 0
-495 0
-421 367 0
-55 -333 0
88 -441 0
-446 0
-119 0
-308 70 0
-349 -276 0
-298 0
-443 0
-359 94 0
-128 274 0
-416 0
-238 159 0
-67 0
-94 0
-376 15 0
-92 0
-70 93 0
-68 0
-266 0
-106 0
490 -285 0
-79 0
-344 -481 0
164 -410 0
-57 0
-287 -500 0
-383 463 0
-303 -274 0
-446 0
-454 0
-88 156 0
-480 0
-288 0
-350 375 0
-235 0
-1 0
193 -386 0
-120 0
-190 0
-458 0
272 -445 0
-40 0
-339 0
-259 -67 0
-251 126 0
-235 0
-64 -34 0
-168 0
73 -127 0
-163 0
172 -267 0
-269 404 0
-199 -146 0
273 -139 0
176 -207 0
-128 0
-229 0
-115 -210 0
-238 379 0
-296 -351 0
-392 -47 0
-72 0
-229 151 0
-288 -251 0
-132 -43 0
-53 0
-211 0
-220 0
-492 0
-21 -5 0
136 -194 0
-455 -335 0
-256 118 0
-309 20 0
-207 -247 0
-386 -145 0
-455 182 0
417 -199 0
313 -452 0
81 -434 0
448 -12 0
413 -26 0
-429 -157 0
-468 0
-136 0
-496 -485 0
-256 54 0
-165 133 0
-157 -178 0
337 -487 0
-274 0
-110 421 0
-140 429 0
-359 0
-424 423 0
-388 0
329 -125 0
249 -98 0
-274 0
-135 0
-459 453 0
-228 0
-269 0
-452 311 0
286 -209 0
-327 -131 0
-361 0
-439 0
256 -377 0
-234 -465 0
-399 0
-326 0
-336 412 0
-262 -244 0
-227 -331 0
12 -17 0
-417 0
210 -146 0
-348 0
120 -410 0
-199 265 0
-219 -49 0
125 -250 0
-176 -252 0
-238 39 0
-104 -298 0
53 -345 0
419 -188 0
-488 417 0
-354 0
-335 -284 0
-220 0
37 -193 0
-470 300 0
-342 239 0
-359 0
360 -500 0
-341 0
-452 -107 0
-486 0
-339 0
-309 110 0
-97 0
-42 0
378 -59 0
-186 486 0
-400 0
-424 0
397 -170 0
408 -4 0
330 -3 0
-304 -321 0
257 -325 0
-152 78 0
-84 12 0
74 -394 0
-485 0
-189 -25 0
-138 0
-309 0
-103 -59 0
-38 0
-450 207 0
-85 253 0
410 -170 0
-344 -259 0
-127 -457 0
210 -68 0
-354 0
-292 -330 0
-320 36 0
-40 0
-428 0
-113 0
-83 0
376 -437 0
-167 0
-339 0
-197 0
-221 28 0
-131 0
21 -418 0
417 -79 0
153 -177 0
345 -261 0
-53 0
-213 0
-111 0
-184 0
-44 0
-309 414 0
-8 -296 0
-157 -386 0
-302 -50 0
-150 -220 0
482 -36 0
-288 174 0
-31 349 0
-31 413 0
-40 0
372 -163 0
124 -193 0
-402 -170 0
-429 0
-121 0
-237 0
-278 -275 0
-437 -497 0
-295 0
-148 0
-76 0
105 -349 0
-116 407 0
352 -61 0
-461 0
-218 0
-143 60 0
202 -85 0
-490 0
424 -463 0
-38 0
-401 0
-274 262 0
-224 0
-60 52 0
-400 107 0
-336 292 0
-83 0
-75 0
-35 0
-287 -189 0
-88 215 0
-34 0
-90 0
-143 -17 0
-22 380 0
-103 0
98 -131 0
-313 0
-349 -274 0
361 -57 0
-463 0
-136 133 0
-119 -315 0
-9 0
-148 0
-319 0
-61 0
-246 0
42 -461 0
241 -329 0
-70 0
-40 0
-445 -321 0
114 -76 0
60 -379 0
-171 0
-240 -443 0
-291 0
-84 -497 0
-319 324 0
-461 -53 0
-148 429 0
-83 -369 0
-181 -34 0
-482 0
-89 0
-340 0
-359 0
-136 0
-51 0
-79 0
-248 -115 0
-325 -321 0
-328 69 0
-213 396 0
-351 0
304 -342 0
-23 0
292 -490 0
-180 -338 0
-398 29 0
-468 373 0
-384 198 0
-290 0
-259 0
-122 0
-165 484 0
-157 0
-78 0
-183 318 0
-84 374 0
-110 476 0
-212 214 0
-374 -99 0
-469 422 0
-368 0
-41 0
-144 0
-484 0
-86 -397 0
-138 0
26 -210 0
-21 0
-115 0
-304 0
365 -386 0
-482 439 0
-417 0
217 -470 0
-490 0
-239 469 0
-464 0
-62 0
33 -5 0
-341 0
187 -465 0
-447 382 0
-61 263 0
-263 -93 0
107 -106 0
-173 123 0
-367 -243 0
-270 -308 0
-261 -187 0
-33 0
-148 0
-456 0
248 -422 0
-392 0
-71 297 0
-300 -481 0
74 -84 0
-134 0
-134 0
-27 0
90 -153 0
-243 0
-118 308 0
493 -114 0
-104 0
129 -261 0
312 -31 0
-158 347 0
-377 0
209 -422 0
-350 0
-474 0
-440 0
275 -108 0
-128 0
11 -269 0
-500 358 0
123 -33 0
-324 0
392 -443 0
-72 0
-103 44 0
96 -351 0
-219 -169 0
-21 -401 0
-142 -60 0
-95 -331 0
-348 247 0
-470 414 0
-86 -155 0
-422 0
328 -374 0
-123 0
-15 380 0
-356 7 0
448 -451 0
-64 0
-60 0
-13 0
-87 0
-479 293 0
-163 -90 0
-64 483 0
-341 0
-218 0
66 -37 0
-197 0
-182 282 0
-267 0
-355 207 0
-100 444 0
408 -72 0
-280 327 0
330 -2 0
409 -348 0
-28 0
-478 0
170 -108 0
434 -365 0
-436 0
-162 0
-194 0
-165 0
-315 0
-238 147 0
240 -209 0
-131 -314 0
-48 0
-87 0
-324 0
-238 0
-87 -281 0
-51 0
-259 206 0
-200 340 0
-220 0
490 -27 0
-206 0
-72 0
-397 -468 0
-150 0
-41 0
-462 135 0
-12 228 0
-344 482 0
-267 0
-464 0
-3 0
-497 0
-498 0
-53 -444 0
-67 0
-437 333 0
163 -372 0
-227 0
-223 -417 0
265 -141 0
-471 0
-1 0
-69 0
-175 0
-448 -231 0
-75 0
-344 0
-440 0
-264 0
-2 0
-307 0
-380 364 0
-306 0
-165 268 0
-420 -258 0
-304 -476 0
-133 229 0
-422 79 0
-87 378 0
-224 -229 0
-150 0
-448 -347 0
370 -178 0
-364 -425 0
280 -92 0
-228 0
-371 0
-415 0
-112 212 0
-63 -6 0
-441 0
-308 0
24 -127 0
-455 116 0
-422 403 0
-302 34 0
-464 0
-275 0
-470 0
-135 -351 0
-134 0
-349 492 0
346 -198 0
-252 276 0
389 -498 0
-268 0
-288 0
-463 0
-84 0
-72 360 0
132 -457 0
224 -111 0
180 -395 0
-422 139 0
-99 0
-163 -411 0
-95 -308 0
-176 -75 0
-188 53 0
198 -185 0
404 -419 0
-295 -210 0
-30 0
-48 193 0
-252 -345 0
469 -129 0
-94 0
-54 -34 0
448 -135 0
-184 361 0
-38 0
-208 0
-33 0
485 -170 0
-203 0
-422 0
264 -115 0
-417 0
-375 -389 0
66 -157 0
-112 0
-122 334 0
-309 0
53 -43 0
-24 146 0
-24 350 0
-275 0
-123 0
-407 0
-52 -273 0
434 -130 0
-464 0
-354 0
-375 0
300 -251 0
-243 39 0
-240 -486 0
355 -418 0
-443 0
-143 -355 0
-175 -87 0
-99 375 0
-21 421 0
-260 0
-142 251 0
444 -140 0
-92 -346 0
-229 0
-203 -457 0
-200 390 0
385 -94 0
-156 0
473 -265 0
-113 0
-424 0
209 -486 0
-211 45 0
-232 182 0
-342 -12 0
-328 -474 0
-359 -396 0
105 -139 0
-456 -1 0
-461 0
-296 0
51 -437 0
-466 0
-94 0
-79 -4 0
-320 -47 0
-144 -54 0
-320 0
-8 -255 0
-384 380 0
-405 0
-461 0
-115 0
345 -223 0
-15 74 0
-106 0
-21 0
-399 -90 0
-445 0
325 -306 0
-369 0
-478 479 0
-115 0
-492 -417 0
-7 0
203 -357 0
-87 -500 0
288 -202 0
389 -322 0
-248 123 0
-342 0
-158 404 0
-358 0
118 -409 0
436 -443 0
-411 0
60 -98 0
-112 0
-318 -75 0
-134 494 0
227 -260 0
68 -466 0
64 -215 0
249 -308 0
-464 360 0
-430 -266 0
-463 -230 0
-245 0
-173 -354 0
-223 0
-483 0
-363 0
446 -201 0
-258 0
-358 0
24 -61 0
-84 0
-436 -460 0
-447 -244 0
-314 0
-338 -273 0
-213 -380 0
-371 0
-414 0
-218 -58 0
-181 29 0
-325 0
-284 -361 0
-110 0
-215 0
-257 0
-20 0
-182 0
-324 142 0
-283 0
-324 0
-437 205 0
-393 0
-254 139 0
-218 0
-439 0
258 -221 0
-30 207 0
96 -7 0
-119 284 0
-34 0
8 -469 0
104 -302 0
-428 78 0
-70 0
-280 0
-327 0
-405 0
-384 149 0
-356 0
-312 -100 0
-194 262 0
-231 15 0
380 -276 0
464 -341 0
37 -131 0
-417 0
-80 381 0
-56 0
-232 -172 0
37 -130 0
67 -217 0
-159 492 0
-377 0
-64 0
-416 0
-308 220 0
267 -257 0
20 -321 0
-317 294 0
475 -243 0
-471 -76 0
-392 203 0
48 -372 0
-183 57 0
-300 0
-195 0
-460 0
-46 0
-372 0
-15 -210 0
-453 -377 0
-86 158 0
475 -499 0
185 -313 0
347 -365 0
-286 -49 0
-351 -81 0
-8 0
204 -459 0
-413 0
130 -114 0
-38 0
-412 -219 0
-129 0
-88 127 0
-92 397 0
-190 0
385 -177 0
-130 0
-159 418 0
-77 0
-145 0
302 -57 0
-217 0
-110 -273 0
226 -101 0
-63 -91 0
92 -387 0
424 -75 0
-449 0
-63 0
-133 0
397 -153 0
235 -41 0
232 -462 0
275 -173 0
493 -242 0
-122 247 0
-433 0
-69 0
-39 278 0
-356 0
-376 0
-267 175 0
-364 -251 0
-207 0
-56 175 0
-288 0
-302 -19 0
-26 -177 0
-245 0
396 -1 0
-182 75 0
-313 -217 0
-24 0
-248 0
-282 0
-43 0
-121 0
-401 0
-360 499 0
66 -365 0
-70 -132 0
-263 0
-61 23 0
298 -382 0
-254 102 0
-44 0
-155 0
-343 0
-437 0
190 -122 0
195 -276 0
-167 0
-140 365 0
-253 0
-379 0
-416 326 0
-116 335 0
-448 -374 0
-447 -146 0
-87 -267 0
-200 0
-9 0
-381 284 0
-206 -426 0
-78 0
-208 -270 0
-221 461 0
-86 131 0
-342 -125 0
-237 -169 0
-449 0
473 -85 0
-30 71 0
-246 0
-327 -70 0
411 -372 0
-90 -281 0
-451 -91 0
-177 0
-499 -466 0
482 -305 0
-236 36 0
-398 -259 0
-87 0
140 -411 0
-244 0
-440 -450 0
-189 -293 0
-366 197 0
-24 108 0
-308 0
-161 311 0
144 -412 0
-216 403 0
68 -331 0
300 -330 0
51 -201 0
-264 292 0
-415 3 0
-48 -147 0
-216 -15 0
419 -37 0
-260 -273 0
-492 0
149 -241 0
-308 -194 0
-487 -323 0
-252 437 0
-55 38 0
424 -368 0
-497 0
-91 -57 0
212 -92 0
-168 179 0
98 -372 0
-355 343 0
-72 331 0
-272 -73 0
376 -333 0
-245 0
368 -272 0
-147 0
-462 0
-189 -417 0
-376 0
-277 0
498 -268 0
-140 0
-101 -9 0
-65 207 0
-31 93 0
-77 -377 0
-245 0
-456 153 0
-13 459 0
-193 -97 0
-328 -350 0
-207 -436 0
-12 -345 0
-19 -243 0
-318 27 0
257 -185 0
-117 -91 0
-253 109 0
-439 202 0
-120 0
-32 -205 0
-135 247 0
-205 0
-14 -345 0
-460 -490 0
-277 278 0
480 -97 0
-309 0
-165 0
-478 0
-203 -473 0
-38 0
479 -257 0
-437 308 0
-479 -150 0
488 -183 0
-90 0
46 -97 0
-211 0
-434 0
-240 0
-89 0
116 -84 0
-328 470 0
-294 -233 0
-486 -274 0
-326 0
-326 -190 0
-479 -438 0
-110 -348 0
-176 163 0
-38 -337 0
274 -27 0
-466 0
-497 -457 0
-205 -114 0
-486 -189 0
146 -249 0
-246 0
116 -260 0
-204 -9 0
81 -28 0
-259 0
140 -163 0
-148 -233 0
-97 0
-311 -50 0
-5 0
-469 51 0
-45 0
-216 -54 0
-72 0
-290 0
-500 -345 0
-390 419 0
-325 190 0
-454 69 0
168 -85 0
-372 0
-183 -60 0
-383 379 0
-99 0
120 -225 0
-353 0
-195 110 0
-47 -205 0
-178 447 0
-188 0
-12 0
18 -469 0
-326 0
-264 -197 0
-453 -138 0
42 -1 0
-401 0
-373 422 0
-418 -130 0
112 -367 0
-318 -417 0
-135 212 0
-69 -419 0
-279 0
-215 -149 0
-415 -252 0
-292 0
-368 42 0
-346 0
138 -433 0
-477 0
-442 0
-339 143 0
17 -20 0
-246 -210 0
249 -444 0
-5 0
310 -129 0
362 -118 0
24 -252 0
-146 0
-493 -12 0
-355 -497 0
-248 -265 0
-231 -177 0
-269 -404 0
-109 428 0
-166 395 0
-372 0
-128 0
-443 -138 0
-71 0
-175 0
-410 334 0
-294 -259 0
254 -81 0
442 -498 0
48 -496 0
-265 0
-149 0
-227 0
489 -164 0
-362 0
-134 -121 0
477 -10 0
-53 -162 0
-343 -1 0
-293 -193 0
-375 0
-404 412 0
-79 399 0
-188 0
21 -155 0
-230 0
-419 0
365 -457 0
-436 0
433 -60 0
-317 -164 0
-302 300 0
-350 0
-292 0
-294 0
-340 325 0
-477 -92 0
-99 255 0
-437 0
-92 -474 0
-356 0
-348 -91 0
-456 -467 0
-171 0
-245 484 0
-456 179 0
209 -194 0
-190 -33 0
-140 0
-18 -17 0
-22 0
-202 494 0
-362 0
-34 0
-314 0
-454 323 0
336 -34 0
-2 0
-192 -103 0
-386 0
-227 0
-180 0
-114 0
-312 0
-7 0
-95 0
-117 0
-427 0
-60 0
-131 0
-109 93 0
373 -257 0
265 -67 0
-204 0
-194 0
-60 0
-170 143 0
-142 0
-61 255 0
-392 0
-54 0
283 -73 0
392 -493 0
412 -444 0
-135 0
-104 377 0
460 -372 0
-336 -466 0
19 -228 0
337 -269 0
-352 0
-93 0
-409 0
-345 0
-133 0
-500 0
-477 0
-225 0
-157 287 0
-211 0
264 -99 0
152 -173 0
-79 -289 0
-99 0
-424 471 0
-275 0
-118 0
-367 307 0
-187 0
-144 0
397 -457 0
-198 0
-223 0
-34 479 0
328 -145 0
-148 0
-436 0
-45 0
-169 0
-220 0
-391 -437 0
-80 0
-152 0
-117 0
-80 494 0
-424 6 0
-302 0
-155 0
-391 -179 0
-183 0
-109 0
-414 326 0
-198 -317 0
-185 0
-196 -265 0
1 -57 0
-229 -499 0
-479 -428 0
-340 0
-33 0
-315 0
-439 0
-489 0
241 -329 0
-212 0
-459 0
-479 454 0
-486 0
329 -107 0
-280 282 0
-368 0
264 -268 0
-124 0
122 -214 0
-62 423 0
-255 497 0
-263 179 0
-365 0
-243 0
-455 434 0
204 -314 0
-100 -457 0
448 -165 0
-331 119 0
-415 84 0
-116 0
-167 0
8 -143 0
163 -220 0
-368 -280 0
-67 -450 0
-104 -73 0
-401 0
-14 277 0
-463 -422 0
-479 313 0
-5 0
104 -373 0
156 -332 0
-31 262 0
-54 0
-120 0
-257 0
-364 0
-110 -283 0
-459 0
-306 231 0
-167 228 0
-126 0
288 -491 0
-13 0
60 -155 0
497 -429 0
300 -410 0
276 -393 0
-37 -83 0
-159 0
-120 -158 0
-120 261 0
-339 0
-279 4 0
-49 0
426 -17 0
-151 0
-40 69 0
257 -383 0
-310 0
200 -456 0
466 -126 0
484 -242 0
136 -485 0
-254 0
-235 303 0
-146 0
99 -59 0
-103 0
-76 0
-307 0
-345 0
-317 0
-463 0
-79 116 0
-199 74 0
231 -361 0
-88 437 0
-77 70 0
426 -325 0
-114 262 0
227 -401 0
-284 -161 0
-476 0
379 -197 0
-328 0
-271 0
-288 462 0
-160 -413 0
-247 0
-194 0
208 -1 0
-158 0
-396 52 0
-25 0
-71 307 0
-370 0
-32 0
-100 0
-304 0
336 -89 0
490 -414 0
-172 -338 0
-408 0
-176 0
-144 0
-167 0
-405 0
-95 107 0
-356 420 0
-303 -73 0
-368 158 0
-127 119 0
-391 0
484 -130 0
223 -17 0
-456 -380 0
-158 -44 0
-172 0
-445 0
34 -372 0
432 -404 0
-313 0
-200 0
-403 0
-386 0
488 -233 0
-299 -419 0
-64 0
41 -300 0
-71 -174 0
-43 0
-342 285 0
-318 0
-5 237 0
-280 -218 0
-257 0
-336 0
-23 151 0
-301 0
-226 0
-89 0
-70 0
45 -195 0
-65 0
-175 0
-21 0
209 -49 0
-77 0
-58 0
-46 -443 0
-33 0
-458 -257 0
-150 0
-45 453 0
-54 431 0
-307 -169 0
-223 0
-375 419 0
441 -309 0
48 -260 0
-86 455 0
-200 -462 0
474 -499 0
-6 -14 0
-278 0
-109 157 0
-25 -233 0
-156 0
-275 0
-232 -267 0
-176 -70 0
-237 -258 0
-242 0
-201 0
208 -49 0
-250 0
-391 0
-293 0
-303 -500 0
-271 0
-222 -322 0
259 -417 0
-224 0
-124 0
26 -474 0
-170 55 0
301 -66 0
-366 -356 0
-278 429 0
432 -9 0
-52 -20 0
-6 0
-156 0
-456 442 0
-167 -114 0
-394 0
164 -49 0
-430 149 0
-417 0
18 -101 0
-74 0
-357 412 0
180 -379 0
181 -353 0
-394 278 0
-434 0
-223 -11 0
-469 279 0
-85 -42 0
245 -195 0
-7 0
-340 0
178 -202 0
386 -34 0
-79 -207 0
-144 0
-68 0
208 -319 0
-484 0
441 -215 0
-79 0
-104 -345 0
-93 0
90 -250 0
328 -411 0
-149 -124 0
-255 0
-341 103 0
-230 0
-285 0
-446 0
484 -106 0
-466 0
-20 0
174 -186 0
-71 270 0
-366 0
-365 495 0
-37 0
-472 0
-500 454 0
304 -174 0
-414 0
26 -227 0
-365 0
-88 482 0
-202 0
-345 0
15 -305 0
-90 0
-432 62 0
-453 0
-440 155 0
64 -226 0
260 -98 0
-332 -42 0
-48 0
-419 0
-155 183 0
-194 0
-133 0
454 -106 0
-165 -75 0
-395 0
-82 0
-268 85 0
-218 0
-439 122 0
-261 -413 0
-265 0
-167 -27 0
-462 0
-246 0
-191 245 0
-448 -185 0
-444 78 0
-312 0
-420 0
-344 -265 0
102 -361 0
-10 0
337 -331 0
-264 194 0
-496 0
-284 0
-366 180 0
458 -355 0
-131 0
-303 0
-469 -133 0
-136 -115 0
-3 0
459 -35 0
-219 0
-74 -465 0
-346 0
-399 -138 0
-358 -19 0
-24 -252 0
-320 0
-272 -25 0
275 -163 0
-184 0
-283 -353 0
-149 -413 0
-48 215 0
291 -33 0
-225 0
-338 406 0
-318 0
-59 -162 0
-445 270 0
-87 0
193 -60 0
-124 20 0
-25 0
-131 0
-235 0
336 -339 0
25 -109 0
-76 -420 0
-56 0
-469 0
-174 0
-85 0
-444 0
424 -403 0
-188 0
-82 0
417 -337 0
-119 -366 0
-404 157 0
-450 447 0
-207 0
-64 -150 0
-85 0
-27 141 0
260 -49 0
114 -345 0
-102 -105 0
-93 0
441 -241 0
-151 -379 0
93 -417 0
-108 484 0
-417 0
-367 0
-61 380 0
-466 0
-465 0
-483 0
-400 -211 0
112 -54 0
-115 255 0
176 -436 0
32 -471 0
-213 0
-414 479 0
-317 -233 0
-455 420 0
-118 246 0
-132 388 0
-438 187 0
-100 0
212 -10 0
-168 -25 0
-407 -73 0
-436 0
-24 399 0
-86 221 0
-151 0
18 -374 0
-416 -58 0
-101 -145 0
25 -383 0
-358 421 0
330 -83 0
270 -137 0
-24 329 0
331 -235 0
-327 0
-289 -201 0
-393 0
-111 0
249 -73 0
-395 0
497 -406 0
-500 0
-264 0
-145 0
-265 0
376 -9 0
-140 494 0
-380 -131 0
388 -403 0
-473 0
-352 -295 0
-379 166 0
-487 0
-448 29 0
-324 0
349 -306 0
-438 55 0
-117 140 0
-484 454 0
-458 0
-234 0
-300 0
-156 318 0
289 -477 0
-366 0
-421 0
-13 0
403 -185 0
-104 0
211 -330 0
-200 97 0
-125 -114 0
-416 0
-481 0
-166 0
-199 0
-101 0
171 -211 0
-445 0
-472 0
-413 293 0
-192 -492 0
-14 213 0
-334 0
-112 127 0
432 -124 0
47 -249 0
-52 -100 0
-213 164 0
-486 255 0
123 -490 0
-416 62 0
-500 -267 0
-312 -113 0
-381 0
80 -91 0
342 -233 0
-20 0
-423 -103 0
-337 0
-70 -410 0
-292 445 0
-70 0
-203 349 0
-22 245 0
58 -421 0
-268 0
202 -201 0
-75 0
-486 0
-173 454 0
-246 -164 0
-187 0
-344 0
-454 0
-406 342 0
-405 0
-247 -393 0
176 -465 0
-294 180 0
40 -349 0
122 -292 0
-476 0
-205 -106 0
-282 -145 0
-23 -406 0
-48 -126 0
-397 0
-26 231 0
-130 0
331 -292 0
-237 0
297 -325 0
-415 414 0
-28 0
-431 453 0
-342 0
173 -337 0
-138 239 0
-95 -89 0
-463 -276 0
256 -51 0
-451 0
-454 -212 0
-293 166 0
117 -489 0
-72 -279 0
-8 35 0
472 -143 0
-148 327 0
-140 -212 0
-57 0
217 -500 0
-104 0
-210 239 0
-16 0
-108 0
-66 0
-482 0
-422 0
248 -244 0
-415 444 0
-282 -33 0
-164 0
-447 -458 0
-447 0
-226 -313 0
-498 -10 0
-462 -426 0
-231 0
-344 0
-484 0
-216 169 0
153 -219 0
-224 -467 0
-36 0
-88 0
-88 0
-40 -444 0
-370 0
-106 0
-32 136 0
-456 -6 0
-388 0
-317 0
-440 0
-465 0
-56 435 0
-494 -443 0
-351 230 0
473 -446 0
297 -348 0
-479 342 0
-155 0
-436 350 0
89 -279 0
-77 -307 0
-23 0
-471 74 0
16 -231 0
409 -364 0
-439 0
154 -482 0
-247 0
-407 471 0
-311 195 0
-304 0
-124 365 0
-117 271 0
37 -162 0
-80 48 0
-455 132 0
-480 -415 0
-237 -428 0
169 -467 0
-189 -236 0
-256 -195 0
-440 -146 0
-152 22 0
-450 0
-132 -299 0
-436 0
495 -57 0
242 -35 0
-416 0
89 -255 0
-10 0
-152 402 0
-122 414 0
-430 -290 0
-485 0
281 -393 0
-354 0
-232 0
412 -132 0
-436 0
-332 -362 0
-12 0
153 -148 0
-133 76 0
-54 0
-110 471 0
-442 0
-353 0
-32 126 0
-60 0
-427 0
-16 0
-323 0
32 -184 0
-334 0
-31 0
414 -481 0
332 -361 0
-102 0
163 -116 0
-381 46 0
-459 -499 0
12 -187 0
-418 0
-141 0
96 -157 0
-51 430 0
-193 0
-41 0
-132 -491 0
-392 40 0
-481 0
-125 0
-77 -314 0
-430 0
56 -455 0
307 -372 0
-357 94 0
-369 0
352 -351 0
-421 0
-78 0
-150 237 0
-352 206 0
-253 0
227 -468 0
122 -362 0
-108 0
-208 63 0
-207 -145 0
265 -243 0
-82 0
-373 -364 0
-365 -164 0
-298 0
-440 346 0
-307 0
-214 0
-118 -338 0
-131 0
-432 -396 0
117 -82 0
-72 75 0
256 -124 0
-390 -186 0
-183 134 0
-283 0
-227 -419 0
-87 0
-192 0
-376 -470 0
297 -441 0
341 -65 0
42 -444 0
489 -170 0
-446 0
-15 397 0
461 -49 0
-167 0
-486 51 0
-435 0
-349 0
-320 286 0
424 -326 0
-308 0
-6 0
84 -218 0
-397 0
-247 383 0
-469 117 0
-479 0
-217 0
-372 -49 0
-494 30 0
-197 0
64 -36 0
-118 -75 0
-373 0
-328 -316 0
-248 117 0
-485 300 0
-416 464 0
-113 0
-100 0
-55 103 0
80 -352 0
208 -122 0
346 -196 0
-384 0
-179 0
-428 461 0
243 -60 0
-472 -158 0
168 -476 0
-200 261 0
-167 0
237 -257 0
-441 319 0
193 -153 0
-79 118 0
-68 0
160 -15 0
-285 -355 0
-493 0
-110 -140 0
432 -37 0
-384 69 0
-359 388 0
-277 0
-463 -442 0
-252 0
-128 0
-490 0
440 -239 0
-256 307 0
462 -258 0
-294 155 0
214 -377 0
-320 451 0
-398 286 0
-127 -270 0
-309 0
-493 253 0
-149 0
-254 110 0
-84 0
344 -274 0
408 -49 0
273 -396 0
-414 -186 0
-22 0
-199 189 0
-300 236 0
-218 0
-254 347 0
-166 -323 0
-320 0
-41 0
-176 -417 0
-487 -58 0
242 -145 0
241 -45 0
-386 0
-185 -377 0
-319 -366 0
-297 0
-402 0
-212 -458 0
401 -397 0
-499 159 0
34 -146 0
-201 -401 0
-363 254 0
-211 0
-478 0
-207 -58 0
172 -402 0
-346 0
305 -6 0
-311 -289 0
-425 0
-29 -250 0
-228 -379 0
441 -372 0
137 -106 0
-232 -356 0
-237 0
-276 0
-302 -379 0
435 -93 0
-474 0
-377 0
-364 -10 0
-142 0
-98 0
81 -20 0
-46 0
-418 0
-178 -18 0
184 -119 0
-296 119 0
-430 -348 0
-429 0
-460 0
-388 0
434 -179 0
384 -478 0
-248 0
-269 0
-160 -458 0
-198 43 0
-97 0
-335 469 0
-233 0
-22 222 0
-478 0
-181 358 0
-104 -319 0
-475 0
-26 0
-87 492 0
369 -461 0
160 -266 0
-453 0
-138 0
-301 -265 0
-400 403 0
-456 -357 0
-302 -210 0
-318 182 0
-261 286 0
-143 0
-302 -36 0
-140 0
314 -222 0
-365 295 0
-384 -433 0
216 -253 0
-296 0
-379 367 0
-344 -246 0
-452 -218 0
322 -418 0
-86 150 0
11 -35 0
-223 500 0
-363 -457 0
-88 0
-287 484 0
-120 -446 0
-275 0
429 -457 0
-146 0
-194 0
-328 0
-12 -153 0
-94 259 0
-378 -434 0
-147 -379 0
-188 0
-214 0
-153 0
-280 0
-349 0
-156 0
456 -411 0
-336 -279 0
-84 94 0
-396 0
103 -441 0
-287 133 0
-410 0
-108 0
-94 0
332 -129 0
-178 0
-118 -139 0
-180 0
-52 0
-304 14 0
-264 470 0
-54 -123 0
-289 -217 0
289 -275 0
-18 0
-28 0
11 -35 0
-2 0
-244 125 0
-47 0
57 -245 0
35 -417 0
-119 0
-447 0
-48 0
-476 0
457 -467 0
-394 0
-325 -338 0
-330 215 0
-302 -252 0
262 -457 0
-496 0
27 -107 0
192 -129 0
119 -257 0
-230 0
-315 -3 0
398 -489 0
-48 0
-246 70 0
-374 0
-237 -442 0
-256 -251 0
-81 0
-5 0
-412 334 0
-469 0
-331 7 0
493 -97 0
-495 0
-313 0
-371 0
-405 0
-299 -441 0
344 -436 0
-227 0
-414 -446 0
-80 -255 0
27 -484 0
34 -27 0
-112 0
-374 0
-373 0
128 -325 0
-11 158 0
-247 53 0
-83 -138 0
-229 0
-364 119 0
-273 -321 0
40 -209 0
-216 0
-431 -43 0
-280 23 0
161 -198 0
-411 0
-62 0
-411 0
249 -220 0
-80 0
-24 0
-75 0
-431 -473 0
-284 55 0
-172 -25 0
-187 0
99 -170 0
-29 -444 0
27 -357 0
-440 0
-34 0
-28 0
73 -109 0
-312 0
-327 0
-9 0
481 -359 0
-55 -83 0
-333 469 0
-107 0
92 -467 0
-175 0
-415 143 0
-359 -147 0
-374 -260 0
-67 358 0
-130 0
-437 0
484 -227 0
299 -187 0
317 -433 0
-447 172 0
-144 -422 0
-496 111 0
-151 -12 0
38 -74 0
-79 284 0
-293 -353 0
-388 0
-398 156 0
-393 0
-80 0
-248 -222 0
-408 -401 0
-210 0
59 -274 0
-40 -459 0
-125 -137 0
-175 -33 0
-24 0
204 -241 0
320 -92 0
-255 -201 0
-361 0
-198 0
376 -351 0
-326 -459 0
-470 117 0
-25 0
352 -110 0
-207 301 0
-231 -30 0
228 -26 0
-228 0
60 -339 0
466 -355 0
-10 0
-159 260 0
-355 0
153 -268 0
-462 0
-302 0
192 -61 0
-437 -444 0
345 -4 0
482 -145 0
-244 374 0
-227 118 0
41 -302 0
-176 366 0
-80 -58 0
-27 -449 0
-419 0
-311 -150 0
-334 178 0
482 -444 0
-425 0
-47 385 0
-362 0
202 -484 0
-153 0
-92 0
-294 23 0
57 -133 0
-346 -138 0
-482 0
-166 231 0
-85 -171 0
-270 0
-4 0
-235 0
-265 0
-400 -71 0
-27 0
-344 411 0
-418 286 0
323 -429 0
-349 -258 0
-144 405 0
-153 0
-255 315 0
-108 407 0
348 -67 0
-480 0
-53 0
-304 -33 0
385 -430 0
73 -453 0
-12 0
-18 0
259 -58 0
-139 0
-283 -42 0
-110 122 0
-360 0
-435 102 0
-3 -385 0
-38 -229 0
-58 206 0
398 -474 0
120 -490 0
-206 483 0
-63 0
-364 0
-312 0
-246 -164 0
-133 0
-47 75 0
-155 0
-287 99 0
-482 -113 0
-111 0
152 -304 0
-396 0
-472 -491 0
-37 0
-14 463 0
177 -202 0
-370 -362 0
281 -454 0
-410 -369 0
218 -294 0
-67 31 0
-408 211 0
370 -75 0
-424 0
-408 -53 0
-142 0
-193 0
-251 0
-311 0
-307 0
-473 0
-369 -345 0
-24 0
-3 0
115 -370 0
-243 0
-27 0
-260 0
-236 0
233 -413 0
-487 0
-40 -433 0
-192 459 0
-15 0
-178 0
-415 0
-239 156 0
-87 0
-384 141 0
-395 0
-210 0
377 -90 0
-214 0
233 -5 0
-381 0
-428 -236 0
327 -17 0
485 -305 0
-63 411 0
-450 0
-368 0
-118 27 0
-332 0
-93 0
-5 0
-64 344 0
-165 0
-122 0
-245 0
-108 0
-348 439 0
-38 335 0
-297 0
-171 0
152 -157 0
-287 0
-337 279 0
496 -335 0
-254 0
-182 493 0
-455 244 0
-164 0
-260 -105 0
-381 0
-140 -396 0
264 -90 0
-84 0
-133 459 0
461 -89 0
-286 0
-123 375 0
-253 335 0
-44 0
-194 295 0
186 -292 0
-248 0
-448 0
-32 472 0
-215 0
-51 367 0
-351 451 0
-267 0
149 -273 0
-142 0
-24 17 0
-308 -290 0
400 -315 0
-430 470 0
-359 0
-184 115 0
-251 0
-336 123 0
-330 -353 0
-383 0
-408 107 0
226 -370 0
218 -181 0
252 -313 0
194 -434 0
-168 21 0
357 -171 0
-392 -415 0
-479 0
48 -392 0
-72 0
32 -316 0
-265 0
-151 230 0
41 -122 0
-496 -313 0
-316 101 0
-335 22 0
-143 -441 0
-263 0
-173 0
-176 342 0
-30 95 0
-88 -300 0
-346 0
-22 -142 0
4 -428 0
-198 315 0
-152 -35 0
108 -75 0
-427 349 0
-448 27 0
376 -385 0
-248 -208 0
339 -274 0
-389 -187 0
165 -481 0
240 -500 0
-432 -25 0
-397 23 0
-158 0
346 -202 0
480 -128 0
-372 0
-142 0
-259 0
-392 242 0
43 -445 0
-78 359 0
483 -349 0
-277 0
-496 -193 0
-285 -113 0
-216 0
-325 -68 0
-56 0
-269 126 0
-431 0
-173 37 0
-223 0
-404 0
-262 -201 0
233 -372 0
495 -265 0
-305 0
-178 0
-39 140 0
-334 -418 0
-204 -433 0
-333 0
-413 0
-434 -433 0
-277 475 0
-451 -10 0
-358 0
450 -3 0
-160 489 0
-186 31 0
225 -465 0
-322 0
306 -129 0
-344 0
-341 0
449 -78 0
-191 -255 0
-431 0
-43 0
-403 94 0
8 -428 0
-412 0
258 -421 0
-344 428 0
-219 0
-461 -29 0
-392 -245 0
-315 446 0
403 -420 0
-159 0
316 -410 0
-485 0
-135 244 0
-206 37 0
-406 315 0
226 -92 0
-267 -371 0
-145 0
-304 0
-441 0
-228 0
-168 0
-134 0
452 -378 0
-487 0
-238 0
-480 -167 0
-102 -483 0
155 -379 0
-50 0
115 -387 0
-156 133 0
392 -96 0
-122 -169 0
-179 0
437 -18 0
-441 0
421 -129 0
-404 0
-139 0
-224 303 0
465 -238 0
-67 0
344 -352 0
-184 0
-354 0
-160 239 0
266 -283 0
-145 0
-308 0
-226 0
-491 478 0
-24 0
-317 0
-496 0
-216 -413 0
-280 232 0
-251 493 0
-215 0
-164 0
416 -82 0
-238 -484 0
460 -59 0
-10 0
-145 0
-403 317 0
-248 0
-271 -17 0
-26 0
406 -473 0
-80 411 0
-166 -130 0
-16 0
-55 -482 0
-57 0
-208 0
-175 -149 0
-259 0
-235 0
-214 0
-250 0
466 -417 0
64 -500 0
-405 0
-376 0
-293 -436 0
-245 157 0
-402 0
-240 137 0
-87 0
-133 -387 0
-189 0
17 -357 0
-413 0
-61 0
-421 -425 0
-29 -193 0
-81 0
-63 -438 0
-293 14 0
-168 236 0
145 -361 0
-88 250 0
-234 0
-416 0
129 -279 0
-63 494 0
489 -441 0
-214 -43 0
-27 0
-324 -284 0
-86 0
-260 0
194 -366 0
417 -298 0
-3 0
-40 0
-356 -411 0
-497 0
-248 324 0
19 -115 0
-208 183 0
-44 223 0
-148 334 0
418 -340 0
-149 -129 0
-348 0
228 -409 0
-212 0
-306 0
-355 22 0
382 -393 0
-333 294 0
-119 466 0
-484 87 0
-151 0
-181 0
-310 0
-80 -255 0
-172 -433 0
-262 -443 0
-417 0
-153 0
312 -363 0
-382 -250 0
-245 0
-229 -435 0
-52 0
-2 0
-247 0
-470 221 0
-55 59 0
-99 455 0
-76 0
-167 398 0
288 -260 0
-414 -3 0
-240 186 0
-158 -131 0
-360 370 0
-137 -305 0
-105 0
-115 0
-261 155 0
465 -427 0
-355 0
-23 255 0
-418 0
-437 -241 0
273 -1 0
62 -394 0
-241 63 0
-366 125 0
-487 0
-394 159 0
-490 0
-439 -174 0
-362 0
-371 0
496 -121 0
368 -38 0
-403 -218 0
-124 0
401 -394 0
370 -486 0
-170 0
-70 -412 0
-107 0
-65 0
-334 -221 0
454 -393 0
-158 0
401 -166 0
-48 0
49 -226 0
-456 -23 0
-409 0
-118 -116 0
-327 0
66 -156 0
-430 0
-226 -105 0
-22 0
-366 453 0
-189 0
-403 0
-376 0
-235 0
245 -114 0
-364 -298 0
-352 -430 0
-311 61 0
-158 0
-447 0
-488 132 0
176 -214 0
174 -257 0
-247 -454 0
-78 -164 0
-425 0
435 -19 0
441 -257 0
-496 464 0
57 -161 0
-472 243 0
-267 0
-336 0
-317 0
-198 0
-63 211 0
-4 0
-211 0
-120 267 0
-289 0
-321 0
-380 0
-318 495 0
456 -92 0
-261 364 0
-72 0
194 -300 0
-488 -432 0
-351 95 0
-459 -251 0
-248 0
330 -146 0
-2 0
12 -83 0
-354 0
-184 -194 0
110 -385 0
-38 0
-122 398 0
-413 0
-256 0
-120 258 0
-175 199 0
-438 0
-461 -385 0
-392 -57 0
-276 0
-234 -169 0
-160 -203 0
209 -413 0
-336 -170 0
-258 0
-101 -4 0
-56 0
-283 0
-72 -125 0
-20 0
-335 0
-144 0
-326 0
-128 -494 0
-96 -285 0
248 -317 0
-254 0
-45 0
-246 0
-219 141 0
-159 -55 0
-299 0
-280 450 0
-468 0
-446 85 0
-122 0
-304 0
-288 -278 0
-486 0
-334 -437 0
26 -220 0
401 -302 0
-425 0
-160 0
-279 -115 0
-40 -261 0
-153 0
-279 0
-41 0
-267 270 0
-380 0
-422 100 0
-470 205 0
-437 0
-7 468 0
-168 375 0
-164 -43 0
-140 -18 0
-405 0
403 -372 0
-329 0
481 -211 0
-157 0
-55 412 0
416 -453 0
-389 -258 0
-347 478 0
-380 -281 0
-424 -12 0
-292 -194 0
-25 0
384 -192 0
-446 -92 0
-278 422 0
-447 -351 0
-343 0
360 -383 0
152 -329 0
275 -339 0
-268 0
-238 0
-235 351 0
-103 -114 0
217 -273 0
-393 0
-410 0
-77 0
-466 0
-191 0
-154 0
-279 365 0
-66 -490 0
-24 -52 0
-337 0
-402 0
-101 -412 0
-159 0
-436 0
-135 5 0
-487 -454 0
-465 0
-426 102 0
-329 0
-256 103 0
165 -353 0
-24 0
-376 -463 0
-292 388 0
-270 498 0
-436 268 0
-72 -349 0
-281 0
-176 469 0
-41 0
-160 424 0
-222 0
82 -109 0
-214 0
-21 0
-272 0
-285 -297 0
-373 0
-488 0
-40 -235 0
-423 -201 0
-237 319 0
-235 0
-55 -33 0
-84 -146 0
-228 -130 0
434 -253 0
-352 486 0
-12 143 0
-321 0
-45 0
-443 -306 0
79 -97 0
179 -292 0
-352 -35 0
-126 141 0
369 -5 0
61 -202 0
162 -325 0
-427 0
112 -292 0
281 -445 0
219 -109 0
-125 0
-466 -202 0
-7 -281 0
-247 133 0
-38 6 0
-35 262 0
-49 0
108 -153 0
-219 -186 0
384 -159 0
-172 -153 0
80 -125 0
-218 0
-407 263 0
-469 0
400 -498 0
16 -375 0
96 -297 0
49 -169 0
-445 0
-135 0
-320 331 0
-95 -179 0
-258 0
-18 0
-447 -68 0
-203 223 0
-439 0
-370 303 0
-189 0
-476 0
-235 0
485 -314 0
-320 -223 0
-160 -263 0
-444 -58 0
-280 492 0
137 -389 0
-342 101 0
-55 -107 0
-268 0
-487 -270 0
160 -429 0
-95 -345 0
-300 421 0
57 -43 0
-489 -97 0
-471 -193 0
-288 -167 0
-372 0
-37 0
-23 0
-500 -436 0
-422 0
-251 0
-463 0
-182 -210 0
-187 -49 0
-143 75 0
-325 0
-455 458 0
-200 -411 0
-178 0
-145 0
-315 0
-347 -114 0
-211 0
-136 315 0
283 -109 0
-126 -265 0
-412 -411 0
-23 0
265 -461 0
-370 0
290 -43 0
-187 0
-360 0
314 -18 0
-137 0
-422 0
-378 0
-44 341 0
-325 -331 0
280 -183 0
-76 -289 0
291 -452 0
488 -368 0
-445 -372 0
-169 0
-299 0
-325 0
500 -499 0
-477 0
-92 0
-360 0
-16 -124 0
60 -474 0
-452 0
-369 79 0
-384 0
-61 0
-451 0
-334 -305 0
-310 0
296 -318 0
-238 258 0
-291 0
-141 -266 0
-124 0
-196 -49 0
-467 0
-275 0
442 -449 0
-312 465 0
497 -470 0
-128 -359 0
388 -266 0
-347 111 0
-73 -433 0
-230 -253 0
-181 -307 0
-40 0
-241 0
-183 0
-222 469 0
-273 0
-439 261 0
-232 461 0
-50 -490 0
-222 0
-160 0
-237 0
326 -34 0
387 -194 0
-74 0
-259 0
-115 0
-458 0
-64 -37 0
176 -304 0
-301 -313 0
-400 486 0
-30 444 0
234 -381 0
-119 -294 0
-35 0
166 -465 0
-280 0
-178 -2 0
-406 0
-360 0
-78 -458 0
-424 185 0
-452 0
-313 0
-102 396 0
19 -197 0
-60 0
-412 253 0
-210 -209 0
-344 0
-379 -66 0
242 -113 0
-178 7 0
-465 0
300 -43 0
-394 -170 0
216 -459 0
-407 -205 0
-335 -106 0
-60 0
-287 215 0
124 -147 0
-72 -414 0
-388 0
-77 151 0
-120 30 0
-463 -108 0
443 -140 0
-79 0
-267 -137 0
-223 0
-400 297 0
-156 0
-236 -154 0
415 -249 0
-4 -458 0
138 -404 0
-235 0
336 -24 0
-39 -404 0
-295 -422 0
-471 18 0
-423 0
-407 0
331 -349 0
-39 -242 0
-407 0
-433 -41 0
-448 -375 0
-291 0
-247 0
-15 0
-31 0
-267 0
-167 0
-304 -325 0
-488 -428 0
-347 -202 0
193 -318 0
-273 0
472 -337 0
394 -298 0
128 -495 0
-109 0
-373 -148 0
346 -299 0
-167 43 0
32 -3 0
-300 -145 0
153 -372 0
-498 0
252 -226 0
-245 0
-477 -157 0
-264 0
-70 0
-356 -378 0
-339 0
-222 -364 0
-114 0
-480 -96 0
-375 0
-104 42 0
-30 -268 0
-149 0
-495 492 0
-212 0
-85 0
-7 117 0
-332 0
-316 0
-439 0
-373 174 0
-188 0
-368 273 0
-430 341 0
-488 0
-262 0
-208 -100 0
-410 318 0
-219 0
-29 0
-434 0
-70 295 0
-37 -301 0
-250 0
-42 0
-446 -147 0
-135 0
-296 120 0
99 -229 0
58 -244 0
-167 0
363 -157 0
468 -249 0
-336 0
466 -180 0
-27 15 0
335 -369 0
-155 0
464 -476 0
-459 0
-389 0
-232 0
-283 -10 0
-226 0
153 -291 0
-184 0
-212 0
-424 -224 0
128 -99 0
-441 0
25 -398 0
-171 0
-270 0
-491 151 0
-55 46 0
-262 -145 0
278 -185 0
-27 -370 0
-287 278 0
-213 -341 0
-296 494 0
-198 196 0
-398 0
-64 0
-235 0
-416 -343 0
-24 -142 0
-44 0
-171 230 0
-76 0
264 -237 0
-408 -34 0
-288 453 0
-171 0
-175 0
-409 0
-424 76 0
-183 199 0
-242 0
-184 0
-456 -86 0
-212 0
-86 0
-270 -28 0
-93 0
-220 238 0
-250 -57 0
-128 0
-263 -329 0
-136 198 0
-240 -257 0
-7 169 0
-168 129 0
-192 -280 0
-60 -393 0
-205 0
-292 406 0
-40 0
-256 -43 0
-52 0
136 -482 0
-376 196 0
-439 -346 0
-294 0
-375 0
-469 0
66 -242 0
-111 -305 0
-233 0
-459 0
-384 -457 0
-494 0
-109 0
-234 -281 0
-233 0
-284 -386 0
-437 0
-32 -224 0
-311 461 0
-232 0
-415 0
-232 297 0
-82 0
-317 -117 0
-152 0
1 -31 0
181 -186 0
-135 0
12 -473 0
-401 0
-65 0
442 -89 0
-444 -354 0
-470 101 0
16 -224 0
-319 485 0
-245 0
-52 412 0
-175 0
-427 0
-414 0
-132 447 0
-180 -211 0
-131 0
-413 0
-38 118 0
-486 0
-208 32 0
-483 0
-191 229 0
-70 0
-268 0
-70 78 0
-36 0
97 -1 0
-99 0
187 -402 0
260 -65 0
-120 -356 0
-68 12 0
-463 -389 0
-134 -289 0
-357 0
66 -460 0
-324 -473 0
-420 0
-291 -441 0
161 -38 0
-391 257 0
-297 0
-173 0
-355 0
-288 -147 0
-185 0
439 -153 0
-406 124 0
-7 -52 0
-367 0
-49 0
-311 0
-420 0
-113 439 0
-345 -137 0
-197 380 0
-458 -145 0
297 -289 0
-140 0
-103 -281 0
457 -204 0
153 -36 0
-414 -388 0
-234 0
-70 317 0
-67 0
-377 0
152 -458 0
-285 356 0
-396 0
-479 68 0
-149 94 0
-468 0
-360 -316 0
-220 -42 0
-329 0
58 -333 0
-235 -121 0
-99 0
-184 0
208 -118 0
-42 0
-324 0
472 -478 0
-107 31 0
-359 -445 0
-232 0
-166 -59 0
267 -459 0
-200 -204 0
-124 -196 0
-356 -370 0
-424 -70 0
-11 263 0
-390 0
-469 0
-78 459 0
-263 -145 0
-86 -389 0
-304 0
-187 413 0
-476 -299 0
-70 0
202 -130 0
-182 183 0
-435 0
-223 -481 0
-262 0
-483 102 0
-170 -153 0
-269 -257 0
273 -209 0
-479 -377 0
356 -36 0
145 -303 0
-463 -101 0
-296 0
218 -382 0
-18 0
-308 0
130 -186 0
124 -170 0
-275 0
498 -185 0
-151 0
-205 78 0
-2 0
-219 0
210 -323 0
-422 0
-452 -465 0
-54 0
499 -157 0
-288 0
-217 0
-266 0
322 -218 0
-236 310 0
-273 0
232 -438 0
-484 0
-454 0
-360 0
-475 327 0
337 -54 0
88 -65 0
-257 -449 0
-376 -408 0
-177 0
-76 -99 0
281 -468 0
-305 0
-86 -134 0
116 -90 0
-472 0
-460 0
17 -212 0
-316 0
-217 0
-75 327 0
-262 -254 0
-445 -412 0
-24 413 0
-373 0
-101 0
-363 133 0
-382 -475 0
-487 78 0
-382 246 0
-370 0
-186 0
69 -497 0
-228 0
-224 350 0
-487 0
476 -451 0
-186 0
496 -193 0
225 -366 0
-312 -355 0
-458 0
-449 0
-149 -187 0
-264 -367 0
466 -354 0
-191 0
-481 0
-221 -202 0
-267 0
-293 -10 0
454 -65 0
462 -377 0
-96 120 0
-69 0
-140 -202 0
-91 0
288 -399 0
-480 0
74 -66 0
-328 0
180 -84 0
-406 0
-365 -217 0
-200 0
-63 229 0
265 -179 0
-136 0
-488 150 0
485 -457 0
-69 150 0
78 -210 0
-192 206 0
-177 0
435 -251 0
-5 0
-427 -89 0
-447 0
-373 470 0
-380 -68 0
-451 311 0
-56 0
483 -266 0
-325 0
-21 54 0
-14 0
-416 -403 0
-96 278 0
-447 17 0
-168 0
107 -202 0
-426 463 0
30 -258 0
25 -12 0
-420 -291 0
473 -459 0
-446 0
-230 0
218 -355 0
-327 53 0
458 -478 0
-478 -20 0
217 -110 0
-280 0
-379 0
-88 0
-491 -65 0
-475 -51 0
-416 0
-259 -419 0
-381 100 0
-167 0
-105 -449 0
448 -56 0
-374 0
-440 0
-456 -474 0
-416 280 0
373 -34 0
-390 0
-333 -292 0
-440 -38 0
-154 87 0
-47 -335 0
-227 0
-8 -150 0
-118 0
120 -443 0
-334 0
-366 0
425 -382 0
-117 0
-103 -466 0
136 -356 0
-190 -340 0
-249 0
-289 0
-396 -347 0
480 -137 0
-246 420 0
-454 0
-442 0
-300 253 0
-336 427 0
-198 114 0
153 -156 0
-4 -346 0
-373 -212 0
-17 0
-396 0
-459 0
57 -205 0
-184 370 0
-271 119 0
290 -259 0
-23 -126 0
-255 138 0
-393 0
-269 335 0
427 -121 0
-175 263 0
-117 470 0
-277 423 0
300 -500 0
-326 451 0
128 -331 0
232 -122 0
-313 0
-337 0
-40 338 0
-498 0
-30 0
-468 -91 0
1 -198 0
249 -69 0
-6 154 0
426 -268 0
-72 -295 0
-214 255 0
-62 0
-91 0
121 -143 0
-86 123 0
-404 0
-231 98 0
-383 -108 0
-187 0
-122 -234 0
420 -105 0
479 -81 0
-150 0
92 -282 0
-399 62 0
-500 0
-228 0
-32 438 0
1 -303 0
-174 -68 0
16 -66 0
-316 0
-479 0
-23 0
-218 246 0
-60 0
-127 0
-254 -180 0
392 -108 0
-398 0
-352 36 0
130 -52 0
-496 0
-104 215 0
-40 -386 0
-299 -283 0
-398 0
-5 0
-71 0
-496 0
41 -68 0
-272 -368 0
-56 -216 0
-85 0
-442 -497 0
-274 0
499 -210 0
-258 0
-302 0
-312 -11 0
362 -298 0
-62 290 0
-288 0
-269 228 0
-7 0
-64 -209 0
372 -299 0
-2 0
-165 0
362 -378 0
-443 0
-414 358 0
384 -14 0
-182 -201 0
-240 1 0
-297 0
-184 409 0
-403 0
-166 0
-231 -390 0
297 -243 0
-238 -282 0
-99 142 0
-93 -490 0
-153 0
-146 0
-363 167 0
-409 0
66 -419 0
-271 0
-291 453 0
-429 0
-365 0
-47 399 0
80 -445 0
-483 0
-251 63 0
-237 215 0
24 -96 0
-150 -210 0
37 -162 0
-184 0
-202 0
-480 -357 0
-473 0
-245 0
290 -236 0
-424 0
-228 391 0
-358 0
-447 0
-177 0
422 -450 0
-352 0
217 -169 0
-78 478 0
-223 0
-214 108 0
100 -202 0
-163 0
-223 0
-54 0
-189 -155 0
-309 -98 0
-345 0
161 -247 0
-72 -19 0
-89 231 0
170 -92 0
-240 0
-16 145 0
-369 0
319 -33 0
-111 0
-138 0
-228 79 0
-336 -84 0
-346 -233 0
-135 0
264 -299 0
491 -308 0
-35 0
-13 0
-347 -433 0
-211 0
-63 -325 0
-500 0
-52 0
-8 -94 0
-39 -148 0
-211 0
225 -66 0
-493 -73 0
452 -395 0
-168 -321 0
400 -318 0
496 -330 0
-15 -305 0
-92 0
-295 0
-121 0
-263 412 0
-66 0
-22 0
-68 0
228 -27 0
-475 0
-159 373 0
-222 -254 0
-286 -122 0
-424 315 0
-263 0
-462 0
-59 0
-195 414 0
-199 0
-366 -91 0
-350 -260 0
-323 0
-109 0
-235 0
-52 390 0
-261 0
-412 0
377 -75 0
-375 54 0
-484 0
-429 -109 0
-383 -251 0
-22 477 0
-445 0
-28 0
-343 0
-214 52 0
-183 396 0
184 -371 0
-96 114 0
-59 0
-207 0
-87 0
-452 -442 0
-282 295 0
-184 -319 0
-371 0
-88 0
-319 198 0
-320 -486 0
-467 0
-74 0
-53 -369 0
-216 0
-171 -443 0
-249 -193 0
-471 0
-367 140 0
-300 -153 0
-139 318 0
-219 0
-223 -479 0
-496 -166 0
-264 0
-32 -495 0
-118 0
-319 219 0
-309 -18 0
-286 255 0
-3 0
-338 0
372 -260 0
-391 -2 0
-102 116 0
-269 207 0
-84 -436 0
-134 0
-212 0
-21 0
-432 0
-496 463 0
-420 -276 0
-424 441 0
-239 -494 0
139 -137 0
395 -203 0
-438 0
-422 0
-15 339 0
-391 428 0
-271 57 0
-94 0
-449 0
-304 0
-455 0
-64 -88 0
-256 292 0
420 -322 0
464 -34 0
-37 0
236 -268 0
330 -229 0
-21 0
400 -53 0
-422 0
353 -316 0
-464 265 0
-11 407 0
-392 -203 0
-267 0
-492 0
-293 -300 0
-46 58 0
169 -101 0
-185 0
-260 141 0
186 -185 0
424 -189 0
445 -83 0
218 -339 0
266 -457 0
-307 0
-12 45 0
-312 44 0
-240 0
-423 0
-136 201 0
-123 0
-174 0
-262 -125 0
11 -370 0
128 -413 0
-55 331 0
-496 296 0
-1 0
-136 203 0
-107 0
-96 29 0
-285 -289 0
169 -341 0
-336 0
-144 0
401 -308 0
5 -385 0
-168 -455 0
-207 -459 0
-166 158 0
-464 -495 0
-313 0
153 -70 0
-187 0
-398 0
-309 0
-16 -155 0
-413 0
-305 0
-142 0
-127 102 0
-383 59 0
-232 -180 0
-62 406 0
10 -11 0
-306 0
452 -460 0
-68 350 0
-443 0
-183 187 0
-451 0
-430 92 0
-193 0
-167 115 0
315 -129 0
408 -329 0
-22 0
-152 0
-478 -454 0
50 -490 0
379 -173 0
-278 -430 0
-478 -68 0
275 -29 0
-257 0
-72 15 0
-128 0
-411 359 0
-161 0
-418 0
464 -394 0
342 -233 0
-373 0
-429 -339 0
-210 127 0
-182 55 0
-426 0
-155 0
-391 274 0
-199 297 0
-346 0
-367 0
-364 -155 0
-224 -461 0
459 -378 0
-463 497 0
108 -132 0
14 -321 0
-407 -30 0
499 -178 0
-486 0
-16 0
27 -283 0
-493 0
402 -67 0
-336 407 0
-447 0
424 -426 0
-24 0
-431 0
-193 31 0
233 -494 0
374 -226 0
49 -343 0
-357 -66 0
-197 0
-337 0
-408 -441 0
-18 0
-151 302 0
-383 0
-166 -60 0
-173 0
-317 -201 0
-359 102 0
-19 0
-257 0
-373 -362 0
157 -306 0
26 -405 0
-486 0
146 -140 0
440 -205 0
344 -63 0
358 -265 0
-232 -442 0
-95 0
-308 4 0
-149 -243 0
-149 231 0
-456 0
-295 -417 0
-375 0
472 -164 0
-237 483 0
-400 0
-145 0
100 -57 0
-167 0
72 -455 0
-402 0
-323 0
-293 0
-200 -403 0
-430 147 0
-414 -90 0
331 -163 0
10 -300 0
-150 -429 0
-178 0
-333 0
401 -231 0
-97 0
253 -65 0
-456 0
-411 -194 0
-24 -201 0
-200 0
-125 0
-436 0
-104 -72 0
-70 0
302 -145 0
-402 214 0
-38 -12 0
-143 35 0
329 -356 0
-223 311 0
-46 -99 0
-378 439 0
-37 -179 0
393 -217 0
-121 0
416 -273 0
-44 0
-343 62 0
-200 -286 0
-243 0
-405 0
-77 0
-247 309 0
-247 0
-406 -478 0
-408 402 0
-238 -330 0
-312 -457 0
-485 29 0
-128 -286 0
-124 485 0
-244 0
-176 125 0
-304 495 0
-308 -498 0
-33 0
-390 339 0
-180 0
332 -11 0
-136 -491 0
-61 327 0
-362 -274 0
-176 300 0
-160 -490 0
-280 0
-135 0
-302 419 0
-392 235 0
-382 0
-243 326 0
-335 310 0
97 -151 0
-118 0
-372 0
-358 0
-32 -79 0
-263 53 0
-359 213 0
-212 0
-29 -186 0
-344 0
-61 0
49 -126 0
-311 0
-242 0
-132 -363 0
-500 -467 0
-448 0
-202 0
-255 14 0
176 -483 0
-469 0
-113 0
-101 0
-107 462 0
-133 244 0
-375 253 0
-287 0
-47 0
-125 0
250 -198 0
125 -466 0
350 -433 0
-361 0
98 -153 0
-393 0
-150 277 0
-74 -273 0
419 -4 0
200 -319 0
-120 -256 0
-137 0
-264 0
48 -287 0
-141 -290 0
-269 0
-474 0
50 -396 0
-211 0
-151 0
-248 -378 0
-231 314 0
32 -116 0
-279 0
-100 62 0
81 -329 0
-438 399 0
-497 0
-208 0
-283 86 0
-236 0
-184 -286 0
-389 0
-412 0
-407 -457 0
281 -63 0
-168 0
-428 397 0
-223 -453 0
-244 0
-239 498 0
-44 -346 0
-280 -314 0
-494 0
-330 0
-72 183 0
-368 170 0
-355 0
-94 0
-465 0
-245 -403 0
-393 0
380 -410 0
-87 -285 0
160 -335 0
-136 0
176 -203 0
-488 0
-388 293 0
-120 256 0
-413 -212 0
-338 0
-184 177 0
-148 0
-71 -140 0
-258 0
-458 0
-95 60 0
-500 279 0
-350 0
-459 0
-454 -497 0
-320 0
-16 339 0
-173 0
-262 0
-427 0
-88 -451 0
-349 -476 0
-360 0
-54 -300 0
-167 0
-390 -203 0
-163 0
-289 367 0
-103 0
-372 -363 0
-446 0
-101 446 0
-376 -314 0
-430 0
26 -27 0
-49 0
-391 61 0
29 -451 0
-6 0
-420 0
244 -186 0
373 -347 0
459 -337 0
218 -19 0
-111 0
-441 0
-407 410 0
-440 274 0
-417 159 0
-171 311 0
-256 -325 0
-352 0
-152 -61 0
-161 0
-144 271 0
-13 -186 0
483 -243 0
9 -127 0
427 -441 0
-203 -411 0
-252 -75 0
-493 76 0
-497 0
-103 0
-399 -353 0
-298 0
-221 293 0
-300 0
-279 -378 0
325 -91 0
-26 0
183 -393 0
318 -194 0
446 -1 0
-437 125 0
200 -115 0
464 -481 0
-339 0
-31 -466 0
-178 -425 0
-8 447 0
-176 372 0
-46 -443 0
-237 0
-318 0
-251 0
408 -142 0
162 -298 0
-155 0
-37 310 0
-267 -435 0
-237 246 0
-102 494 0
-283 358 0
-287 7 0
25 -290 0
67 -180 0
-486 242 0
36 -67 0
-218 0
376 -183 0
331 -100 0
-213 -457 0
308 -466 0
-375 213 0
-430 189 0
-63 474 0
-103 458 0
317 -242 0
-394 0
-11 0
-173 0
-54 0
-24 366 0
-495 -113 0
-244 0
211 -133 0
-432 0
-443 0
-186 -249 0
-265 0
-104 -251 0
-488 0
-130 0
234 -458 0
-77 467 0
-228 0
362 -346 0
-156 141 0
-59 0
-398 22 0
-405 -122 0
-283 -314 0
-122 0
-376 0
-116 0
-326 103 0
-136 -324 0
-494 -250 0
-159 0
-243 0
-286 -246 0
-214 309 0
-304 -333 0
-3 117 0
332 -434 0
-462 0
-227 358 0
-306 0
-240 0
208 -205 0
-288 -166 0
-286 0
-437 0
-282 0
394 -157 0
-24 0
-199 0
76 -450 0
-21 101 0
-322 55 0
-196 0
-166 0
115 -202 0
-211 0
-24 172 0
490 -244 0
-460 0
-324 0
200 -62 0
145 -237 0
-266 0
-444 0
-308 0
-192 219 0
-25 0
36 -330 0
-423 0
-383 106 0
-367 -236 0
-308 -498 0
-261 -146 0
-341 0
-473 0
-184 23 0
-178 0
-111 0
-350 451 0
-78 0
-215 0
-196 0
369 -57 0
-165 -442 0
408 -387 0
-142 0
-280 0
-326 262 0
364 -186 0
-187 -194 0
-76 -57 0
492 -91 0
-207 0
-272 -2 0
-286 454 0
-136 0
474 -293 0
227 -380 0
-44 0
-290 0
108 -153 0
-103 236 0
57 -420 0
-155 0
-400 77 0
-384 -60 0
-219 149 0
-388 164 0
-80 0
-191 449 0
-278 0
-316 333 0
-370 -137 0
-160 -408 0
328 -490 0
-143 146 0
-309 -26 0
-44 0
188 -65 0
-362 0
-473 0
354 -473 0
-134 -341 0
-97 0
3 -309 0
-354 0
-52 0
42 -45 0
382 -58 0
-327 0
-95 212 0
-454 0
-208 0
-62 -179 0
-55 0
-310 -363 0
-192 0
-311 111 0
304 -29 0
-383 -70 0
-338 0
390 -161 0
-143 -41 0
-85 0
-493 0
-476 -251 0
-166 0
-187 0
-258 0
-47 -428 0
362 -497 0
56 -314 0
-441 0
476 -273 0
-40 289 0
-348 0
83 -172 0
298 -493 0
397 -106 0
-315 -227 0
-414 0
-144 325 0
-213 0
-405 -353 0
-198 -116 0
-154 0
-490 0
-291 0
-418 0
233 -298 0
102 -345 0
-68 0
-486 0
-390 -258 0
-348 0
-222 0
-246 0
-168 0
-399 0
-79 -70 0
-294 190 0
-422 0
-204 85 0
-168 230 0
-390 -203 0
-408 0
-470 -452 0
-115 0
-325 477 0
-96 338 0
84 -241 0
-192 -58 0
-213 262 0
-470 -411 0
466 -491 0
-8 0
-301 0
353 -54 0
-281 0
-5 0
249 -467 0
-185 0
-491 0
-188 0
-164 0
-134 389 0
-390 36 0
-20 0
-431 491 0
-44 0
-216 -284 0
-474 0
473 -441 0
-280 0
33 -34 0
-341 179 0
-157 302 0
-363 0
-329 0
-48 464 0
-32 -351 0
-279 0
258 -404 0
