p cnf 2764 10561
324 0
285 0
436 0
466 0
15 0
458 365 0
290 0
204 0
423 0
424 0
38 0
473 0
199 0
480 0
113 218 0
226 107 0
398 0
191 0
336 0
465 413 0
376 403 0
249 0
216 482 0
413 0
352 0
188 0
9 369 0
246 0
480 287 0
59 227 0
397 0
449 0
356 0
215 0
129 0
400 257 0
468 0
499 483 0
130 322 0
352 37 0
142 0
38 0
380 0
108 0
81 442 0
291 0
199 0
475 356 0
136 0
478 0
60 0
116 0
205 293 0
194 0
25 191 0
189 0
263 0
8 0
234 0
103 327 0
66 0
230 0
290 0
233 0
162 0
260 0
207 0
82 215 0
63 0
257 0
112 0
86 183 0
192 7 0
433 0
336 0
330 0
427 0
360 0
200 0
246 495 0
218 278 0
58 0
367 0
129 292 0
395 0
267 0
470 215 0
238 0
258 0
500 0
88 145 0
102 0
314 0
411 0
308 191 0
419 0
288 161 0
378 60 0
256 28 0
19 0
368 0
256 0
160 151 0
55 0
89 78 0
412 0
85 0
61 0
428 414 0
128 368 0
483 348 0
404 301 0
176 90 0
277 0
262 0
306 270 0
140 0
27 0
224 93 0
133 0
155 404 0
90 119 0
261 0
55 0
29 0
26 371 0
321 0
9 158 0
355 52 0
14 495 0
306 163 0
378 437 0
258 0
298 419 0
174 343 0
281 0
275 0
97 348 0
400 0
266 403 0
123 0
64 0
196 0
82 0
234 479 0
48 0
53 0
259 0
242 254 0
310 0
154 0
489 0
473 189 0
323 0
159 0
36 0
49 42 0
477 0
260 0
394 107 0
357 0
427 110 0
412 324 0
120 0
449 260 0
443 0
210 0
370 86 0
208 374 0
113 0
168 0
94 0
152 372 0
336 0
166 0
48 58 0
344 374 0
46 0
296 0
73 0
273 0
132 0
315 100 0
92 0
53 0
117 0
354 0
35 444 0
416 339 0
64 132 0
150 119 0
196 0
19 435 0
157 0
150 0
204 0
239 0
452 0
425 0
368 462 0
10 0
472 0
27 293 0
373 0
378 0
179 0
179 382 0
55 87 0
413 0
22 0
338 0
37 0
296 0
118 0
426 0
338 0
49 454 0
392 0
459 0
67 484 0
280 22 0
447 0
124 0
198 0
126 207 0
228 0
238 0
390 0
119 0
87 0
243 0
435 7 0
465 0
273 0
57 0
382 0
196 261 0
117 0
27 0
185 0
203 0
331 0
456 244 0
496 91 0
387 483 0
425 127 0
145 172 0
187 0
404 0
264 0
86 0
56 164 0
498 0
144 0
196 399 0
176 0
173 0
491 0
373 0
145 295 0
311 423 0
448 240 0
82 0
118 0
474 491 0
49 396 0
227 126 0
453 0
145 478 0
200 306 0
57 0
8 229 0
176 170 0
58 322 0
429 0
273 339 0
197 0
470 0
181 0
224 214 0
60 0
237 0
416 63 0
404 0
153 0
68 0
460 0
63 0
384 0
307 0
87 0
213 0
291 0
1 294 0
240 108 0
105 0
246 0
481 0
227 0
382 0
49 0
492 0
474 0
157 0
177 476 0
42 395 0
149 0
88 0
342 0
177 204 0
166 103 0
278 0
308 213 0
13 431 0
496 375 0
177 95 0
181 0
293 0
225 342 0
365 367 0
233 0
33 0
453 0
460 0
336 152 0
27 287 0
204 0
12 182 0
462 327 0
460 0
232 315 0
218 50 0
96 0
378 311 0
485 0
386 0
149 0
25 446 0
464 9 0
342 447 0
324 237 0
31 0
320 0
12 0
2 0
180 127 0
342 0
190 0
426 0
225 415 0
49 0
496 0
475 0
296 0
242 0
275 0
203 219 0
39 0
392 241 0
290 118 0
212 0
90 111 0
355 0
79 0
16 0
338 0
159 0
3 247 0
291 0
84 0
435 44 0
105 0
53 0
161 0
469 0
127 0
384 0
337 0
470 0
262 0
356 0
195 0
480 474 0
135 0
474 461 0
74 117 0
153 483 0
405 0
324 0
456 188 0
289 0
461 0
130 0
292 0
291 0
100 0
420 268 0
200 0
346 340 0
240 284 0
497 243 0
348 0
210 315 0
23 0
470 0
48 0
352 18 0
193 0
268 0
381 231 0
29 181 0
407 471 0
217 0
328 147 0
320 19 0
10 0
198 0
61 478 0
482 0
247 0
214 0
223 0
296 0
108 0
242 0
496 351 0
240 178 0
220 22 0
88 0
111 0
391 0
203 0
43 0
312 0
105 279 0
25 0
456 0
227 0
299 372 0
56 0
201 0
56 0
20 269 0
212 0
50 62 0
355 0
360 0
70 0
473 0
32 0
474 191 0
56 0
81 0
333 0
351 0
99 0
44 0
32 0
2 0
271 0
308 0
368 197 0
208 161 0
85 0
410 127 0
128 487 0
426 0
4 0
136 91 0
452 0
241 298 0
422 0
154 275 0
205 0
165 127 0
195 0
243 0
482 0
98 0
490 0
86 0
10 0
382 0
424 0
180 0
378 0
11 0
250 211 0
73 335 0
13 0
3 199 0
41 0
215 0
352 0
187 0
196 333 0
47 0
299 0
245 0
471 0
262 0
402 0
162 410 0
133 0
29 0
112 176 0
448 0
33 0
154 315 0
269 0
217 0
112 283 0
464 0
488 0
306 0
59 0
51 0
317 0
65 0
240 0
305 0
485 0
143 0
123 0
25 0
114 71 0
194 0
108 0
48 350 0
153 342 0
115 0
242 263 0
287 327 0
90 0
13 0
384 0
234 0
270 0
153 0
142 0
7 0
172 0
449 85 0
361 0
405 463 0
417 291 0
334 0
460 478 0
449 0
197 374 0
391 0
162 327 0
274 28 0
401 285 0
277 0
401 0
229 0
152 0
142 0
337 81 0
283 477 0
320 95 0
179 0
161 233 0
264 87 0
194 0
268 207 0
465 372 0
259 367 0
139 0
11 0
120 379 0
2 171 0
11 0
256 179 0
496 250 0
91 468 0
448 0
356 0
456 0
193 0
410 0
497 4 0
376 0
310 0
409 338 0
445 0
11 403 0
282 255 0
56 0
159 0
67 0
105 0
85 0
132 197 0
418 106 0
263 0
400 0
61 0
219 334 0
156 0
223 0
460 0
250 0
480 40 0
331 0
418 0
129 0
177 0
280 321 0
157 0
146 37 0
361 0
289 0
150 86 0
29 0
438 0
29 479 0
60 437 0
181 0
111 0
377 301 0
452 0
497 397 0
433 342 0
332 0
254 0
32 374 0
272 0
122 239 0
276 0
336 0
105 443 0
10 0
2 131 0
411 0
332 398 0
397 0
465 174 0
296 129 0
399 0
146 0
273 0
217 0
410 0
19 140 0
112 458 0
332 318 0
125 0
185 111 0
16 0
474 0
417 42 0
444 428 0
95 0
184 0
52 0
287 0
8 50 0
270 0
197 0
200 406 0
389 0
447 0
437 374 0
439 0
360 86 0
352 0
224 239 0
176 53 0
90 187 0
410 0
136 311 0
33 0
160 0
227 0
276 0
370 124 0
33 387 0
149 55 0
22 30 0
198 0
201 129 0
120 330 0
377 0
217 0
112 478 0
129 0
78 0
330 77 0
384 350 0
1 0
462 0
56 0
232 0
40 86 0
468 199 0
66 206 0
148 0
468 0
282 179 0
34 213 0
401 351 0
83 0
281 0
123 0
48 315 0
93 0
377 0
89 0
83 206 0
355 0
450 0
380 0
394 367 0
364 0
481 357 0
272 0
33 0
30 0
407 0
385 439 0
245 0
245 247 0
143 0
321 0
315 246 0
293 0
393 0
169 0
93 471 0
88 208 0
47 0
124 0
238 0
322 0
468 0
440 0
121 0
500 0
316 0
466 0
475 0
224 233 0
419 0
156 0
189 439 0
433 0
315 253 0
347 0
341 0
233 455 0
19 0
492 0
18 295 0
296 478 0
455 0
400 310 0
356 0
9 395 0
417 0
62 0
15 0
367 0
49 286 0
57 0
412 0
250 0
240 93 0
447 0
402 0
436 0
251 0
82 0
395 0
41 63 0
251 0
47 0
403 0
425 0
284 365 0
290 151 0
436 0
134 0
79 0
103 0
22 0
288 0
299 355 0
207 0
234 309 0
251 0
231 319 0
329 221 0
459 0
214 0
34 0
465 324 0
131 0
4 0
398 167 0
335 0
328 0
207 0
432 0
163 0
149 0
168 122 0
472 0
393 0
376 242 0
130 413 0
89 28 0
282 291 0
325 0
44 0
359 0
484 0
474 327 0
4 285 0
50 203 0
70 0
479 0
266 0
149 335 0
489 0
448 0
11 0
34 0
451 407 0
309 159 0
78 0
350 0
93 0
266 429 0
356 0
231 0
39 0
117 0
400 329 0
345 0
363 28 0
391 0
141 0
180 0
178 0
490 0
19 0
84 0
438 0
232 0
364 0
417 0
297 66 0
473 0
147 0
381 343 0
139 0
197 0
197 0
379 0
498 462 0
468 0
403 0
322 0
200 0
190 0
206 0
92 0
85 109 0
311 0
88 0
370 0
189 0
120 0
401 82 0
468 0
306 0
422 0
417 302 0
229 0
242 77 0
257 0
70 0
424 233 0
368 319 0
5 0
240 410 0
185 275 0
330 0
440 277 0
1 218 0
276 0
466 0
436 0
60 0
138 0
53 0
272 345 0
472 440 0
492 0
190 0
434 0
344 0
466 311 0
433 332 0
450 0
64 117 0
372 0
397 0
112 458 0
53 0
193 52 0
81 0
381 205 0
15 0
452 0
421 111 0
257 0
307 166 0
213 0
22 0
497 370 0
347 333 0
132 0
472 172 0
11 428 0
107 479 0
236 0
215 0
155 0
284 0
167 0
190 399 0
107 0
426 227 0
201 495 0
354 0
201 309 0
49 279 0
226 0
296 217 0
411 500 0
353 92 0
346 0
235 0
98 146 0
432 306 0
454 487 0
216 0
452 181 0
301 0
108 38 0
118 351 0
226 117 0
465 148 0
147 0
80 308 0
496 0
298 0
363 0
311 0
248 40 0
291 0
124 0
224 0
136 0
59 132 0
132 0
229 0
457 0
486 0
6 0
251 0
141 86 0
473 123 0
331 30 0
423 0
108 0
288 338 0
274 0
419 0
343 0
272 213 0
237 0
436 0
258 306 0
340 0
86 0
258 0
397 103 0
276 0
73 178 0
379 0
232 0
320 60 0
498 247 0
93 0
241 0
235 398 0
226 13 0
487 103 0
204 0
137 307 0
135 0
344 482 0
158 0
258 0
337 195 0
342 0
244 0
84 0
138 0
192 0
46 391 0
51 0
178 171 0
104 10 0
163 0
473 0
304 0
486 0
439 0
289 0
202 0
40 0
32 0
99 151 0
226 0
206 0
472 384 0
289 332 0
86 0
328 225 0
86 0
447 0
28 462 0
400 107 0
338 0
93 0
404 0
481 203 0
98 0
243 483 0
402 0
384 0
42 0
200 0
12 0
377 423 0
482 0
298 27 0
127 0
51 0
472 401 0
36 0
281 330 0
356 0
437 0
44 469 0
191 0
146 0
108 0
20 0
278 0
332 0
441 0
47 0
185 430 0
199 0
429 0
333 0
283 0
487 0
200 0
144 0
211 0
57 389 0
32 0
404 0
395 372 0
64 79 0
121 0
161 364 0
246 0
305 66 0
291 0
401 0
257 0
341 0
353 0
149 0
407 0
147 182 0
351 0
360 0
74 276 0
73 499 0
144 0
491 0
234 0
227 0
274 102 0
39 0
53 0
376 0
284 0
460 0
465 0
13 0
343 0
361 294 0
170 0
309 0
483 0
33 239 0
472 0
247 0
333 0
491 0
236 423 0
488 0
392 0
497 420 0
20 0
481 0
480 0
273 0
187 0
298 0
297 197 0
33 0
482 0
395 0
262 0
379 0
395 0
218 150 0
133 0
291 222 0
311 0
288 0
210 0
29 0
354 7 0
80 143 0
409 125 0
390 0
210 325 0
234 0
451 0
305 0
281 83 0
209 346 0
404 15 0
160 0
378 244 0
126 0
424 0
437 471 0
41 412 0
226 0
479 0
75 165 0
378 125 0
257 428 0
80 378 0
43 0
99 180 0
152 297 0
420 0
299 131 0
45 0
98 0
125 0
81 332 0
142 0
35 331 0
145 34 0
9 0
41 270 0
96 410 0
203 157 0
247 0
488 0
500 0
185 0
200 17 0
478 0
256 0
36 407 0
344 127 0
1 10 0
440 496 0
347 0
225 363 0
24 0
449 0
108 23 0
248 25 0
46 39 0
269 0
368 500 0
152 0
67 0
72 0
364 0
85 0
403 0
350 0
490 0
400 0
430 0
217 0
18 0
34 0
257 0
257 206 0
27 439 0
473 310 0
413 0
311 0
193 394 0
69 94 0
327 0
468 0
104 393 0
142 0
34 390 0
459 215 0
185 0
468 462 0
29 0
184 25 0
156 0
244 0
461 0
293 0
4 0
489 0
96 229 0
314 0
144 145 0
12 263 0
190 79 0
403 420 0
312 0
21 0
353 92 0
73 393 0
297 0
15 0
336 0
88 44 0
93 0
5 0
292 0
34 0
93 0
103 0
477 0
25 362 0
335 0
72 77 0
136 130 0
34 263 0
32 0
497 375 0
83 0
367 0
317 0
116 0
190 0
155 0
272 63 0
302 0
281 0
164 222 0
489 455 0
356 0
305 241 0
333 0
108 0
197 278 0
459 0
421 262 0
256 0
469 0
125 103 0
75 0
426 342 0
13 0
152 0
113 23 0
178 0
390 0
221 0
197 254 0
61 0
474 0
248 268 0
240 458 0
438 0
346 0
121 0
98 492 0
301 0
65 0
241 0
149 22 0
32 0
72 0
411 0
49 0
158 0
172 0
348 0
224 282 0
350 0
441 0
258 12 0
109 0
49 7 0
69 0
247 183 0
121 284 0
86 0
489 0
304 487 0
85 0
244 0
230 0
186 0
254 0
497 253 0
480 80 0
133 0
374 0
205 0
350 0
384 0
228 367 0
125 383 0
392 0
418 469 0
262 0
492 0
393 0
329 0
456 237 0
17 0
359 0
237 0
360 445 0
288 0
446 0
46 0
288 0
127 0
11 0
308 0
498 0
449 0
354 0
365 78 0
210 431 0
370 61 0
33 0
169 0
208 0
222 494 0
83 0
25 158 0
213 0
116 0
394 0
35 0
224 325 0
312 0
23 0
87 0
454 471 0
193 275 0
282 483 0
421 0
430 0
459 0
490 0
351 0
421 0
5 0
469 0
68 0
37 0
196 0
298 107 0
206 407 0
262 0
87 0
375 0
203 0
87 0
371 0
304 0
337 0
309 0
66 0
138 0
404 0
480 0
424 0
17 279 0
129 295 0
369 0
474 2 0
337 0
64 51 0
424 0
484 0
203 311 0
56 102 0
265 0
171 325 0
282 346 0
281 165 0
82 0
66 0
421 327 0
416 115 0
397 0
40 0
196 0
154 0
378 0
480 197 0
473 0
42 205 0
403 342 0
196 0
404 0
124 0
384 0
419 0
462 0
264 0
261 0
103 0
348 0
104 165 0
114 294 0
103 0
165 0
37 0
286 0
281 0
449 110 0
127 0
215 0
232 384 0
237 0
137 0
242 0
98 0
43 0
198 0
351 0
309 46 0
337 0
125 494 0
340 0
53 0
152 468 0
392 0
61 0
464 0
493 0
151 0
180 0
131 284 0
339 59 0
195 0
152 113 0
316 0
195 0
100 0
487 0
172 198 0
264 0
341 0
420 0
146 0
65 105 0
421 286 0
232 0
43 0
273 206 0
298 0
239 439 0
304 0
422 0
406 0
382 0
152 482 0
313 0
77 0
8 391 0
294 0
475 375 0
395 268 0
309 0
3 0
465 335 0
122 0
10 127 0
96 0
337 0
396 453 0
163 0
280 487 0
291 484 0
316 0
434 0
59 0
250 75 0
237 0
227 0
430 0
373 0
131 0
140 0
372 0
51 0
107 340 0
165 0
200 132 0
450 118 0
193 0
366 0
354 35 0
18 382 0
48 0
3 0
3 0
395 0
139 0
17 210 0
90 27 0
210 0
73 274 0
258 0
442 0
380 0
246 0
301 207 0
152 0
144 0
234 0
195 0
229 0
4 0
278 335 0
131 179 0
89 162 0
50 0
300 103 0
127 0
92 0
492 230 0
274 77 0
108 0
267 0
312 244 0
190 0
106 0
98 231 0
440 324 0
65 0
320 0
4 0
215 0
26 0
28 0
492 0
137 0
335 0
274 0
478 239 0
475 0
67 0
277 407 0
212 0
232 0
113 0
7 0
241 318 0
44 0
332 12 0
328 0
285 0
96 202 0
180 0
440 361 0
240 53 0
352 249 0
54 255 0
254 0
144 95 0
181 167 0
24 140 0
317 0
388 0
273 0
120 231 0
430 0
279 0
158 0
448 0
282 0
200 0
362 92 0
1 0
219 0
476 486 0
484 0
262 0
387 0
219 271 0
279 0
31 0
500 78 0
251 0
23 0
230 0
273 0
202 0
73 0
467 0
18 151 0
79 0
226 246 0
99 0
136 0
192 0
373 0
338 0
49 283 0
381 6 0
229 0
217 0
260 0
86 0
214 0
329 29 0
173 0
123 0
413 0
305 0
268 0
371 0
32 0
360 0
416 367 0
231 0
461 0
85 0
218 179 0
289 0
466 0
221 0
82 0
19 0
173 0
186 378 0
1 260 0
455 0
306 478 0
139 0
388 190 0
192 91 0
276 0
106 0
41 0
136 0
87 151 0
422 0
207 95 0
481 100 0
203 0
369 207 0
203 0
72 0
323 0
181 255 0
500 0
152 31 0
82 470 0
200 0
345 462 0
360 361 0
100 0
215 0
115 285 0
163 0
306 269 0
489 0
32 0
360 284 0
294 103 0
339 38 0
378 0
225 0
202 0
277 159 0
445 206 0
292 111 0
1 0
481 0
232 251 0
388 0
187 381 0
187 0
70 0
366 0
434 0
446 0
51 0
463 0
328 122 0
177 0
146 0
190 174 0
274 0
349 0
159 0
195 0
107 0
24 331 0
231 0
458 0
240 0
318 0
134 0
285 0
384 0
56 0
206 0
193 441 0
395 0
12 438 0
260 0
479 0
229 0
161 0
431 0
362 0
20 0
416 0
446 0
421 38 0
263 0
185 491 0
133 0
304 0
97 42 0
57 0
369 241 0
237 21 0
318 0
449 302 0
125 214 0
424 0
484 0
61 0
135 0
252 390 0
1 0
289 445 0
113 46 0
69 0
131 420 0
298 0
449 60 0
47 0
337 188 0
344 0
426 0
318 0
63 0
367 0
145 0
270 0
247 0
334 0
25 0
370 0
153 26 0
491 0
335 0
158 0
330 292 0
59 0
457 367 0
299 355 0
192 133 0
442 117 0
384 65 0
453 0
272 449 0
78 0
147 0
346 0
434 388 0
227 0
441 0
255 0
114 372 0
106 0
422 0
42 0
120 0
209 0
344 212 0
445 438 0
357 0
110 0
157 0
233 0
341 295 0
158 0
385 0
160 0
305 0
338 0
395 0
92 0
23 0
144 495 0
456 0
140 0
480 0
400 90 0
338 0
484 0
439 0
255 0
157 375 0
441 0
194 0
228 0
104 122 0
428 0
137 0
147 483 0
71 0
180 0
499 0
386 0
365 0
102 0
16 0
484 0
136 0
9 0
467 220 0
384 74 0
391 0
298 0
1 202 0
232 166 0
371 0
179 0
39 0
444 0
303 183 0
357 0
454 0
378 31 0
150 279 0
241 9 0
174 0
9 270 0
43 0
271 0
466 231 0
16 389 0
392 0
310 167 0
168 0
120 0
172 0
346 0
26 0
311 0
480 242 0
247 0
289 0
344 93 0
237 0
483 0
47 0
253 0
8 0
324 0
232 0
418 315 0
21 0
73 0
416 0
491 0
344 0
25 0
170 0
174 0
345 230 0
472 0
328 354 0
357 0
286 0
369 0
498 0
310 30 0
402 0
237 0
411 0
123 0
62 0
408 85 0
331 0
268 214 0
430 0
260 0
59 405 0
140 286 0
35 0
55 0
186 0
343 0
59 0
264 0
57 0
391 0
453 0
261 0
316 0
168 490 0
335 0
88 233 0
419 0
215 0
121 82 0
352 0
140 0
82 0
393 0
424 197 0
42 0
128 0
11 438 0
269 319 0
308 0
181 7 0
259 0
359 0
75 0
170 125 0
276 0
419 198 0
67 165 0
71 0
499 311 0
115 59 0
263 0
352 128 0
73 0
136 4 0
148 0
157 46 0
233 93 0
58 0
8 467 0
449 0
162 0
9 0
258 0
161 380 0
442 0
266 490 0
358 0
462 0
434 0
297 0
349 0
82 0
110 0
413 0
85 0
306 0
78 0
372 0
208 0
250 0
408 63 0
272 0
493 0
251 0
227 0
282 0
383 0
58 492 0
35 0
71 0
178 0
124 0
332 0
179 0
87 447 0
473 0
440 0
310 399 0
131 220 0
264 0
426 343 0
480 0
415 0
18 0
210 302 0
144 476 0
373 0
69 0
358 0
312 0
452 0
209 253 0
348 0
457 0
72 0
297 385 0
213 405 0
232 46 0
498 0
127 0
317 151 0
38 0
201 0
433 353 0
496 0
162 36 0
4 0
186 0
278 399 0
225 0
56 250 0
207 0
221 0
448 318 0
271 0
133 0
325 0
211 0
250 0
346 0
339 0
120 489 0
10 0
3 0
475 141 0
244 0
159 0
86 407 0
229 0
55 0
500 0
209 0
125 0
78 0
156 389 0
371 0
384 0
273 0
489 0
420 0
449 0
16 0
34 0
350 0
458 266 0
491 15 0
488 353 0
355 317 0
276 79 0
86 0
461 0
192 450 0
441 0
266 141 0
33 389 0
168 0
438 0
10 0
305 0
356 0
475 0
145 281 0
140 0
175 0
491 125 0
402 0
151 0
223 0
58 10 0
2 259 0
56 184 0
247 0
201 0
320 0
242 164 0
72 427 0
225 75 0
32 64 0
411 0
239 0
209 0
76 0
86 494 0
205 0
141 0
424 422 0
117 422 0
292 0
193 0
399 0
166 0
67 0
411 0
269 0
476 0
42 108 0
114 0
195 0
292 0
397 0
472 465 0
257 0
213 399 0
196 276 0
2 0
351 159 0
181 0
276 446 0
480 0
58 0
442 470 0
498 0
358 0
473 0
82 0
160 0
433 0
392 0
201 348 0
94 0
57 0
140 406 0
269 271 0
54 0
494 0
96 0
224 263 0
261 0
5 0
413 0
361 0
308 0
26 124 0
16 146 0
66 27 0
411 0
497 0
430 447 0
307 0
107 0
314 0
277 0
8 0
166 0
127 0
176 0
189 494 0
219 0
162 0
418 0
477 0
32 0
216 279 0
370 318 0
343 0
450 100 0
34 0
76 0
414 0
290 0
80 0
450 437 0
305 262 0
94 0
500 0
194 0
35 446 0
42 0
262 0
466 0
178 0
122 0
147 0
395 0
179 0
377 167 0
291 391 0
170 0
291 263 0
456 309 0
59 0
225 77 0
492 0
329 364 0
472 166 0
78 0
240 0
286 0
83 0
101 127 0
366 70 0
287 0
230 0
382 0
263 0
1 18 0
221 0
450 0
92 0
31 0
44 0
320 0
467 0
172 0
353 0
246 135 0
173 0
88 0
280 0
425 452 0
199 0
301 406 0
117 0
329 0
159 0
55 0
419 390 0
363 0
301 311 0
83 0
113 0
389 0
132 78 0
318 0
488 350 0
147 380 0
462 0
417 0
288 143 0
213 0
223 0
114 43 0
474 0
297 0
456 427 0
97 347 0
144 0
106 427 0
388 0
57 0
436 0
169 134 0
235 0
287 0
265 0
432 214 0
216 381 0
143 0
392 0
395 0
93 0
33 0
55 0
251 188 0
453 302 0
104 0
356 0
74 0
203 0
347 483 0
221 0
302 0
220 0
436 150 0
224 495 0
123 0
344 0
406 191 0
255 0
252 438 0
219 0
196 84 0
40 258 0
274 115 0
74 0
109 0
498 439 0
74 0
490 226 0
234 0
18 499 0
486 0
490 0
30 0
60 0
256 263 0
482 0
18 0
217 0
361 100 0
309 0
320 0
189 0
165 255 0
295 0
112 0
199 0
235 0
64 173 0
499 0
289 0
28 30 0
268 0
378 0
152 0
73 428 0
457 138 0
379 0
440 0
356 0
193 0
164 7 0
470 0
108 0
468 173 0
448 0
452 247 0
204 0
411 235 0
169 0
71 0
111 0
433 0
408 0
1 181 0
222 0
154 340 0
238 0
104 306 0
320 17 0
112 100 0
276 0
481 0
89 0
204 494 0
38 0
164 351 0
86 0
78 0
375 295 0
91 0
63 0
47 0
299 0
87 0
235 0
134 0
9 0
361 353 0
380 0
14 0
401 0
323 0
107 0
385 0
145 271 0
252 0
186 0
45 0
211 0
352 0
459 0
470 31 0
25 59 0
434 102 0
215 0
154 103 0
82 0
328 0
477 0
269 157 0
69 0
386 0
39 0
270 14 0
27 68 0
353 359 0
498 0
424 153 0
205 0
376 55 0
432 435 0
345 189 0
403 0
110 0
297 71 0
343 87 0
350 0
358 0
268 236 0
309 0
24 0
170 206 0
128 348 0
407 0
177 342 0
63 495 0
445 0
156 348 0
322 307 0
289 108 0
436 348 0
161 0
202 0
305 0
96 0
82 0
130 0
436 357 0
186 0
355 0
209 0
209 0
305 0
254 0
363 0
420 0
144 0
395 0
73 325 0
211 0
64 0
232 0
278 0
9 0
223 0
491 420 0
68 0
491 0
417 0
486 0
91 0
74 0
433 0
287 447 0
134 0
255 0
65 226 0
339 0
56 129 0
363 0
498 0
320 199 0
193 0
308 310 0
390 238 0
328 0
55 471 0
390 0
349 0
191 0
196 0
119 0
138 0
409 310 0
136 0
89 316 0
181 0
152 262 0
435 388 0
418 0
15 0
494 0
7 0
74 445 0
347 0
406 0
88 0
380 0
156 0
109 0
1 157 0
120 395 0
498 23 0
192 467 0
94 0
123 325 0
303 0
258 0
42 0
337 0
379 107 0
56 0
485 0
58 0
182 0
442 263 0
169 261 0
344 151 0
372 0
353 0
141 0
240 0
450 0
259 148 0
261 0
174 0
488 9 0
7 0
38 0
116 0
115 311 0
376 0
2 0
64 358 0
42 135 0
234 349 0
29 0
36 0
337 0
162 0
2 0
463 0
307 348 0
222 0
88 448 0
123 0
44 269 0
59 0
477 0
42 0
209 308 0
13 198 0
135 0
289 364 0
129 306 0
184 497 0
264 0
472 0
23 0
344 209 0
372 455 0
353 213 0
51 0
231 0
139 0
460 0
17 0
98 0
264 289 0
148 0
67 0
146 476 0
480 334 0
200 0
264 0
267 295 0
200 212 0
257 275 0
474 67 0
43 0
202 231 0
287 0
19 0
4 0
411 0
164 0
104 406 0
409 0
397 0
356 397 0
391 0
260 0
26 0
272 127 0
315 0
453 0
323 0
299 22 0
266 0
49 0
297 0
443 0
205 0
140 183 0
439 0
376 291 0
497 164 0
20 0
274 283 0
166 127 0
208 0
307 0
393 294 0
135 0
252 0
205 0
339 0
333 0
376 0
203 302 0
175 0
214 0
56 0
418 0
50 0
145 484 0
50 5 0
248 0
472 0
27 310 0
163 0
360 0
318 0
28 0
302 0
491 0
122 0
454 0
155 0
98 0
347 12 0
199 0
330 0
71 0
337 0
320 451 0
98 323 0
392 128 0
248 0
288 0
325 0
414 0
495 0
177 467 0
171 131 0
130 0
174 0
329 0
427 0
353 0
328 439 0
130 0
357 438 0
496 0
307 427 0
160 475 0
459 0
9 69 0
73 0
310 0
9 500 0
255 0
282 335 0
464 429 0
197 0
416 301 0
255 0
284 0
386 0
313 269 0
165 0
64 421 0
225 285 0
419 101 0
297 74 0
177 338 0
458 340 0
3 0
196 0
416 0
64 453 0
192 0
100 206 0
60 0
169 487 0
474 0
488 349 0
497 0
85 0
200 0
295 0
344 191 0
281 425 0
8 121 0
451 143 0
180 453 0
288 0
455 0
410 0
272 0
349 38 0
193 119 0
290 0
122 0
40 0
16 0
1 0
148 366 0
256 0
132 0
418 266 0
337 0
376 228 0
380 0
180 0
84 0
370 420 0
462 0
424 426 0
331 0
305 0
388 140 0
42 0
476 0
28 221 0
86 311 0
461 215 0
451 13 0
70 0
456 0
433 185 0
386 0
308 0
420 199 0
301 0
345 282 0
131 0
83 0
473 0
305 0
37 0
330 0
495 367 0
489 0
297 0
430 0
263 0
73 276 0
284 0
216 0
248 147 0
410 0
314 0
251 0
259 0
401 365 0
414 0
160 236 0
475 270 0
456 318 0
431 0
119 0
283 0
104 0
209 0
237 0
160 297 0
23 0
448 452 0
298 0
54 94 0
279 0
19 0
280 476 0
105 0
165 38 0
1 0
57 0
290 0
426 0
226 0
483 0
177 0
493 0
388 422 0
17 0
259 356 0
435 0
9 148 0
139 359 0
460 0
277 173 0
218 0
48 0
450 0
10 460 0
57 0
130 0
344 0
145 461 0
389 0
353 0
34 19 0
361 0
456 124 0
481 0
395 62 0
241 70 0
96 0
421 413 0
115 0
262 0
76 0
10 0
265 0
224 393 0
34 0
393 358 0
284 0
74 0
75 0
384 0
435 0
195 0
402 420 0
432 437 0
491 397 0
281 119 0
177 231 0
473 204 0
479 0
6 0
284 0
395 0
361 0
189 55 0
184 0
386 0
494 0
378 70 0
87 0
273 0
134 0
132 343 0
24 0
265 0
20 0
234 182 0
225 0
35 0
263 295 0
88 365 0
392 364 0
241 463 0
32 0
320 0
407 0
362 0
247 0
385 375 0
221 0
62 0
141 0
18 347 0
494 0
204 0
234 0
384 477 0
211 44 0
477 0
91 0
397 0
20 0
175 0
29 0
73 0
305 0
15 0
120 0
21 0
391 0
183 0
489 0
280 0
64 381 0
40 229 0
472 122 0
233 260 0
231 0
285 0
427 324 0
303 431 0
148 0
408 0
289 0
396 159 0
216 176 0
468 5 0
368 206 0
120 0
386 0
173 0
312 0
497 131 0
200 0
430 0
474 0
269 391 0
311 0
186 0
305 462 0
354 0
136 0
365 0
1 310 0
380 0
463 0
27 391 0
371 0
216 0
43 275 0
208 0
465 277 0
54 0
129 0
131 0
104 0
9 0
321 450 0
330 453 0
93 0
332 0
402 0
18 407 0
338 0
165 175 0
350 0
75 0
142 135 0
221 0
303 0
338 0
37 335 0
105 0
296 0
432 0
154 0
337 0
367 0
307 0
318 0
443 0
105 175 0
33 0
232 99 0
473 377 0
53 0
224 296 0
69 0
74 375 0
115 0
195 301 0
110 0
428 0
85 407 0
381 0
392 0
452 284 0
319 0
309 0
486 0
112 0
369 0
339 29 0
305 0
192 23 0
19 0
416 0
7 0
307 404 0
116 0
179 0
199 0
313 0
163 0
254 87 0
376 385 0
386 99 0
94 0
77 0
162 0
176 0
284 0
452 0
236 0
173 0
472 0
273 434 0
314 0
259 0
81 300 0
309 302 0
89 393 0
252 247 0
144 0
132 44 0
182 0
48 0
222 0
283 0
425 0
46 351 0
230 0
386 182 0
421 0
177 0
412 0
209 362 0
100 0
490 0
91 92 0
364 0
61 0
157 230 0
388 0
153 428 0
360 0
260 0
181 238 0
314 117 0
261 0
386 414 0
275 0
269 206 0
389 70 0
476 0
67 206 0
318 0
97 0
315 470 0
371 0
100 375 0
480 0
199 0
221 279 0
110 0
26 0
417 99 0
465 373 0
165 0
438 0
80 0
122 0
92 183 0
478 0
283 0
195 0
60 0
78 0
3 276 0
155 0
237 0
223 0
289 0
146 132 0
495 0
474 0
383 0
22 0
11 0
120 0
475 0
310 0
402 0
221 0
158 319 0
336 0
299 415 0
420 0
296 0
214 0
464 0
125 0
34 0
322 445 0
52 276 0
84 0
83 470 0
104 0
257 0
286 0
382 0
258 238 0
3 0
296 139 0
348 0
496 0
434 62 0
40 251 0
458 467 0
202 135 0
224 0
466 0
248 0
97 0
262 0
40 0
482 0
386 0
391 0
306 0
19 439 0
254 0
228 0
142 0
16 0
351 0
438 0
139 0
481 0
348 173 0
360 0
52 357 0
289 0
409 188 0
118 0
338 0
187 0
261 0
316 0
479 0
131 0
248 0
66 439 0
51 0
92 0
475 0
16 0
387 0
126 0
249 195 0
230 0
107 311 0
115 179 0
461 0
478 0
2 423 0
178 221 0
417 0
218 0
389 0
413 0
30 0
498 0
112 379 0
449 231 0
182 0
27 20 0
6 0
347 0
17 359 0
172 0
235 204 0
498 0
14 0
108 28 0
164 0
193 469 0
368 0
220 246 0
204 0
111 0
42 70 0
24 0
162 0
385 0
315 0
303 0
491 0
101 0
386 0
112 230 0
469 182 0
496 314 0
358 0
96 0
274 259 0
117 0
264 0
80 398 0
148 12 0
21 0
344 442 0
299 0
130 0
226 0
112 0
425 0
479 0
367 0
162 0
497 196 0
160 0
448 0
427 63 0
411 5 0
225 0
42 0
500 405 0
387 0
130 301 0
227 0
23 0
241 0
20 0
264 0
117 0
481 0
66 0
345 113 0
83 0
474 371 0
259 0
499 359 0
345 410 0
82 254 0
337 76 0
363 0
235 243 0
43 303 0
295 0
28 0
454 0
107 0
38 0
312 494 0
431 0
311 0
450 0
372 0
412 0
362 27 0
198 135 0
430 0
38 494 0
160 91 0
221 0
210 76 0
443 0
415 263 0
109 0
352 0
52 86 0
467 20 0
89 67 0
136 0
397 0
178 460 0
162 0
493 0
323 276 0
378 0
360 279 0
300 0
382 0
425 0
135 0
266 315 0
159 0
431 0
458 0
440 0
484 0
78 0
396 0
160 294 0
122 0
147 0
134 0
211 0
343 0
418 0
492 0
459 0
299 0
204 0
483 223 0
224 0
45 0
258 0
155 0
435 333 0
376 0
42 0
438 0
400 263 0
226 274 0
222 71 0
284 0
482 492 0
119 0
496 492 0
25 0
192 202 0
80 67 0
16 0
168 278 0
415 0
129 0
273 0
459 0
454 0
357 0
463 0
438 0
429 0
97 261 0
359 0
333 0
84 0
485 0
305 0
40 0
133 286 0
277 0
159 0
306 0
226 366 0
453 0
264 358 0
211 37 0
295 0
291 0
174 0
40 0
34 0
122 0
65 356 0
167 0
259 0
43 0
233 0
402 468 0
41 0
379 0
131 0
71 0
368 0
186 23 0
489 0
362 203 0
243 0
4 14 0
61 0
416 327 0
458 0
100 247 0
138 0
304 0
371 0
286 0
114 0
234 0
29 0
88 0
440 0
210 295 0
309 0
66 0
64 180 0
300 0
254 0
463 55 0
457 116 0
113 0
29 0
81 86 0
94 0
323 421 0
179 0
330 335 0
386 34 0
337 243 0
36 0
492 191 0
206 0
258 0
190 0
488 0
104 32 0
167 0
411 0
267 278 0
99 183 0
451 0
263 0
192 327 0
411 44 0
484 38 0
153 418 0
146 0
350 0
26 147 0
226 445 0
427 0
357 0
176 0
203 0
82 452 0
250 477 0
184 19 0
473 147 0
35 0
327 0
29 167 0
312 351 0
341 197 0
125 0
144 0
450 0
184 0
465 0
272 27 0
247 0
209 0
369 346 0
25 0
181 0
349 0
344 197 0
95 0
30 0
325 0
237 0
181 0
106 205 0
72 0
310 311 0
225 59 0
150 0
237 0
474 86 0
97 0
400 224 0
352 475 0
100 0
472 0
297 0
199 0
26 319 0
173 0
388 0
163 6 0
215 0
488 275 0
111 39 0
409 0
129 373 0
64 408 0
273 0
251 0
182 0
418 0
208 0
8 0
460 0
449 0
259 0
354 0
203 0
13 0
241 0
331 0
19 0
141 0
460 174 0
411 0
246 0
460 223 0
13 0
389 0
167 0
460 0
24 0
14 0
261 0
398 0
480 0
178 407 0
123 367 0
492 246 0
136 0
293 0
29 0
406 0
38 0
110 0
1 0
15 0
84 0
426 378 0
300 0
23 0
205 0
214 0
248 0
431 423 0
242 69 0
381 0
31 0
49 34 0
89 134 0
322 0
372 0
357 0
337 217 0
93 0
179 0
27 0
150 470 0
156 0
418 110 0
279 0
495 0
407 0
378 0
372 0
172 0
10 0
364 0
174 0
352 0
455 0
228 453 0
146 106 0
45 0
184 0
448 0
324 0
491 0
312 129 0
264 0
194 29 0
392 0
159 0
34 0
26 0
459 0
413 406 0
266 0
155 0
118 0
435 0
440 0
228 0
161 0
162 0
96 32 0
451 342 0
476 0
213 0
182 31 0
296 147 0
156 0
392 0
81 0
160 0
141 0
77 0
79 0
420 412 0
262 0
54 0
169 238 0
76 0
19 0
461 302 0
370 260 0
203 340 0
496 82 0
346 398 0
186 367 0
321 0
447 143 0
216 0
307 181 0
452 0
330 0
4 0
51 0
63 0
265 0
478 0
146 238 0
261 0
361 383 0
196 0
21 39 0
400 231 0
127 0
96 0
240 0
423 0
52 0
387 0
442 227 0
142 391 0
454 0
329 0
415 0
213 0
71 183 0
239 0
120 217 0
384 408 0
252 0
436 0
197 0
177 63 0
127 0
156 0
399 0
477 71 0
365 181 0
401 0
84 55 0
97 0
73 202 0
404 189 0
471 0
438 0
86 415 0
303 0
328 0
232 322 0
367 0
323 492 0
412 0
345 191 0
78 0
65 0
111 0
329 0
141 0
7 0
348 0
480 77 0
374 0
252 422 0
352 0
433 27 0
232 31 0
137 0
219 0
397 0
128 317 0
458 0
1 373 0
457 174 0
413 0
464 245 0
411 0
371 0
186 0
352 0
423 0
79 0
41 231 0
433 43 0
324 373 0
434 0
386 341 0
294 0
30 0
418 0
57 151 0
97 0
458 131 0
174 295 0
157 335 0
172 0
106 429 0
410 31 0
8 33 0
211 0
417 0
151 0
484 0
129 0
347 205 0
422 0
282 0
304 0
391 0
120 0
263 0
432 215 0
296 46 0
74 0
424 299 0
149 375 0
471 0
363 69 0
2 0
156 0
498 0
54 47 0
116 0
111 0
292 0
75 367 0
422 0
93 375 0
38 0
274 0
187 0
173 0
139 0
101 0
157 0
18 0
29 0
449 0
23 0
18 0
486 0
38 0
428 316 0
452 7 0
100 92 0
337 197 0
490 0
91 363 0
276 0
449 484 0
449 0
56 232 0
500 0
460 0
185 0
148 0
105 123 0
31 0
174 0
120 110 0
48 0
424 42 0
401 0
306 190 0
217 259 0
362 341 0
135 0
244 0
355 39 0
231 0
112 0
373 0
364 0
7 0
323 0
224 385 0
197 0
333 0
439 0
170 0
275 0
320 0
333 0
128 0
396 0
437 0
85 -501 0
42 -501 0
-85 -42 501 0
-25 -502 0
12 -502 0
25 -12 502 0
365 -503 0
217 -503 0
-365 -217 503 0
224 -504 0
-3 -504 0
-224 3 504 0
76 -505 0
420 -505 0
-76 -420 505 0
-448 -506 0
414 -506 0
448 -414 506 0
283 -507 0
353 -507 0
-283 -353 507 0
64 -508 0
265 -508 0
-64 -265 508 0
498 -509 0
10 -509 0
-498 -10 509 0
-42 -510 0
45 -510 0
42 -45 510 0
336 -511 0
84 -511 0
-336 -84 511 0
231 -512 0
-15 -512 0
-231 15 512 0
269 -513 0
-404 -513 0
-269 404 513 0
133 -514 0
387 -514 0
-133 -387 514 0
-144 -515 0
412 -515 0
144 -412 515 0
247 -516 0
454 -516 0
-247 -454 516 0
202 -517 0
137 -517 0
-202 -137 517 0
-57 -518 0
177 -518 0
57 -177 518 0
368 -519 0
-158 -519 0
-368 158 519 0
-374 -520 0
226 -520 0
374 -226 520 0
-146 -521 0
140 -521 0
146 -140 521 0
-228 -522 0
41 -522 0
228 -41 522 0
69 -523 0
-150 -523 0
-69 150 523 0
205 -524 0
-485 -524 0
-205 485 524 0
170 -525 0
-287 -525 0
-170 287 525 0
318 -526 0
75 -526 0
-318 -75 526 0
304 -527 0
333 -527 0
-304 -333 527 0
-449 -528 0
314 -528 0
449 -314 528 0
388 -529 0
-143 -529 0
-388 143 529 0
-27 -530 0
357 -530 0
27 -357 530 0
-91 -531 0
370 -531 0
91 -370 531 0
406 -532 0
478 -532 0
-406 -478 532 0
-449 -533 0
383 -533 0
449 -383 533 0
428 -534 0
-78 -534 0
-428 78 534 0
379 -535 0
66 -535 0
-379 -66 535 0
85 -536 0
356 -536 0
-85 -356 536 0
437 -537 0
-308 -537 0
-437 308 537 0
-401 -538 0
308 -538 0
401 -308 538 0
149 -539 0
129 -539 0
-149 -129 539 0
110 -540 0
348 -540 0
-110 -348 540 0
388 -541 0
-293 -541 0
-388 293 541 0
-459 -542 0
378 -542 0
459 -378 542 0
-377 -543 0
441 -543 0
377 -441 543 0
391 -544 0
174 -544 0
-391 -174 544 0
-300 -545 0
251 -545 0
300 -251 545 0
-475 -546 0
170 -546 0
475 -170 546 0
263 -547 0
402 -547 0
-263 -402 547 0
-400 -548 0
318 -548 0
400 -318 548 0
-344 -549 0
436 -549 0
344 -436 549 0
256 -550 0
43 -550 0
-256 -43 550 0
71 -551 0
-270 -551 0
-71 270 551 0
74 -552 0
273 -552 0
-74 -273 552 0
-216 -553 0
253 -553 0
216 -253 553 0
150 -554 0
210 -554 0
-150 -210 554 0
-485 -555 0
305 -555 0
485 -305 555 0
426 -556 0
-463 -556 0
-426 463 556 0
63 -557 0
-494 -557 0
-63 494 557 0
-26 -558 0
220 -558 0
26 -220 558 0
-265 -559 0
179 -559 0
265 -179 559 0
-17 -560 0
347 -560 0
17 -347 560 0
366 -561 0
91 -561 0
-366 -91 561 0
156 -562 0
-133 -562 0
-156 133 562 0
8 -563 0
-202 -563 0
-8 202 563 0
-57 -564 0
245 -564 0
57 -245 564 0
207 -565 0
459 -565 0
-207 -459 565 0
-65 -566 0
150 -566 0
65 -150 566 0
-64 -567 0
500 -567 0
64 -500 567 0
110 -568 0
-421 -568 0
-110 421 568 0
405 -569 0
-383 -569 0
-405 383 569 0
124 -570 0
-20 -570 0
-124 20 570 0
124 -571 0
-365 -571 0
-124 365 571 0
-495 -572 0
57 -572 0
495 -57 572 0
126 -573 0
-293 -573 0
-126 293 573 0
-154 -574 0
482 -574 0
154 -482 574 0
350 -575 0
478 -575 0
-350 -478 575 0
441 -576 0
-319 -576 0
-441 319 576 0
308 -577 0
-4 -577 0
-308 4 577 0
125 -578 0
137 -578 0
-125 -137 578 0
171 -579 0
-311 -579 0
-171 311 579 0
500 -580 0
467 -580 0
-500 -467 580 0
-322 -581 0
418 -581 0
322 -418 581 0
184 -582 0
319 -582 0
-184 -319 582 0
359 -583 0
-100 -583 0
-359 100 583 0
-489 -584 0
475 -584 0
489 -475 584 0
-401 -585 0
394 -585 0
401 -394 585 0
-90 -586 0
250 -586 0
90 -250 586 0
235 -587 0
-351 -587 0
-235 351 587 0
116 -588 0
500 -588 0
-116 -500 588 0
432 -589 0
-62 -589 0
-432 62 589 0
456 -590 0
-225 -590 0
-456 225 590 0
-92 -591 0
387 -591 0
92 -387 591 0
-104 -592 0
302 -592 0
104 -302 592 0
120 -593 0
-267 -593 0
-120 267 593 0
500 -594 0
-279 -594 0
-500 279 594 0
-288 -595 0
260 -595 0
288 -260 595 0
-97 -596 0
244 -596 0
97 -244 596 0
-389 -597 0
322 -597 0
389 -322 597 0
430 -598 0
-149 -598 0
-430 149 598 0
55 -599 0
-103 -599 0
-55 103 599 0
414 -600 0
186 -600 0
-414 -186 600 0
296 -601 0
-385 -601 0
-296 385 601 0
-497 -602 0
407 -602 0
497 -407 602 0
136 -603 0
-452 -603 0
-136 452 603 0
423 -604 0
201 -604 0
-423 -201 604 0
145 -605 0
81 -605 0
-145 -81 605 0
-160 -606 0
52 -606 0
160 -52 606 0
358 -607 0
19 -607 0
-358 -19 607 0
156 -608 0
-389 -608 0
-156 389 608 0
173 -609 0
394 -609 0
-173 -394 609 0
157 -610 0
260 -610 0
-157 -260 610 0
278 -611 0
-429 -611 0
-278 429 611 0
470 -612 0
-300 -612 0
-470 300 612 0
-233 -613 0
413 -613 0
233 -413 613 0
391 -614 0
-257 -614 0
-391 257 614 0
190 -615 0
-299 -615 0
-190 299 615 0
95 -616 0
331 -616 0
-95 -331 616 0
-217 -617 0
273 -617 0
217 -273 617 0
40 -618 0
235 -618 0
-40 -235 618 0
293 -619 0
186 -619 0
-293 -186 619 0
199 -620 0
-297 -620 0
-199 297 620 0
358 -621 0
-421 -621 0
-358 421 621 0
-395 -622 0
203 -622 0
395 -203 622 0
-114 -623 0
345 -623 0
114 -345 623 0
142 -624 0
491 -624 0
-142 -491 624 0
160 -625 0
-90 -625 0
-160 90 625 0
-83 -626 0
476 -626 0
83 -476 626 0
122 -627 0
234 -627 0
-122 -234 627 0
-145 -628 0
361 -628 0
145 -361 628 0
-227 -629 0
180 -629 0
227 -180 629 0
198 -630 0
-43 -630 0
-198 43 630 0
394 -631 0
-278 -631 0
-394 278 631 0
-372 -632 0
113 -632 0
372 -113 632 0
-57 -633 0
43 -633 0
57 -43 633 0
253 -634 0
89 -634 0
-253 -89 634 0
121 -635 0
481 -635 0
-121 -481 635 0
-160 -636 0
114 -636 0
160 -114 636 0
207 -637 0
58 -637 0
-207 -58 637 0
204 -638 0
-63 -638 0
-204 63 638 0
27 -639 0
-141 -639 0
-27 141 639 0
381 -640 0
84 -640 0
-381 -84 640 0
-360 -641 0
500 -641 0
360 -500 641 0
261 -642 0
-286 -642 0
-261 286 642 0
-221 -643 0
243 -643 0
221 -243 643 0
92 -644 0
347 -644 0
-92 -347 644 0
-171 -645 0
211 -645 0
171 -211 645 0
263 -646 0
349 -646 0
-263 -349 646 0
48 -647 0
364 -647 0
-48 -364 647 0
-120 -648 0
410 -648 0
120 -410 648 0
489 -649 0
97 -649 0
-489 -97 649 0
-449 -650 0
78 -650 0
449 -78 650 0
102 -651 0
-396 -651 0
-102 396 651 0
-257 -652 0
325 -652 0
257 -325 652 0
168 -653 0
-375 -653 0
-168 375 653 0
200 -654 0
-340 -654 0
-200 340 654 0
235 -655 0
-303 -655 0
-235 303 655 0
-370 -656 0
75 -656 0
370 -75 656 0
247 -657 0
393 -657 0
-247 -393 657 0
35 -658 0
-342 -658 0
-35 342 658 0
46 -659 0
99 -659 0
-46 -99 659 0
110 -660 0
283 -660 0
-110 -283 660 0
412 -661 0
-446 -661 0
-412 446 661 0
55 -662 0
83 -662 0
-55 -83 662 0
99 -663 0
-222 -663 0
-99 222 663 0
-208 -664 0
319 -664 0
208 -319 664 0
354 -665 0
-239 -665 0
-354 239 665 0
-443 -666 0
465 -666 0
443 -465 666 0
143 -667 0
441 -667 0
-143 -441 667 0
24 -668 0
-350 -668 0
-24 350 668 0
-180 -669 0
379 -669 0
180 -379 669 0
-332 -670 0
129 -670 0
332 -129 670 0
-442 -671 0
498 -671 0
442 -498 671 0
-90 -672 0
76 -672 0
90 -76 672 0
18 -673 0
17 -673 0
-18 -17 673 0
182 -674 0
-493 -674 0
-182 493 674 0
-132 -675 0
457 -675 0
132 -457 675 0
-336 -676 0
339 -676 0
336 -339 676 0
407 -677 0
457 -677 0
-407 -457 677 0
366 -678 0
178 -678 0
-366 -178 678 0
488 -679 0
-417 -679 0
-488 417 679 0
334 -680 0
418 -680 0
-334 -418 680 0
444 -681 0
58 -681 0
-444 -58 681 0
136 -682 0
-16 -682 0
-136 16 682 0
-136 -683 0
304 -683 0
136 -304 683 0
413 -684 0
-293 -684 0
-413 293 684 0
62 -685 0
86 -685 0
-62 -86 685 0
-237 -686 0
257 -686 0
237 -257 686 0
-375 -687 0
313 -687 0
375 -313 687 0
-73 -688 0
109 -688 0
73 -109 688 0
117 -689 0
-140 -689 0
-117 140 689 0
240 -690 0
60 -690 0
-240 -60 690 0
183 -691 0
-57 -691 0
-183 57 691 0
406 -692 0
-315 -692 0
-406 315 692 0
300 -693 0
-253 -693 0
-300 253 693 0
283 -694 0
-445 -694 0
-283 445 694 0
118 -695 0
-246 -695 0
-118 246 695 0
47 -696 0
-75 -696 0
-47 75 696 0
-496 -697 0
73 -697 0
496 -73 697 0
448 -698 0
-27 -698 0
-448 27 698 0
-176 -699 0
207 -699 0
176 -207 699 0
372 -700 0
49 -700 0
-372 -49 700 0
293 -701 0
220 -701 0
-293 -220 701 0
-19 -702 0
197 -702 0
19 -197 702 0
-483 -703 0
266 -703 0
483 -266 703 0
404 -704 0
10 -704 0
-404 -10 704 0
-34 -705 0
372 -705 0
34 -372 705 0
170 -706 0
-143 -706 0
-170 143 706 0
168 -707 0
25 -707 0
-168 -25 707 0
-249 -708 0
444 -708 0
249 -444 708 0
-112 -709 0
54 -709 0
112 -54 709 0
463 -710 0
422 -710 0
-463 -422 710 0
-417 -711 0
337 -711 0
417 -337 711 0
309 -712 0
98 -712 0
-309 -98 712 0
-464 -713 0
38 -713 0
464 -38 713 0
152 -714 0
481 -714 0
-152 -481 714 0
216 -715 0
413 -715 0
-216 -413 715 0
151 -716 0
-260 -716 0
-151 260 716 0
479 -717 0
438 -717 0
-479 -438 717 0
347 -718 0
-14 -718 0
-347 14 718 0
-187 -719 0
402 -719 0
187 -402 719 0
-160 -720 0
429 -720 0
160 -429 720 0
189 -721 0
313 -721 0
-189 -313 721 0
311 -722 0
-61 -722 0
-311 61 722 0
15 -723 0
-380 -723 0
-15 380 723 0
191 -724 0
-355 -724 0
-191 355 724 0
49 -725 0
241 -725 0
-49 -241 725 0
24 -726 0
-17 -726 0
-24 17 726 0
-60 -727 0
474 -727 0
60 -474 727 0
308 -728 0
498 -728 0
-308 -498 728 0
-96 -729 0
351 -729 0
96 -351 729 0
479 -730 0
-454 -730 0
-479 454 730 0
-454 -731 0
393 -731 0
454 -393 731 0
112 -732 0
-94 -732 0
-112 94 732 0
96 -733 0
-22 -733 0
-96 22 733 0
-73 -734 0
311 -734 0
73 -311 734 0
203 -735 0
473 -735 0
-203 -473 735 0
31 -736 0
-231 -736 0
-31 231 736 0
-164 -737 0
346 -737 0
164 -346 737 0
-233 -738 0
372 -738 0
233 -372 738 0
245 -739 0
-484 -739 0
-245 484 739 0
-331 -740 0
163 -740 0
331 -163 740 0
30 -741 0
-444 -741 0
-30 444 741 0
-496 -742 0
335 -742 0
496 -335 742 0
109 -743 0
-157 -743 0
-109 157 743 0
-193 -744 0
60 -744 0
193 -60 744 0
240 -745 0
70 -745 0
-240 -70 745 0
-23 -746 0
49 -746 0
23 -49 746 0
249 -747 0
193 -747 0
-249 -193 747 0
24 -748 0
430 -748 0
-24 -430 748 0
-66 -749 0
419 -749 0
66 -419 749 0
-8 -750 0
428 -750 0
8 -428 750 0
347 -751 0
-111 -751 0
-347 111 751 0
269 -752 0
257 -752 0
-269 -257 752 0
383 -753 0
-106 -753 0
-383 106 753 0
-468 -754 0
396 -754 0
468 -396 754 0
-208 -755 0
122 -755 0
208 -122 755 0
469 -756 0
-117 -756 0
-469 117 756 0
7 -757 0
52 -757 0
-7 -52 757 0
384 -758 0
-380 -758 0
-384 380 758 0
237 -759 0
169 -759 0
-237 -169 759 0
-460 -760 0
59 -760 0
460 -59 760 0
236 -761 0
154 -761 0
-236 -154 761 0
-168 -762 0
314 -762 0
168 -314 762 0
46 -763 0
-261 -763 0
-46 261 763 0
-407 -764 0
356 -765 0
370 -765 0
-356 -370 765 0
-66 -766 0
156 -766 0
66 -156 766 0
-206 -767 0
153 -767 0
206 -153 767 0
-290 -768 0
43 -768 0
290 -43 768 0
493 -769 0
-76 -769 0
-493 76 769 0
203 -770 0
457 -770 0
-203 -457 770 0
84 -771 0
-164 -771 0
-84 164 771 0
31 -772 0
-413 -772 0
-31 413 772 0
-160 -773 0
266 -773 0
160 -266 773 0
156 -774 0
-68 -774 0
-156 68 774 0
-297 -775 0
348 -775 0
297 -348 775 0
31 -776 0
53 -776 0
-31 -53 776 0
-416 -777 0
124 -777 0
416 -124 777 0
-329 -778 0
356 -778 0
329 -356 778 0
-320 -779 0
92 -779 0
320 -92 779 0
142 -780 0
500 -780 0
-142 -500 780 0
135 -781 0
351 -781 0
-135 -351 781 0
119 -782 0
294 -782 0
-119 -294 782 0
402 -783 0
-391 -783 0
-402 391 783 0
-3 -784 0
309 -784 0
3 -309 784 0
389 -785 0
258 -785 0
-389 -258 785 0
327 -786 0
131 -786 0
-327 -131 786 0
188 -787 0
-53 -787 0
-188 53 787 0
-353 -788 0
54 -788 0
353 -54 788 0
-56 -789 0
455 -789 0
56 -455 789 0
-427 -790 0
441 -790 0
427 -441 790 0
317 -791 0
227 -791 0
-317 -227 791 0
-400 -792 0
53 -792 0
400 -53 792 0
215 -793 0
149 -793 0
-215 -149 793 0
285 -794 0
113 -794 0
-285 -113 794 0
-129 -795 0
132 -795 0
129 -132 795 0
-98 -796 0
153 -796 0
98 -153 796 0
375 -797 0
-213 -797 0
-375 213 797 0
317 -798 0
233 -798 0
-317 -233 798 0
-451 -799 0
493 -800 0
-341 -800 0
-493 341 800 0
439 -801 0
174 -801 0
-439 -174 801 0
-404 -802 0
468 -802 0
404 -468 802 0
-100 -803 0
202 -803 0
100 -202 803 0
495 -804 0
-306 -804 0
-495 306 804 0
165 -805 0
-317 -805 0
-165 317 805 0
-156 -806 0
9 -806 0
156 -9 806 0
-276 -807 0
2 -807 0
276 -2 807 0
143 -808 0
-146 -808 0
-143 146 808 0
414 -809 0
388 -809 0
-414 -388 809 0
408 -810 0
441 -810 0
-408 -441 810 0
255 -811 0
-138 -811 0
-255 138 811 0
102 -812 0
-116 -812 0
-102 116 812 0
-153 -813 0
393 -813 0
153 -393 813 0
189 -814 0
25 -814 0
-189 -25 814 0
325 -815 0
-190 -815 0
-325 190 815 0
-96 -816 0
383 -816 0
96 -383 816 0
291 -817 0
441 -817 0
-291 -441 817 0
101 -818 0
9 -818 0
-101 -9 818 0
21 -819 0
-364 -819 0
-21 364 819 0
189 -820 0
155 -820 0
-189 -155 820 0
429 -821 0
-341 -821 0
-429 341 821 0
422 -822 0
-79 -822 0
-422 79 822 0
150 -823 0
220 -823 0
-150 -220 823 0
-72 -824 0
455 -824 0
72 -455 824 0
72 -825 0
349 -825 0
-72 -349 825 0
119 -826 0
486 -826 0
-119 -486 826 0
160 -827 0
-239 -827 0
-160 239 827 0
142 -828 0
412 -828 0
-142 -412 828 0
499 -829 0
466 -829 0
-499 -466 829 0
492 -830 0
417 -830 0
-492 -417 830 0
55 -831 0
333 -831 0
-55 -333 831 0
360 -832 0
-370 -832 0
-360 370 832 0
-442 -833 0
449 -833 0
442 -449 833 0
484 -834 0
-149 -834 0
-484 149 834 0
261 -835 0
187 -835 0
-261 -187 835 0
120 -836 0
356 -836 0
-120 -356 836 0
392 -837 0
415 -837 0
-392 -415 837 0
402 -838 0
281 -838 0
-402 -281 838 0
-280 -839 0
44 -839 0
280 -44 839 0
96 -840 0
-391 -840 0
-96 391 840 0
-396 -841 0
146 -841 0
396 -146 841 0
269 -842 0
-126 -842 0
-269 126 842 0
-330 -843 0
388 -843 0
330 -388 843 0
96 -844 0
-409 -844 0
-96 409 844 0
478 -845 0
20 -845 0
-478 -20 845 0
-211 -846 0
330 -846 0
211 -330 846 0
-300 -847 0
330 -847 0
300 -330 847 0
-362 -848 0
298 -848 0
362 -298 848 0
391 -849 0
-189 -849 0
-391 189 849 0
-25 -850 0
383 -850 0
25 -383 850 0
456 -851 0
-411 -851 0
-456 411 851 0
269 -852 0
404 -852 0
-269 -404 852 0
16 -853 0
-446 -853 0
-16 446 853 0
293 -854 0
-228 -854 0
-293 228 854 0
-48 -855 0
496 -855 0
48 -496 855 0
369 -856 0
-79 -856 0
-369 79 856 0
-241 -857 0
438 -857 0
241 -438 857 0
-186 -858 0
185 -858 0
186 -185 858 0
247 -859 0
-133 -859 0
-247 133 859 0
-34 -860 0
27 -860 0
34 -27 860 0
336 -861 0
-123 -861 0
-336 123 861 0
-170 -862 0
108 -862 0
170 -108 862 0
-265 -863 0
461 -863 0
265 -461 863 0
384 -864 0
-431 -864 0
-384 431 864 0
304 -865 0
325 -865 0
-304 -325 865 0
204 -866 0
9 -866 0
-204 -9 866 0
231 -867 0
-58 -867 0
-231 58 867 0
-490 -868 0
244 -868 0
490 -244 868 0
88 -869 0
300 -869 0
-88 -300 869 0
-496 -870 0
330 -870 0
496 -330 870 0
104 -871 0
73 -871 0
-104 -73 871 0
95 -872 0
-340 -872 0
-95 340 872 0
446 -873 0
-85 -873 0
-446 85 873 0
-346 -874 0
202 -874 0
346 -202 874 0
-452 -875 0
378 -875 0
452 -378 875 0
198 -876 0
-114 -876 0
-198 114 876 0
166 -877 0
130 -877 0
-166 -130 877 0
470 -878 0
-414 -878 0
-470 414 878 0
252 -879 0
-276 -879 0
-252 276 879 0
39 -880 0
455 -880 0
-39 -455 880 0
95 -881 0
345 -881 0
-95 -345 881 0
292 -882 0
-388 -882 0
-292 388 882 0
135 -883 0
-5 -883 0
-135 5 883 0
-233 -884 0
494 -884 0
233 -494 884 0
168 -885 0
-179 -885 0
-168 179 885 0
6 -886 0
-61 -886 0
-6 61 886 0
412 -887 0
-253 -887 0
-412 253 887 0
359 -888 0
396 -888 0
-359 -396 888 0
295 -889 0
422 -889 0
-295 -422 889 0
307 -890 0
169 -890 0
-307 -169 890 0
479 -891 0
428 -891 0
-479 -428 891 0
48 -892 0
147 -892 0
-48 -147 892 0
461 -893 0
378 -893 0
-461 -378 893 0
178 -894 0
2 -894 0
-178 -2 894 0
-336 -895 0
24 -895 0
336 -24 895 0
175 -896 0
149 -896 0
-175 -149 896 0
398 -897 0
-156 -897 0
-398 156 897 0
-258 -898 0
404 -898 0
258 -404 898 0
-92 -899 0
164 -899 0
92 -164 899 0
230 -900 0
398 -900 0
-230 -398 900 0
245 -901 0
18 -901 0
-245 -18 901 0
-500 -902 0
499 -902 0
500 -499 902 0
60 -903 0
-52 -903 0
-60 52 903 0
320 -904 0
-10 -904 0
-320 10 904 0
216 -905 0
-403 -905 0
-216 403 905 0
-473 -906 0
265 -906 0
473 -265 906 0
453 -907 0
138 -907 0
-453 -138 907 0
213 -908 0
-164 -908 0
-213 164 908 0
-267 -909 0
365 -909 0
267 -365 909 0
-306 -910 0
473 -910 0
306 -473 910 0
391 -911 0
-274 -911 0
-391 274 911 0
141 -912 0
314 -912 0
-141 -314 912 0
287 -913 0
189 -913 0
-287 -189 913 0
-170 -914 0
92 -914 0
170 -92 914 0
392 -915 0
203 -915 0
-392 -203 915 0
268 -916 0
-61 -916 0
-268 61 916 0
-212 -917 0
180 -917 0
212 -180 917 0
104 -918 0
-215 -918 0
-104 215 918 0
-497 -919 0
470 -919 0
497 -470 919 0
-15 -920 0
305 -920 0
15 -305 920 0
-484 -921 0
130 -921 0
484 -130 921 0
431 -922 0
-106 -922 0
-431 106 922 0
-252 -923 0
290 -923 0
252 -290 923 0
213 -924 0
-486 -924 0
-213 486 924 0
-8 -925 0
143 -925 0
8 -143 925 0
161 -926 0
-311 -926 0
-161 311 926 0
-498 -927 0
203 -927 0
498 -203 927 0
127 -928 0
270 -928 0
-127 -270 928 0
-48 -929 0
287 -929 0
48 -287 929 0
333 -930 0
-28 -930 0
-333 28 930 0
366 -931 0
-125 -931 0
-366 125 931 0
221 -932 0
-293 -932 0
-221 293 932 0
-418 -933 0
28 -933 0
418 -28 933 0
237 -934 0
-215 -934 0
-237 215 934 0
-226 -935 0
370 -935 0
226 -370 935 0
150 -936 0
-462 -936 0
-150 462 936 0
471 -937 0
445 -937 0
-471 -445 937 0
315 -938 0
-446 -938 0
-315 446 938 0
496 -939 0
166 -939 0
-496 -166 939 0
392 -940 0
-251 -940 0
-392 251 940 0
-324 -941 0
226 -941 0
324 -226 941 0
112 -942 0
-127 -942 0
-112 127 942 0
168 -943 0
-236 -943 0
-168 236 943 0
411 -944 0
-359 -944 0
-411 359 944 0
309 -945 0
18 -945 0
-309 -18 945 0
-264 -946 0
268 -946 0
264 -268 946 0
-105 -947 0
139 -947 0
105 -139 947 0
-272 -948 0
488 -948 0
272 -488 948 0
347 -949 0
-478 -949 0
-347 478 949 0
143 -950 0
41 -950 0
-143 -41 950 0
12 -951 0
345 -951 0
-12 -345 951 0
127 -952 0
334 -952 0
-127 -334 952 0
343 -953 0
1 -953 0
-343 -1 953 0
-193 -954 0
318 -954 0
193 -318 954 0
-128 -955 0
331 -955 0
128 -331 955 0
436 -956 0
460 -956 0
-436 -460 956 0
-434 -957 0
130 -957 0
434 -130 957 0
223 -958 0
363 -958 0
-223 -363 958 0
-81 -959 0
20 -959 0
81 -20 959 0
311 -960 0
-461 -960 0
-311 461 960 0
86 -961 0
-150 -961 0
-86 150 961 0
83 -962 0
-159 -962 0
-83 159 962 0
288 -963 0
251 -963 0
-288 -251 963 0
367 -964 0
-140 -964 0
-367 140 964 0
219 -965 0
186 -965 0
-219 -186 965 0
183 -966 0
-187 -966 0
-183 187 966 0
284 -967 0
-21 -967 0
-284 21 967 0
228 -968 0
-79 -968 0
-228 79 968 0
-408 -969 0
49 -969 0
408 -49 969 0
66 -970 0
-415 -970 0
-66 415 970 0
414 -971 0
-479 -971 0
-414 479 971 0
-97 -972 0
151 -972 0
97 -151 972 0
351 -973 0
317 -973 0
-351 -317 973 0
487 -974 0
323 -974 0
-487 -323 974 0
334 -975 0
-398 -975 0
-334 398 975 0
-266 -976 0
457 -976 0
266 -457 976 0
304 -977 0
321 -977 0
-304 -321 977 0
334 -978 0
221 -978 0
-334 -221 978 0
-432 -979 0
180 -979 0
432 -180 979 0
-96 -980 0
7 -980 0
96 -7 980 0
288 -981 0
-174 -981 0
-288 174 981 0
389 -982 0
187 -982 0
-389 -187 982 0
39 -983 0
242 -983 0
-39 -242 983 0
-176 -984 0
436 -984 0
176 -436 984 0
-42 -985 0
1 -985 0
42 -1 985 0
408 -986 0
236 -986 0
-408 -236 986 0
206 -987 0
426 -987 0
-206 -426 987 0
-8 -988 0
398 -988 0
8 -398 988 0
-435 -989 0
93 -989 0
435 -93 989 0
-365 -990 0
354 -990 0
365 -354 990 0
262 -991 0
201 -991 0
-262 -201 991 0
44 -992 0
-351 -992 0
-44 351 992 0
-344 -993 0
274 -993 0
344 -274 993 0
184 -994 0
-115 -994 0
-184 115 994 0
-424 -995 0
99 -996 0
-495 -996 0
-99 495 996 0
243 -997 0
-297 -998 0
243 -998 0
297 -243 998 0
75 -999 0
178 -999 0
-75 -178 999 0
325 -1000 0
338 -1000 0
-325 -338 1000 0
70 -1001 0
-295 -1001 0
-70 295 1001 0
-424 -1002 0
75 -1002 0
424 -75 1002 0
200 -1003 0
286 -1003 0
-200 -286 1003 0
359 -1004 0
-388 -1004 0
-359 388 1004 0
415 -1005 0
252 -1005 0
-415 -252 1005 0
254 -1006 0
-139 -1006 0
-254 139 1006 0
199 -1007 0
146 -1007 0
-199 -146 1007 0
-330 -1008 0
2 -1008 0
330 -2 1008 0
291 -1009 0
218 -1009 0
-291 -218 1009 0
195 -1010 0
-110 -1010 0
-195 110 1010 0
450 -1011 0
-207 -1011 0
-450 207 1011 0
62 -1012 0
-290 -1012 0
-62 290 1012 0
320 -1013 0
-118 -1013 0
-320 118 1013 0
-283 -1014 0
41 -1014 0
283 -41 1014 0
-96 -1015 0
297 -1015 0
96 -297 1015 0
-228 -1016 0
26 -1016 0
228 -26 1016 0
-108 -1017 0
75 -1017 0
108 -75 1017 0
24 -1018 0
-399 -1018 0
-24 399 1018 0
-384 -1019 0
159 -1019 0
384 -159 1019 0
191 -1020 0
255 -1020 0
-191 -255 1020 0
-448 -1021 0
12 -1021 0
448 -12 1021 0
63 -1022 0
-229 -1022 0
-63 229 1022 0
203 -1023 0
411 -1023 0
-203 -411 1023 0
110 -1024 0
-476 -1024 0
-110 476 1024 0
238 -1025 0
-379 -1025 0
-238 379 1025 0
-283 -1026 0
177 -1026 0
283 -177 1026 0
267 -1027 0
137 -1027 0
-267 -137 1027 0
376 -1028 0
463 -1028 0
-376 -463 1028 0
300 -1029 0
145 -1029 0
-300 -145 1029 0
-60 -1030 0
379 -1030 0
60 -379 1030 0
207 -1031 0
202 -1031 0
-207 -202 1031 0
448 -1032 0
185 -1032 0
-448 -185 1032 0
236 -1033 0
-197 -1033 0
-236 197 1033 0
472 -1034 0
370 -1034 0
-472 -370 1034 0
470 -1035 0
299 -1035 0
-470 -299 1035 0
410 -1036 0
-318 -1036 0
-410 318 1036 0
-91 -1037 0
121 -1037 0
91 -121 1037 0
471 -1038 0
108 -1038 0
-471 -108 1038 0
-105 -1039 0
113 -1039 0
105 -113 1039 0
-379 -1040 0
197 -1040 0
379 -197 1040 0
-204 -1041 0
314 -1041 0
204 -314 1041 0
222 -1042 0
364 -1042 0
-222 -364 1042 0
277 -1043 0
-423 -1043 0
-277 423 1043 0
56 -1044 0
-61 -1044 0
-56 61 1044 0
478 -1045 0
-479 -1045 0
-478 479 1045 0
-141 -1046 0
289 -1046 0
141 -289 1046 0
203 -1047 0
-239 -1047 0
-203 239 1047 0
239 -1048 0
-149 -1048 0
-239 149 1048 0
-453 -1049 0
411 -1049 0
453 -411 1049 0
490 -1050 0
265 -1050 0
-490 -265 1050 0
280 -1051 0
314 -1051 0
-280 -314 1051 0
415 -1052 0
-444 -1052 0
-415 444 1052 0
171 -1053 0
443 -1053 0
-171 -443 1053 0
-165 -1054 0
353 -1054 0
165 -353 1054 0
14 -1055 0
345 -1055 0
-14 -345 1055 0
229 -1056 0
499 -1056 0
-229 -499 1056 0
-190 -1057 0
1 -1057 0
190 -1 1057 0
486 -1058 0
189 -1058 0
-486 -189 1058 0
398 -1059 0
259 -1059 0
-398 -259 1059 0
-474 -1060 0
289 -1060 0
474 -289 1060 0
333 -1061 0
-294 -1061 0
-333 294 1061 0
198 -1062 0
445 -1062 0
-198 -445 1062 0
443 -1063 0
275 -1063 0
-443 -275 1063 0
-186 -1064 0
137 -1064 0
186 -137 1064 0
-398 -1065 0
474 -1065 0
398 -474 1065 0
-363 -1066 0
157 -1066 0
363 -157 1066 0
-162 -1067 0
298 -1067 0
162 -298 1067 0
343 -1068 0
-77 -1068 0
-343 77 1068 0
-465 -1069 0
50 -1069 0
465 -50 1069 0
116 -1070 0
441 -1070 0
-116 -441 1070 0
-400 -1071 0
498 -1071 0
400 -498 1071 0
-315 -1072 0
129 -1072 0
315 -129 1072 0
-493 -1073 0
339 -1073 0
493 -339 1073 0
237 -1074 0
258 -1074 0
-237 -258 1074 0
176 -1075 0
-342 -1075 0
-176 342 1075 0
-152 -1076 0
329 -1076 0
152 -329 1076 0
56 -1077 0
137 -1077 0
-56 -137 1077 0
388 -1078 0
-164 -1078 0
-388 164 1078 0
350 -1079 0
260 -1079 0
-350 -260 1079 0
-120 -1080 0
443 -1080 0
120 -443 1080 0
-314 -1081 0
18 -1081 0
314 -18 1081 0
-452 -1082 0
395 -1082 0
452 -395 1082 0
175 -1083 0
87 -1083 0
-175 -87 1083 0
-153 -1084 0
485 -1084 0
153 -485 1084 0
-397 -1085 0
106 -1085 0
397 -106 1085 0
52 -1086 0
100 -1086 0
-52 -100 1086 0
127 -1087 0
58 -1087 0
-127 -58 1087 0
392 -1088 0
57 -1088 0
-392 -57 1088 0
464 -1089 0
-360 -1089 0
-464 360 1089 0
-260 -1090 0
394 -1090 0
260 -394 1090 0
77 -1091 0
-151 -1091 0
-77 151 1091 0
229 -1092 0
-151 -1092 0
-229 151 1092 0
-384 -1093 0
350 -1093 0
384 -350 1093 0
431 -1094 0
473 -1094 0
-431 -473 1094 0
175 -1095 0
-12 -1095 0
-175 12 1095 0
312 -1096 0
-44 -1096 0
-312 44 1096 0
117 -1097 0
-271 -1097 0
-117 271 1097 0
253 -1098 0
-195 -1098 0
-253 195 1098 0
435 -1099 0
-102 -1099 0
-435 102 1099 0
342 -1100 0
-285 -1100 0
-342 285 1100 0
357 -1101 0
188 -1101 0
-357 -188 1101 0
200 -1102 0
411 -1102 0
-200 -411 1102 0
318 -1103 0
-495 -1103 0
-318 495 1103 0
373 -1104 0
-413 -1104 0
-373 413 1104 0
471 -1105 0
193 -1105 0
-471 -193 1105 0
-258 -1106 0
221 -1106 0
258 -221 1106 0
-489 -1107 0
164 -1107 0
489 -164 1107 0
-365 -1108 0
386 -1108 0
365 -386 1108 0
-194 -1109 0
434 -1109 0
194 -434 1109 0
452 -1110 0
-311 -1110 0
-452 311 1110 0
458 -1111 0
145 -1111 0
-458 -145 1111 0
448 -1112 0
347 -1112 0
-448 -347 1112 0
-66 -1113 0
37 -1113 0
66 -37 1113 0
212 -1114 0
-214 -1114 0
-212 214 1114 0
-163 -1115 0
220 -1115 0
163 -220 1115 0
39 -1116 0
-140 -1116 0
-39 140 1116 0
-58 -1117 0
244 -1117 0
58 -244 1117 0
133 -1118 0
-229 -1118 0
-133 229 1118 0
261 -1119 0
413 -1119 0
-261 -413 1119 0
198 -1120 0
301 -1120 0
-198 -301 1120 0
-57 -1121 0
365 -1121 0
57 -365 1121 0
466 -1122 0
202 -1122 0
-466 -202 1122 0
-408 -1123 0
329 -1123 0
408 -329 1123 0
445 -1124 0
372 -1124 0
-445 -372 1124 0
-228 -1125 0
409 -1125 0
228 -409 1125 0
144 -1126 0
-325 -1126 0
-144 325 1126 0
300 -1127 0
-167 -1127 0
-300 167 1127 0
32 -1128 0
-126 -1128 0
-32 126 1128 0
4 -1129 0
458 -1129 0
-4 -458 1129 0
-107 -1130 0
202 -1130 0
107 -202 1130 0
306 -1131 0
-231 -1131 0
-306 231 1131 0
348 -1132 0
-439 -1132 0
-348 439 1132 0
240 -1133 0
257 -1133 0
-240 -257 1133 0
311 -1134 0
289 -1134 0
-311 -289 1134 0
264 -1135 0
197 -1135 0
-264 -197 1135 0
197 -1136 0
-335 -1136 0
-197 335 1136 0
-177 -1137 0
202 -1137 0
177 -202 1137 0
155 -1138 0
217 -1138 0
-155 -217 1138 0
135 -1139 0
-217 -1139 0
-135 217 1139 0
498 -1140 0
-254 -1141 0
81 -1141 0
254 -81 1141 0
423 -1142 0
-469 -1142 0
-423 469 1142 0
-27 -1143 0
107 -1143 0
27 -107 1143 0
-433 -1144 0
60 -1144 0
433 -60 1144 0
64 -1145 0
34 -1145 0
-64 -34 1145 0
64 -1146 0
450 -1146 0
-64 -450 1146 0
402 -1147 0
170 -1147 0
-402 -170 1147 0
83 -1148 0
138 -1148 0
-83 -138 1148 0
-436 -1149 0
75 -1149 0
436 -75 1149 0
282 -1150 0
-295 -1150 0
-282 295 1150 0
-105 -1151 0
324 -1151 0
105 -324 1151 0
-273 -1152 0
1 -1152 0
273 -1 1152 0
-406 -1153 0
473 -1153 0
406 -473 1153 0
496 -1154 0
-111 -1154 0
-496 111 1154 0
441 -1155 0
-135 -1155 0
-441 135 1155 0
-457 -1156 0
130 -1156 0
457 -130 1156 0
500 -1157 0
290 -1157 0
-500 -290 1157 0
124 -1158 0
196 -1158 0
-124 -196 1158 0
-291 -1159 0
33 -1159 0
291 -33 1159 0
-498 -1160 0
185 -1160 0
498 -185 1160 0
111 -1161 0
277 -1161 0
-111 -277 1161 0
-201 -1162 0
427 -1162 0
201 -427 1162 0
-49 -1163 0
126 -1163 0
49 -126 1163 0
163 -1164 0
42 -1164 0
-163 -42 1164 0
333 -1165 0
292 -1165 0
-333 -292 1165 0
459 -1166 0
167 -1167 0
-228 -1167 0
-167 228 1167 0
294 -1168 0
-405 -1168 0
-294 405 1168 0
-249 -1169 0
220 -1169 0
249 -220 1169 0
255 -1170 0
-315 -1170 0
-255 315 1170 0
-139 -1171 0
137 -1171 0
139 -137 1171 0
46 -1172 0
443 -1172 0
-46 -443 1172 0
24 -1173 0
-329 -1173 0
-24 329 1173 0
381 -1174 0
-100 -1174 0
-381 100 1174 0
181 -1175 0
34 -1175 0
-181 -34 1175 0
315 -1176 0
3 -1176 0
-315 -3 1176 0
-107 -1177 0
108 -1177 0
107 -108 1177 0
-369 -1178 0
119 -1178 0
369 -119 1178 0
282 -1179 0
145 -1179 0
-282 -145 1179 0
271 -1180 0
-57 -1180 0
-271 57 1180 0
399 -1181 0
-135 -1181 0
-399 135 1181 0
-483 -1182 0
349 -1182 0
483 -349 1182 0
282 -1183 0
33 -1183 0
-282 -33 1183 0
55 -1184 0
-38 -1184 0
-55 38 1184 0
-16 -1185 0
66 -1185 0
16 -66 1185 0
347 -1186 0
433 -1186 0
-347 -433 1186 0
60 -1187 0
163 -1187 0
-60 -163 1187 0
-330 -1188 0
83 -1188 0
330 -83 1188 0
70 -1189 0
132 -1189 0
-70 -132 1189 0
-260 -1190 0
387 -1190 0
260 -387 1190 0
-242 -1191 0
145 -1191 0
242 -145 1191 0
-194 -1192 0
300 -1192 0
194 -300 1192 0
80 -1193 0
-411 -1193 0
-80 411 1193 0
286 -1194 0
49 -1194 0
-286 -49 1194 0
247 -1195 0
-383 -1195 0
-247 383 1195 0
-265 -1196 0
67 -1196 0
265 -67 1196 0
266 -1197 0
281 -1197 0
-266 -281 1197 0
-53 -1198 0
43 -1198 0
53 -43 1198 0
32 -1199 0
-75 -1199 0
-32 75 1199 0
365 -1200 0
164 -1200 0
-365 -164 1200 0
200 -1201 0
-390 -1201 0
-200 390 1201 0
388 -1202 0
371 -1202 0
-388 -371 1202 0
-491 -1203 0
308 -1203 0
491 -308 1203 0
149 -1204 0
413 -1204 0
-149 -413 1204 0
65 -1205 0
-207 -1205 0
-65 207 1205 0
135 -1206 0
-212 -1206 0
-135 212 1206 0
140 -1207 0
-429 -1207 0
-140 429 1207 0
55 -1208 0
-59 -1208 0
-55 59 1208 0
244 -1209 0
467 -1209 0
-244 -467 1209 0
93 -1210 0
490 -1210 0
-93 -490 1210 0
-19 -1211 0
228 -1211 0
19 -228 1211 0
-490 -1212 0
285 -1212 0
490 -285 1212 0
-443 -1213 0
140 -1213 0
443 -140 1213 0
388 -1214 0
89 -1214 0
-388 -89 1214 0
79 -1215 0
-284 -1215 0
-79 284 1215 0
72 -1216 0
279 -1216 0
-72 -279 1216 0
373 -1217 0
148 -1217 0
-373 -148 1217 0
-276 -1218 0
498 -1218 0
276 -498 1218 0
-488 -1219 0
183 -1219 0
488 -183 1219 0
438 -1220 0
-399 -1220 0
-438 399 1220 0
456 -1221 0
-442 -1221 0
-456 442 1221 0
79 -1222 0
289 -1222 0
-79 -289 1222 0
216 -1223 0
-169 -1223 0
-216 169 1223 0
-49 -1224 0
226 -1224 0
49 -226 1224 0
-275 -1225 0
108 -1225 0
275 -108 1225 0
432 -1226 0
495 -1226 0
-432 -495 1226 0
-248 -1227 0
299 -1227 0
248 -299 1227 0
-267 -1228 0
257 -1228 0
267 -257 1228 0
376 -1229 0
-196 -1229 0
-376 196 1229 0
-373 -1230 0
347 -1230 0
373 -347 1230 0
151 -1231 0
379 -1231 0
-151 -379 1231 0
-21 -1232 0
289 -1232 0
21 -289 1232 0
70 -1233 0
410 -1233 0
-70 -410 1233 0
-376 -1234 0
183 -1234 0
376 -183 1234 0
-292 -1235 0
490 -1235 0
292 -490 1235 0
-42 -1236 0
250 -1236 0
42 -250 1236 0
-312 -1237 0
31 -1237 0
312 -31 1237 0
-272 -1238 0
445 -1238 0
272 -445 1238 0
176 -1239 0
-366 -1239 0
-176 366 1239 0
136 -1240 0
-198 -1240 0
-136 198 1240 0
456 -1241 0
-119 -1241 0
-456 119 1241 0
208 -1242 0
500 -1242 0
-208 -500 1242 0
109 -1243 0
465 -1243 0
-109 -465 1243 0
414 -1244 0
90 -1244 0
-414 -90 1244 0
330 -1245 0
-215 -1245 0
-330 215 1245 0
176 -1246 0
-300 -1246 0
-176 300 1246 0
472 -1247 0
-243 -1247 0
-472 243 1247 0
336 -1248 0
-63 -1248 0
-336 63 1248 0
-218 -1249 0
19 -1249 0
218 -19 1249 0
167 -1250 0
-398 -1250 0
-167 398 1250 0
75 -1251 0
-54 -1251 0
-75 54 1251 0
184 -1252 0
-361 -1252 0
-184 361 1252 0
423 -1253 0
103 -1253 0
-423 -103 1253 0
496 -1254 0
485 -1254 0
-496 -485 1254 0
32 -1255 0
265 -1255 0
-32 -265 1255 0
224 -1256 0
467 -1256 0
-224 -467 1256 0
-232 -1257 0
438 -1257 0
232 -438 1257 0
200 -1258 0
462 -1258 0
-200 -462 1258 0
254 -1259 0
180 -1259 0
-254 -180 1259 0
-227 -1260 0
468 -1260 0
227 -468 1260 0
302 -1261 0
379 -1261 0
-302 -379 1261 0
-472 -1262 0
337 -1262 0
472 -337 1262 0
53 -1263 0
162 -1263 0
-53 -162 1263 0
-202 -1264 0
85 -1264 0
202 -85 1264 0
287 -1265 0
500 -1265 0
-287 -500 1265 0
31 -1266 0
-349 -1266 0
-31 349 1266 0
-65 -1267 0
20 -1267 0
65 -20 1267 0
203 -1268 0
-53 -1268 0
-203 53 1268 0
341 -1269 0
-174 -1269 0
-341 174 1269 0
-3 -1270 0
227 -1270 0
3 -227 1270 0
198 -1271 0
-133 -1271 0
-198 133 1271 0
-209 -1272 0
337 -1272 0
209 -337 1272 0
-249 -1273 0
73 -1273 0
249 -73 1273 0
267 -1274 0
371 -1274 0
-267 -371 1274 0
-454 -1275 0
106 -1275 0
454 -106 1275 0
55 -1276 0
-46 -1276 0
-55 46 1276 0
375 -1277 0
-54 -1277 0
-375 54 1277 0
360 -1278 0
10 -1278 0
-360 -10 1278 0
422 -1279 0
-51 -1279 0
-422 51 1279 0
312 -1280 0
457 -1280 0
-312 -457 1280 0
490 -1281 0
393 -1281 0
-490 -393 1281 0
-198 -1282 0
185 -1282 0
198 -185 1282 0
-439 -1283 0
153 -1283 0
439 -153 1283 0
-240 -1284 0
209 -1284 0
240 -209 1284 0
-410 -1285 0
170 -1285 0
410 -170 1285 0
346 -1286 0
138 -1286 0
-346 -138 1286 0
-466 -1287 0
491 -1287 0
466 -491 1287 0
407 -1288 0
73 -1288 0
-407 -73 1288 0
-388 -1289 0
403 -1289 0
388 -403 1289 0
-314 -1290 0
222 -1290 0
314 -222 1290 0
140 -1291 0
18 -1291 0
-140 -18 1291 0
174 -1292 0
238 -1292 0
-174 -238 1292 0
-82 -1293 0
109 -1293 0
82 -109 1293 0
24 -1294 0
142 -1294 0
-24 -142 1294 0
174 -1295 0
150 -1295 0
-174 -150 1295 0
-203 -1296 0
357 -1296 0
203 -357 1296 0
328 -1297 0
350 -1297 0
-328 -350 1297 0
222 -1298 0
442 -1298 0
-222 -442 1298 0
390 -1299 0
-36 -1299 0
-390 36 1299 0
125 -1300 0
179 -1300 0
-125 -179 1300 0
248 -1301 0
115 -1301 0
-248 -115 1301 0
167 -1302 0
114 -1302 0
-167 -114 1302 0
-345 -1303 0
223 -1303 0
345 -223 1303 0
-440 -1304 0
394 -1304 0
440 -394 1304 0
346 -1305 0
186 -1305 0
-346 -186 1305 0
-110 -1306 0
385 -1306 0
110 -385 1306 0
-441 -1307 0
215 -1307 0
441 -215 1307 0
119 -1308 0
-411 -1308 0
-119 411 1308 0
296 -1309 0
-120 -1309 0
-296 120 1309 0
287 -1310 0
-484 -1310 0
-287 484 1310 0
173 -1311 0
161 -1311 0
-173 -161 1311 0
-393 -1312 0
341 -1312 0
393 -341 1312 0
136 -1313 0
-315 -1313 0
-136 315 1313 0
302 -1314 0
-174 -1314 0
-302 174 1314 0
384 -1315 0
60 -1315 0
-384 -60 1315 0
152 -1316 0
35 -1316 0
-152 -35 1316 0
88 -1317 0
-156 -1317 0
-88 156 1317 0
296 -1318 0
-102 -1318 0
-296 102 1318 0
-274 -1319 0
27 -1319 0
274 -27 1319 0
-376 -1320 0
333 -1320 0
376 -333 1320 0
-256 -1321 0
124 -1321 0
256 -124 1321 0
447 -1322 0
-17 -1322 0
-447 17 1322 0
-328 -1323 0
411 -1323 0
328 -411 1323 0
394 -1324 0
170 -1324 0
-394 -170 1324 0
312 -1325 0
225 -1325 0
-312 -225 1325 0
327 -1326 0
-163 -1326 0
-327 163 1326 0
141 -1327 0
266 -1327 0
-141 -266 1327 0
83 -1328 0
369 -1328 0
-83 -369 1328 0
-130 -1329 0
52 -1329 0
130 -52 1329 0
-20 -1330 0
26 -1330 0
20 -26 1330 0
471 -1331 0
-74 -1331 0
-471 74 1331 0
368 -1332 0
280 -1332 0
-368 -280 1332 0
199 -1333 0
364 -1333 0
-199 -364 1333 0
32 -1334 0
-483 -1334 0
-32 483 1334 0
279 -1335 0
378 -1335 0
-279 -378 1335 0
-257 -1336 0
383 -1336 0
257 -383 1336 0
221 -1337 0
-461 -1337 0
-221 461 1337 0
-11 -1338 0
269 -1338 0
11 -269 1338 0
289 -1339 0
-367 -1339 0
-289 367 1339 0
-304 -1340 0
29 -1340 0
304 -29 1340 0
230 -1341 0
317 -1341 0
-230 -317 1341 0
-200 -1342 0
456 -1342 0
200 -456 1342 0
260 -1343 0
-141 -1343 0
-260 141 1343 0
151 -1344 0
-230 -1344 0
-151 230 1344 0
280 -1345 0
149 -1345 0
-280 -149 1345 0
376 -1346 0
408 -1346 0
-376 -408 1346 0
172 -1347 0
-118 -1347 0
-172 118 1347 0
12 -1348 0
153 -1348 0
-12 -153 1348 0
199 -1349 0
-74 -1349 0
-199 74 1349 0
263 -1350 0
-270 -1350 0
-263 270 1350 0
344 -1351 0
194 -1351 0
-344 -194 1351 0
491 -1352 0
-151 -1352 0
-491 151 1352 0
-401 -1353 0
302 -1353 0
401 -302 1353 0
-362 -1354 0
118 -1354 0
362 -118 1354 0
335 -1355 0
-57 -1355 0
-335 57 1355 0
105 -1356 0
449 -1356 0
-105 -449 1356 0
-153 -1357 0
462 -1357 0
153 -462 1357 0
-357 -1358 0
171 -1358 0
357 -171 1358 0
470 -1359 0
-117 -1359 0
-470 117 1359 0
87 -1360 0
-492 -1360 0
-87 492 1360 0
-265 -1361 0
193 -1361 0
265 -193 1361 0
-14 -1362 0
321 -1362 0
14 -321 1362 0
461 -1363 0
210 -1363 0
-461 -210 1363 0
-26 -1364 0
21 -1364 0
26 -21 1364 0
70 -1365 0
-317 -1365 0
-70 317 1365 0
38 -1366 0
337 -1366 0
-38 -337 1366 0
-209 -1367 0
413 -1367 0
209 -413 1367 0
230 -1368 0
253 -1368 0
-230 -253 1368 0
40 -1369 0
386 -1369 0
-40 -386 1369 0
424 -1370 0
-315 -1370 0
-424 315 1370 0
342 -1371 0
12 -1371 0
-342 -12 1371 0
195 -1372 0
-414 -1372 0
-195 414 1372 0
312 -1373 0
474 -1373 0
-312 -474 1373 0
-171 -1374 0
361 -1374 0
171 -361 1374 0
-11 -1375 0
35 -1375 0
11 -35 1375 0
39 -1376 0
148 -1376 0
-39 -148 1376 0
228 -1377 0
435 -1377 0
-228 -435 1377 0
-69 -1378 0
497 -1378 0
69 -497 1378 0
470 -1379 0
-101 -1379 0
-470 101 1379 0
143 -1380 0
-60 -1380 0
-143 60 1380 0
-108 -1381 0
354 -1381 0
108 -354 1381 0
152 -1382 0
-22 -1382 0
-152 22 1382 0
456 -1383 0
6 -1383 0
-456 -6 1383 0
461 -1384 0
385 -1384 0
-461 -385 1384 0
76 -1385 0
99 -1385 0
-76 -99 1385 0
-314 -1386 0
169 -1386 0
314 -169 1386 0
285 -1387 0
-15 -1387 0
-285 15 1387 0
-350 -1388 0
433 -1388 0
350 -433 1388 0
63 -1389 0
-411 -1389 0
-63 411 1389 0
126 -1390 0
-141 -1390 0
-126 141 1390 0
-211 -1391 0
133 -1391 0
211 -133 1391 0
300 -1392 0
-236 -1392 0
-300 236 1392 0
336 -1393 0
-427 -1393 0
-336 427 1393 0
483 -1394 0
-102 -1394 0
-483 102 1394 0
358 -1395 0
-341 -1395 0
-358 341 1395 0
333 -1396 0
-469 -1396 0
-333 469 1396 0
-356 -1397 0
36 -1397 0
356 -36 1397 0
437 -1398 0
-205 -1398 0
-437 205 1398 0
22 -1399 0
-54 -1399 0
-22 54 1399 0
-358 -1400 0
265 -1400 0
358 -265 1400 0
31 -1401 0
-134 -1401 0
-31 134 1401 0
-485 -1402 0
314 -1402 0
485 -314 1402 0
-248 -1403 0
244 -1403 0
248 -244 1403 0
112 -1404 0
129 -1404 0
-112 -129 1404 0
-51 -1405 0
437 -1405 0
51 -437 1405 0
454 -1406 0
212 -1406 0
-454 -212 1406 0
119 -1407 0
366 -1407 0
-119 -366 1407 0
-301 -1408 0
9 -1408 0
301 -9 1408 0
454 -1409 0
28 -1409 0
-454 -28 1409 0
405 -1410 0
-484 -1410 0
-405 484 1410 0
208 -1411 0
-32 -1411 0
-208 32 1411 0
143 -1412 0
17 -1412 0
-143 -17 1412 0
-456 -1413 0
92 -1413 0
456 -92 1413 0
310 -1414 0
363 -1414 0
-310 -363 1414 0
-404 -1415 0
419 -1415 0
404 -419 1415 0
492 -1416 0
-197 -1416 0
-492 197 1416 0
203 -1417 0
-223 -1417 0
-203 223 1417 0
471 -1418 0
76 -1418 0
-471 -76 1418 0
184 -1419 0
194 -1419 0
-184 -194 1419 0
-344 -1420 0
443 -1420 0
344 -443 1420 0
-89 -1421 0
255 -1421 0
89 -255 1421 0
69 -1422 0
419 -1422 0
-69 -419 1422 0
134 -1423 0
121 -1423 0
-134 -121 1423 0
168 -1424 0
321 -1424 0
-168 -321 1424 0
-283 -1425 0
73 -1425 0
283 -73 1425 0
96 -1426 0
-278 -1426 0
-96 278 1426 0
398 -1427 0
-295 -1427 0
-398 295 1427 0
256 -1428 0
195 -1428 0
-256 -195 1428 0
-348 -1429 0
481 -1429 0
348 -481 1429 0
263 -1430 0
-179 -1430 0
-263 179 1430 0
-219 -1431 0
426 -1431 0
219 -426 1431 0
131 -1432 0
314 -1432 0
-131 -314 1432 0
403 -1433 0
-94 -1433 0
-403 94 1433 0
407 -1434 0
205 -1434 0
-407 -205 1434 0
156 -1435 0
203 -1435 0
-156 -203 1435 0
71 -1436 0
174 -1436 0
-71 -174 1436 0
15 -1437 0
210 -1437 0
-15 -210 1437 0
44 -1438 0
346 -1438 0
-44 -346 1438 0
102 -1439 0
-127 -1439 0
-102 127 1439 0
30 -1440 0
-207 -1440 0
-30 207 1440 0
341 -1441 0
-103 -1441 0
-341 103 1441 0
-10 -1442 0
11 -1442 0
10 -11 1442 0
308 -1443 0
-220 -1443 0
-308 220 1443 0
422 -1444 0
-100 -1444 0
-422 100 1444 0
-424 -1445 0
463 -1445 0
424 -463 1445 0
200 -1446 0
-97 -1446 0
-200 97 1446 0
44 -1447 0
-223 -1447 0
-44 223 1447 0
430 -1448 0
348 -1448 0
-430 -348 1448 0
309 -1449 0
-414 -1449 0
-309 414 1449 0
167 -1450 0
27 -1450 0
-167 -27 1450 0
-306 -1451 0
117 -1451 0
306 -117 1451 0
-200 -1452 0
319 -1452 0
200 -319 1452 0
-331 -1453 0
349 -1453 0
331 -349 1453 0
359 -1454 0
97 -1454 0
-359 -97 1454 0
312 -1455 0
500 -1455 0
-312 -500 1455 0
85 -1456 0
-54 -1456 0
-85 54 1456 0
-11 -1457 0
35 -1457 0
11 -35 1457 0
-217 -1458 0
500 -1458 0
217 -500 1458 0
284 -1459 0
361 -1459 0
-284 -361 1459 0
293 -1460 0
-20 -1460 0
-293 20 1460 0
-176 -1461 0
455 -1461 0
176 -455 1461 0
237 -1462 0
442 -1462 0
-237 -442 1462 0
-275 -1463 0
339 -1463 0
275 -339 1463 0
376 -1464 0
-282 -1464 0
-376 282 1464 0
213 -1465 0
341 -1465 0
-213 -341 1465 0
345 -1466 0
-247 -1466 0
-345 247 1466 0
183 -1467 0
-318 -1467 0
-183 318 1467 0
319 -1468 0
-426 -1468 0
-319 426 1468 0
412 -1469 0
219 -1469 0
-412 -219 1469 0
279 -1470 0
-4 -1470 0
-279 4 1470 0
-61 -1471 0
202 -1471 0
61 -202 1471 0
216 -1472 0
284 -1472 0
-216 -284 1472 0
314 -1473 0
-279 -1473 0
-314 279 1473 0
-372 -1474 0
425 -1474 0
372 -425 1474 0
-425 -1475 0
75 -1475 0
425 -75 1475 0
310 -1476 0
133 -1476 0
-310 -133 1476 0
164 -1477 0
-319 -1477 0
-164 319 1477 0
-153 -1478 0
70 -1478 0
153 -70 1478 0
-233 -1479 0
298 -1479 0
233 -298 1479 0
390 -1480 0
258 -1480 0
-390 -258 1480 0
359 -1481 0
491 -1481 0
-359 -491 1481 0
-209 -1482 0
396 -1482 0
209 -396 1482 0
487 -1483 0
270 -1483 0
-487 -270 1483 0
29 -1484 0
-207 -1484 0
-29 207 1484 0
407 -1485 0
201 -1485 0
-407 -201 1485 0
320 -1486 0
-286 -1486 0
-320 286 1486 0
432 -1487 0
281 -1487 0
-432 -281 1487 0
-136 -1488 0
194 -1488 0
136 -194 1488 0
223 -1489 0
-311 -1489 0
-223 311 1489 0
164 -1490 0
106 -1490 0
-164 -106 1490 0
-51 -1491 0
74 -1491 0
51 -74 1491 0
-51 -1492 0
201 -1492 0
51 -201 1492 0
261 -1493 0
-364 -1493 0
-261 364 1493 0
447 -1494 0
-172 -1494 0
-447 172 1494 0
-235 -1495 0
41 -1495 0
235 -41 1495 0
147 -1496 0
379 -1496 0
-147 -379 1496 0
495 -1497 0
113 -1497 0
-495 -113 1497 0
380 -1498 0
68 -1498 0
-380 -68 1498 0
482 -1499 0
-95 -1499 0
-482 95 1499 0
277 -1500 0
-278 -1500 0
-277 278 1500 0
118 -1501 0
75 -1501 0
-118 -75 1501 0
24 -1502 0
360 -1502 0
-24 -360 1502 0
160 -1503 0
408 -1503 0
-160 -408 1503 0
192 -1504 0
-53 -1504 0
-192 53 1504 0
245 -1505 0
403 -1505 0
-245 -403 1505 0
134 -1506 0
473 -1506 0
-134 -473 1506 0
435 -1507 0
-229 -1507 0
-435 229 1507 0
-100 -1508 0
57 -1508 0
100 -57 1508 0
-490 -1509 0
414 -1509 0
490 -414 1509 0
-321 -1510 0
466 -1510 0
321 -466 1510 0
52 -1511 0
411 -1511 0
-52 -411 1511 0
124 -1512 0
-302 -1512 0
-124 302 1512 0
428 -1513 0
-397 -1513 0
-428 397 1513 0
488 -1514 0
432 -1514 0
-488 -432 1514 0
-441 -1515 0
241 -1515 0
441 -241 1515 0
-226 -1516 0
92 -1516 0
226 -92 1516 0
184 -1517 0
-370 -1517 0
-184 370 1517 0
-181 -1518 0
353 -1518 0
181 -353 1518 0
417 -1519 0
-159 -1519 0
-417 159 1519 0
132 -1520 0
363 -1520 0
-132 -363 1520 0
122 -1521 0
-334 -1521 0
-122 334 1521 0
-244 -1522 0
186 -1522 0
244 -186 1522 0
-355 -1523 0
418 -1523 0
355 -418 1523 0
14 -1524 0
-463 -1524 0
-14 463 1524 0
70 -1525 0
412 -1525 0
-70 -412 1525 0
493 -1526 0
465 -1526 0
-493 -465 1526 0
63 -1527 0
-287 -1527 0
-63 287 1527 0
435 -1528 0
65 -1528 0
-435 -65 1528 0
-32 -1529 0
316 -1529 0
32 -316 1529 0
403 -1530 0
218 -1530 0
-403 -218 1530 0
12 -1531 0
-228 -1531 0
-12 228 1531 0
343 -1532 0
-101 -1532 0
-343 101 1532 0
294 -1533 0
217 -1533 0
-294 -217 1533 0
54 -1534 0
-163 -1535 0
372 -1535 0
163 -372 1535 0
408 -1536 0
-211 -1536 0
-408 211 1536 0
-493 -1537 0
242 -1537 0
493 -242 1537 0
431 -1538 0
-491 -1538 0
-431 491 1538 0
190 -1539 0
-162 -1540 0
325 -1540 0
162 -325 1540 0
244 -1541 0
484 -1541 0
-244 -484 1541 0
-273 -1542 0
396 -1542 0
273 -396 1542 0
455 -1543 0
-116 -1543 0
-455 116 1543 0
-398 -1544 0
489 -1544 0
398 -489 1544 0
-492 -1545 0
91 -1545 0
492 -91 1545 0
-403 -1546 0
185 -1546 0
403 -185 1546 0
-417 -1547 0
190 -1547 0
417 -190 1547 0
183 -1548 0
-199 -1548 0
-183 199 1548 0
-298 -1549 0
382 -1549 0
298 -382 1549 0
-416 -1550 0
43 -1550 0
416 -43 1550 0
-27 -1551 0
283 -1551 0
27 -283 1551 0
415 -1552 0
-3 -1552 0
-415 3 1552 0
150 -1553 0
219 -1553 0
-150 -219 1553 0
300 -1554 0
153 -1554 0
-300 -153 1554 0
317 -1555 0
117 -1555 0
-317 -117 1555 0
238 -1556 0
-147 -1556 0
-238 147 1556 0
350 -1557 0
-375 -1557 0
-350 375 1557 0
139 -1558 0
-318 -1558 0
-139 318 1558 0
182 -1559 0
201 -1559 0
-182 -201 1559 0
223 -1560 0
11 -1560 0
-223 -11 1560 0
259 -1561 0
419 -1561 0
-259 -419 1561 0
412 -1562 0
-334 -1562 0
-412 334 1562 0
-80 -1563 0
445 -1563 0
80 -445 1563 0
67 -1564 0
-31 -1564 0
-67 31 1564 0
-53 -1565 0
345 -1565 0
53 -345 1565 0
278 -1566 0
210 -1566 0
-278 -210 1566 0
165 -1567 0
442 -1567 0
-165 -442 1567 0
500 -1568 0
-358 -1568 0
-500 358 1568 0
-35 -1569 0
417 -1569 0
35 -417 1569 0
71 -1570 0
-297 -1570 0
-71 297 1570 0
-217 -1571 0
110 -1571 0
217 -110 1571 0
-265 -1572 0
268 -1572 0
265 -268 1572 0
-448 -1573 0
56 -1573 0
448 -56 1573 0
-60 -1574 0
339 -1574 0
60 -339 1574 0
52 -1575 0
-390 -1575 0
-52 390 1575 0
-376 -1576 0
351 -1576 0
376 -351 1576 0
336 -1577 0
-407 -1577 0
-336 407 1577 0
194 -1578 0
153 -1578 0
-194 -153 1578 0
-92 -1579 0
282 -1579 0
92 -282 1579 0
192 -1580 0
354 -1580 0
-192 -354 1580 0
197 -1581 0
-380 -1581 0
-197 380 1581 0
334 -1582 0
-159 -1582 0
-334 159 1582 0
360 -1583 0
-499 -1583 0
-360 499 1583 0
40 -1584 0
-289 -1584 0
-40 289 1584 0
147 -1585 0
-134 -1585 0
-147 134 1585 0
149 -1586 0
187 -1586 0
-149 -187 1586 0
344 -1587 0
44 -1587 0
-344 -44 1587 0
-335 -1588 0
369 -1588 0
335 -369 1588 0
259 -1589 0
-206 -1589 0
-259 206 1589 0
500 -1590 0
267 -1590 0
-500 -267 1590 0
383 -1591 0
70 -1591 0
-383 -70 1591 0
445 -1592 0
474 -1592 0
-445 -474 1592 0
115 -1593 0
210 -1593 0
-115 -210 1593 0
-42 -1594 0
461 -1594 0
42 -461 1594 0
-425 -1595 0
92 -1595 0
425 -92 1595 0
319 -1596 0
-198 -1596 0
-319 198 1596 0
-115 -1597 0
387 -1597 0
115 -387 1597 0
188 -1598 0
-462 -1598 0
-188 462 1598 0
367 -1599 0
-307 -1599 0
-367 307 1599 0
469 -1600 0
133 -1600 0
-469 -133 1600 0
-482 -1601 0
444 -1601 0
482 -444 1601 0
243 -1602 0
-39 -1602 0
-243 39 1602 0
-499 -1603 0
178 -1603 0
499 -178 1603 0
-136 -1604 0
485 -1604 0
136 -485 1604 0
-83 -1605 0
172 -1605 0
83 -172 1605 0
-281 -1606 0
454 -1606 0
281 -454 1606 0
8 -1607 0
-261 -1607 0
-8 261 1607 0
-124 -1608 0
147 -1608 0
124 -147 1608 0
335 -1609 0
353 -1609 0
-335 -353 1609 0
219 -1610 0
-149 -1610 0
-219 149 1610 0
87 -1611 0
-422 -1611 0
-87 422 1611 0
374 -1612 0
-182 -1612 0
-374 182 1612 0
132 -1613 0
491 -1613 0
-132 -491 1613 0
420 -1614 0
276 -1614 0
-420 -276 1614 0
-75 -1615 0
178 -1615 0
75 -178 1615 0
-420 -1616 0
105 -1616 0
420 -105 1616 0
-328 -1617 0
132 -1617 0
328 -132 1617 0
-380 -1618 0
410 -1618 0
380 -410 1618 0
407 -1619 0
-471 -1619 0
-407 471 1619 0
-29 -1620 0
451 -1620 0
29 -451 1620 0
438 -1621 0
-55 -1621 0
-438 55 1621 0
240 -1622 0
-137 -1622 0
-240 137 1622 0
95 -1623 0
308 -1623 0
-95 -308 1623 0
76 -1624 0
57 -1624 0
-76 -57 1624 0
-332 -1625 0
361 -1625 0
332 -361 1625 0
29 -1626 0
186 -1626 0
-29 -186 1626 0
392 -1627 0
-235 -1627 0
-392 235 1627 0
-142 -1628 0
377 -1628 0
142 -377 1628 0
342 -1629 0
-239 -1629 0
-342 239 1629 0
-308 -1630 0
371 -1630 0
308 -371 1630 0
32 -1631 0
351 -1631 0
-32 -351 1631 0
-484 -1632 0
202 -1632 0
484 -202 1632 0
390 -1633 0
203 -1633 0
-390 -203 1633 0
470 -1634 0
452 -1634 0
-470 -452 1634 0
38 -1635 0
-415 -1635 0
-38 415 1635 0
491 -1636 0
65 -1636 0
-491 -65 1636 0
142 -1637 0
-406 -1637 0
-142 406 1637 0
192 -1638 0
58 -1638 0
-192 -58 1638 0
-136 -1639 0
482 -1639 0
136 -482 1639 0
278 -1640 0
-165 -1640 0
-278 165 1640 0
-408 -1641 0
387 -1641 0
408 -387 1641 0
224 -1642 0
229 -1642 0
-224 -229 1642 0
496 -1643 0
313 -1643 0
-496 -313 1643 0
-337 -1644 0
331 -1644 0
337 -331 1644 0
176 -1645 0
-372 -1645 0
-176 372 1645 0
479 -1646 0
150 -1646 0
-479 -150 1646 0
452 -1647 0
-127 -1647 0
-452 127 1647 0
-58 -1648 0
333 -1648 0
58 -333 1648 0
403 -1649 0
-317 -1649 0
-403 317 1649 0
-24 -1650 0
127 -1650 0
24 -127 1650 0
-472 -1651 0
278 -1651 0
472 -278 1651 0
304 -1652 0
401 -1652 0
-304 -401 1652 0
405 -1653 0
122 -1653 0
-405 -122 1653 0
-288 -1654 0
202 -1654 0
288 -202 1654 0
200 -1655 0
-261 -1655 0
-200 261 1655 0
459 -1656 0
251 -1656 0
-459 -251 1656 0
372 -1657 0
363 -1657 0
-372 -363 1657 0
423 -1658 0
-51 -1658 0
-423 51 1658 0
71 -1659 0
-307 -1659 0
-71 307 1659 0
-146 -1660 0
249 -1660 0
146 -249 1660 0
21 -1661 0
5 -1661 0
-21 -5 1661 0
-226 -1662 0
131 -1662 0
226 -131 1662 0
54 -1663 0
300 -1663 0
-54 -300 1663 0
248 -1664 0
-18 -1664 0
-248 18 1664 0
-331 -1665 0
100 -1665 0
331 -100 1665 0
424 -1666 0
-6 -1666 0
-424 6 1666 0
448 -1667 0
375 -1667 0
-448 -375 1667 0
200 -1668 0
247 -1668 0
-200 -247 1668 0
332 -1669 0
362 -1669 0
-332 -362 1669 0
236 -1670 0
411 -1670 0
-236 -411 1670 0
91 -1671 0
-437 -1671 0
-91 437 1671 0
-310 -1672 0
129 -1672 0
310 -129 1672 0
289 -1673 0
217 -1673 0
-289 -217 1673 0
-370 -1674 0
178 -1674 0
370 -178 1674 0
-337 -1675 0
54 -1675 0
337 -54 1675 0
-172 -1676 0
267 -1676 0
172 -267 1676 0
86 -1677 0
-221 -1677 0
-86 221 1677 0
-380 -1678 0
276 -1678 0
380 -276 1678 0
152 -1679 0
61 -1679 0
-152 -61 1679 0
-84 -1680 0
57 -1680 0
84 -57 1680 0
-33 -1681 0
34 -1681 0
33 -34 1681 0
384 -1682 0
-69 -1682 0
-384 69 1682 0
280 -1683 0
-450 -1683 0
-280 450 1683 0
-17 -1684 0
445 -1684 0
17 -445 1684 0
-108 -1685 0
153 -1685 0
108 -153 1685 0
-1 -1686 0
303 -1686 0
1 -303 1686 0
120 -1687 0
-421 -1687 0
-120 421 1687 0
-377 -1688 0
75 -1688 0
377 -75 1688 0
133 -1689 0
-244 -1689 0
-133 244 1689 0
110 -1690 0
-471 -1690 0
-110 471 1690 0
214 -1691 0
-255 -1691 0
-214 255 1691 0
500 -1692 0
345 -1692 0
-500 -345 1692 0
-464 -1693 0
481 -1693 0
464 -481 1693 0
96 -1694 0
414 -1694 0
-96 -414 1694 0
228 -1695 0
379 -1695 0
-228 -379 1695 0
-368 -1696 0
11 -1696 0
368 -11 1696 0
56 -1697 0
216 -1697 0
-56 -216 1697 0
32 -1698 0
447 -1698 0
-32 -447 1698 0
239 -1699 0
-498 -1699 0
-239 498 1699 0
-392 -1700 0
443 -1700 0
392 -443 1700 0
-5 -1701 0
385 -1701 0
5 -385 1701 0
87 -1702 0
281 -1702 0
-87 -281 1702 0
39 -1703 0
-236 -1703 0
-39 236 1703 0
-420 -1704 0
322 -1704 0
420 -322 1704 0
232 -1705 0
356 -1705 0
-232 -356 1705 0
344 -1706 0
481 -1706 0
-344 -481 1706 0
312 -1707 0
100 -1707 0
-312 -100 1707 0
93 -1708 0
217 -1708 0
-93 -217 1708 0
56 -1709 0
-435 -1709 0
-56 435 1709 0
-252 -1710 0
329 -1710 0
252 -329 1710 0
351 -1711 0
156 -1711 0
-351 -156 1711 0
79 -1712 0
204 -1712 0
-79 -204 1712 0
184 -1713 0
286 -1713 0
-184 -286 1713 0
-96 -1714 0
157 -1714 0
96 -157 1714 0
194 -1715 0
-262 -1715 0
-194 262 1715 0
391 -1716 0
-61 -1716 0
-391 61 1716 0
252 -1717 0
-437 -1717 0
-252 437 1717 0
-116 -1718 0
260 -1718 0
116 -260 1718 0
296 -1719 0
-233 -1719 0
-296 233 1719 0
141 -1720 0
139 -1720 0
-141 -139 1720 0
-332 -1721 0
217 -1721 0
332 -217 1721 0
-25 -1722 0
398 -1722 0
25 -398 1722 0
197 -1723 0
-387 -1723 0
-197 387 1723 0
-483 -1724 0
243 -1724 0
483 -243 1724 0
239 -1725 0
-156 -1725 0
-239 156 1725 0
335 -1726 0
284 -1726 0
-335 -284 1726 0
-208 -1727 0
205 -1727 0
208 -205 1727 0
-336 -1728 0
34 -1728 0
336 -34 1728 0
-408 -1729 0
72 -1729 0
408 -72 1729 0
168 -1730 0
455 -1730 0
-168 -455 1730 0
-259 -1731 0
417 -1731 0
259 -417 1731 0
430 -1732 0
266 -1732 0
-430 -266 1732 0
-182 -1733 0
394 -1733 0
182 -394 1733 0
144 -1734 0
-129 -1734 0
-144 129 1734 0
-128 -1735 0
109 -1735 0
128 -109 1735 0
103 -1736 0
-186 -1736 0
-103 186 1736 0
181 -1737 0
-36 -1737 0
-181 36 1737 0
109 -1738 0
-171 -1738 0
-109 171 1738 0
-50 -1739 0
396 -1739 0
50 -396 1739 0
439 -1740 0
346 -1740 0
-439 -346 1740 0
328 -1741 0
-69 -1741 0
-328 69 1741 0
-128 -1742 0
99 -1742 0
128 -99 1742 0
413 -1743 0
212 -1743 0
-413 -212 1743 0
79 -1744 0
4 -1744 0
-79 -4 1744 0
-145 -1745 0
237 -1745 0
145 -237 1745 0
207 -1746 0
436 -1746 0
-207 -436 1746 0
444 -1747 0
-78 -1747 0
-444 78 1747 0
30 -1748 0
268 -1748 0
-30 -268 1748 0
221 -1749 0
-28 -1749 0
-221 28 1749 0
80 -1750 0
255 -1750 0
-80 -255 1750 0
373 -1751 0
-470 -1751 0
-373 470 1751 0
440 -1752 0
-346 -1752 0
-440 346 1752 0
201 -1753 0
401 -1753 0
-201 -401 1753 0
238 -1754 0
-159 -1754 0
-238 159 1754 0
-174 -1755 0
186 -1755 0
174 -186 1755 0
62 -1756 0
-364 -1756 0
-62 364 1756 0
-80 -1757 0
352 -1757 0
80 -352 1757 0
11 -1758 0
-263 -1758 0
-11 263 1758 0
158 -1759 0
44 -1759 0
-158 -44 1759 0
-9 -1760 0
127 -1760 0
9 -127 1760 0
455 -1761 0
-420 -1761 0
-455 420 1761 0
79 -1762 0
207 -1762 0
-79 -207 1762 0
245 -1763 0
-157 -1763 0
-245 157 1763 0
303 -1764 0
73 -1764 0
-303 -73 1764 0
442 -1765 0
145 -1765 0
-442 -145 1765 0
479 -1766 0
369 -1766 0
-479 -369 1766 0
32 -1767 0
205 -1767 0
-32 -205 1767 0
140 -1768 0
-365 -1768 0
-140 365 1768 0
-25 -1769 0
300 -1769 0
25 -300 1769 0
117 -1770 0
-100 -1770 0
-117 100 1770 0
256 -1771 0
-103 -1771 0
-256 103 1771 0
352 -1772 0
50 -1772 0
-352 -50 1772 0
92 -1773 0
9 -1773 0
-92 -9 1773 0
-165 -1774 0
481 -1774 0
165 -481 1774 0
447 -1775 0
458 -1775 0
-447 -458 1775 0
27 -1776 0
449 -1776 0
-27 -449 1776 0
370 -1777 0
-303 -1777 0
-370 303 1777 0
424 -1778 0
-185 -1778 0
-424 185 1778 0
-307 -1779 0
346 -1779 0
307 -346 1779 0
487 -1780 0
58 -1780 0
-487 -58 1780 0
24 -1781 0
-413 -1781 0
-24 413 1781 0
60 -1782 0
393 -1782 0
-60 -393 1782 0
15 -1783 0
-397 -1783 0
-15 397 1783 0
-176 -1784 0
483 -1784 0
176 -483 1784 0
144 -1785 0
-271 -1785 0
-144 271 1785 0
-393 -1786 0
281 -1786 0
393 -281 1786 0
252 -1787 0
345 -1787 0
-252 -345 1787 0
486 -1788 0
-255 -1788 0
-486 255 1788 0
-176 -1789 0
214 -1789 0
176 -214 1789 0
414 -1790 0
-358 -1790 0
-414 358 1790 0
-172 -1791 0
178 -1791 0
172 -178 1791 0
-469 -1792 0
129 -1792 0
469 -129 1792 0
363 -1793 0
-167 -1793 0
-363 167 1793 0
202 -1794 0
-494 -1794 0
-202 494 1794 0
-37 -1795 0
162 -1795 0
37 -162 1795 0
-281 -1796 0
475 -1796 0
281 -475 1796 0
-474 -1797 0
316 -1797 0
474 -316 1797 0
-481 -1798 0
211 -1798 0
481 -211 1798 0
359 -1799 0
147 -1799 0
-359 -147 1799 0
-290 -1800 0
236 -1800 0
290 -236 1800 0
52 -1801 0
20 -1801 0
-52 -20 1801 0
183 -1802 0
228 -1802 0
-183 -228 1802 0
199 -1803 0
-265 -1803 0
-199 265 1803 0
48 -1804 0
312 -1804 0
-48 -312 1804 0
400 -1805 0
-297 -1805 0
-400 297 1805 0
47 -1806 0
282 -1806 0
-47 -282 1806 0
143 -1807 0
-35 -1807 0
-143 35 1807 0
375 -1808 0
-253 -1808 0
-375 253 1808 0
-317 -1809 0
433 -1809 0
317 -433 1809 0
-188 -1810 0
65 -1810 0
188 -65 1810 0
363 -1811 0
457 -1811 0
-363 -457 1811 0
-417 -1812 0
93 -1812 0
417 -93 1812 0
120 -1813 0
-256 -1813 0
-120 256 1813 0
159 -1814 0
194 -1814 0
-159 -194 1814 0
-153 -1815 0
156 -1815 0
153 -156 1815 0
-435 -1816 0
19 -1816 0
435 -19 1816 0
414 -1817 0
329 -1817 0
-414 -329 1817 0
111 -1818 0
140 -1818 0
-111 -140 1818 0
208 -1819 0
-183 -1819 0
-208 183 1819 0
-479 -1820 0
257 -1820 0
479 -257 1820 0
239 -1821 0
494 -1821 0
-239 -494 1821 0
430 -1822 0
-189 -1822 0
-430 189 1822 0
-498 -1823 0
60 -1823 0
498 -60 1823 0
150 -1824 0
429 -1824 0
-150 -429 1824 0
-24 -1825 0
61 -1825 0
24 -61 1825 0
-26 -1826 0
27 -1826 0
26 -27 1826 0
-462 -1827 0
50 -1827 0
462 -50 1827 0
479 -1828 0
-313 -1828 0
-479 313 1828 0
-313 -1829 0
204 -1829 0
313 -204 1829 0
118 -1830 0
-308 -1830 0
-118 308 1830 0
272 -1831 0
2 -1831 0
-272 -2 1831 0
204 -1832 0
433 -1832 0
-204 -433 1832 0
182 -1833 0
210 -1833 0
-182 -210 1833 0
126 -1834 0
403 -1834 0
-126 -403 1834 0
232 -1835 0
267 -1835 0
-232 -267 1835 0
87 -1836 0
-468 -1836 0
-87 468 1836 0
207 -1837 0
145 -1837 0
-207 -145 1837 0
378 -1838 0
-479 -1838 0
-378 479 1838 0
-376 -1839 0
337 -1839 0
376 -337 1839 0
-413 -1840 0
26 -1840 0
413 -26 1840 0
488 -1841 0
-307 -1841 0
-488 307 1841 0
119 -1842 0
-466 -1842 0
-119 466 1842 0
176 -1843 0
70 -1843 0
-176 -70 1843 0
120 -1844 0
158 -1844 0
-120 -158 1844 0
254 -1845 0
-315 -1845 0
-254 315 1845 0
206 -1846 0
-324 -1846 0
-206 324 1846 0
-461 -1847 0
425 -1847 0
461 -425 1847 0
67 -1848 0
450 -1848 0
-67 -450 1848 0
262 -1849 0
125 -1849 0
-262 -125 1849 0
103 -1850 0
274 -1850 0
-103 -274 1850 0
-416 -1851 0
82 -1851 0
416 -82 1851 0
76 -1852 0
99 -1852 0
-76 -99 1852 0
-369 -1853 0
461 -1853 0
369 -461 1853 0
380 -1854 0
131 -1854 0
-380 -131 1854 0
308 -1855 0
-70 -1855 0
-308 70 1855 0
113 -1856 0
-439 -1856 0
-113 439 1856 0
-256 -1857 0
377 -1857 0
256 -377 1857 0
-465 -1858 0
412 -1858 0
465 -412 1858 0
178 -1859 0
425 -1859 0
-178 -425 1859 0
95 -1860 0
179 -1860 0
-95 -179 1860 0
325 -1861 0
-477 -1861 0
-325 477 1861 0
59 -1862 0
474 -1862 0
-59 -474 1862 0
231 -1863 0
177 -1863 0
-231 -177 1863 0
405 -1864 0
353 -1864 0
-405 -353 1864 0
429 -1865 0
157 -1865 0
-429 -157 1865 0
100 -1866 0
-62 -1866 0
-100 62 1866 0
47 -1867 0
205 -1867 0
-47 -205 1867 0
381 -1868 0
-284 -1868 0
-381 284 1868 0
472 -1869 0
491 -1869 0
-472 -491 1869 0
-337 -1870 0
269 -1870 0
337 -269 1870 0
50 -1871 0
490 -1871 0
-50 -490 1871 0
122 -1872 0
-247 -1872 0
-122 247 1872 0
429 -1873 0
-395 -1873 0
-429 395 1873 0
422 -1874 0
-403 -1874 0
-422 403 1874 0
21 -1875 0
-101 -1875 0
-21 101 1875 0
-68 -1876 0
483 -1876 0
68 -483 1876 0
451 -1877 0
91 -1877 0
-451 -91 1877 0
348 -1878 0
-247 -1878 0
-348 247 1878 0
455 -1879 0
323 -1879 0
-455 -323 1879 0
443 -1880 0
-358 -1880 0
-443 358 1880 0
51 -1881 0
-430 -1881 0
-51 430 1881 0
110 -1882 0
140 -1882 0
-110 -140 1882 0
-78 -1883 0
210 -1883 0
78 -210 1883 0
462 -1884 0
-135 -1884 0
-462 135 1884 0
256 -1885 0
325 -1885 0
-256 -325 1885 0
-338 -1886 0
157 -1886 0
338 -157 1886 0
-182 -1887 0
489 -1887 0
182 -489 1887 0
379 -1888 0
-126 -1888 0
-379 126 1888 0
26 -1889 0
-231 -1889 0
-26 231 1889 0
416 -1890 0
58 -1890 0
-416 -58 1890 0
338 -1891 0
-438 -1891 0
-338 438 1891 0
388 -1892 0
283 -1892 0
-388 -283 1892 0
-260 -1893 0
98 -1893 0
260 -98 1893 0
494 -1894 0
417 -1894 0
-494 -417 1894 0
248 -1895 0
-117 -1895 0
-248 117 1895 0
-218 -1896 0
294 -1896 0
218 -294 1896 0
-497 -1897 0
429 -1897 0
497 -429 1897 0
63 -1898 0
-211 -1898 0
-63 211 1898 0
207 -1899 0
26 -1899 0
-207 -26 1899 0
100 -1900 0
-444 -1900 0
-100 444 1900 0
186 -1901 0
-31 -1901 0
-186 31 1901 0
362 -1902 0
242 -1902 0
-362 -242 1902 0
207 -1903 0
-301 -1903 0
-207 301 1903 0
259 -1904 0
67 -1904 0
-259 -67 1904 0
184 -1905 0
-23 -1905 0
-184 23 1905 0
-424 -1906 0
95 -1906 0
424 -95 1906 0
487 -1907 0
459 -1907 0
-487 -459 1907 0
336 -1908 0
466 -1908 0
-336 -466 1908 0
-68 -1909 0
43 -1909 0
68 -43 1909 0
-281 -1910 0
445 -1910 0
281 -445 1910 0
359 -1911 0
445 -1911 0
-359 -445 1911 0
463 -1912 0
101 -1912 0
-463 -101 1912 0
311 -1913 0
-111 -1913 0
-311 111 1913 0
286 -1914 0
-454 -1914 0
-286 454 1914 0
-376 -1915 0
9 -1915 0
376 -9 1915 0
24 -1916 0
52 -1916 0
-24 -52 1916 0
446 -1917 0
92 -1917 0
-446 -92 1917 0
-291 -1918 0
452 -1918 0
291 -452 1918 0
-437 -1919 0
18 -1919 0
437 -18 1919 0
224 -1920 0
-303 -1920 0
-224 303 1920 0
165 -1921 0
-475 -1921 0
-165 475 1921 0
128 -1922 0
110 -1922 0
-128 -110 1922 0
12 -1923 0
-45 -1923 0
-12 45 1923 0
14 -1924 0
-277 -1924 0
-14 277 1924 0
-459 -1925 0
81 -1925 0
459 -81 1925 0
-211 -1926 0
3 -1926 0
211 -3 1926 0
-153 -1927 0
177 -1927 0
153 -177 1927 0
68 -1928 0
252 -1928 0
-68 -252 1928 0
-218 -1929 0
355 -1929 0
218 -355 1929 0
175 -1930 0
-263 -1930 0
-175 263 1930 0
261 -1931 0
-364 -1931 0
-261 364 1931 0
359 -1932 0
-102 -1932 0
-359 102 1932 0
37 -1933 0
75 -1933 0
-37 -75 1933 0
307 -1934 0
99 -1934 0
-307 -99 1934 0
15 -1935 0
-339 -1935 0
-15 339 1935 0
324 -1936 0
-142 -1936 0
-324 142 1936 0
-45 -1937 0
195 -1937 0
45 -195 1937 0
182 -1938 0
-183 -1938 0
-182 183 1938 0
339 -1939 0
-15 -1939 0
-339 15 1939 0
88 -1940 0
-250 -1940 0
-88 250 1940 0
245 -1941 0
-446 -1941 0
-245 446 1941 0
-248 -1942 0
164 -1942 0
248 -164 1942 0
143 -1943 0
-426 -1943 0
-143 426 1943 0
248 -1944 0
-123 -1944 0
-248 123 1944 0
62 -1945 0
-423 -1945 0
-62 423 1945 0
104 -1946 0
-284 -1946 0
-104 284 1946 0
237 -1947 0
428 -1947 0
-237 -428 1947 0
479 -1948 0
-68 -1948 0
-479 68 1948 0
300 -1949 0
-421 -1949 0
-300 421 1949 0
112 -1950 0
-212 -1950 0
-112 212 1950 0
87 -1951 0
337 -1951 0
-87 -337 1951 0
136 -1952 0
491 -1952 0
-136 -491 1952 0
255 -1953 0
459 -1953 0
-255 -459 1953 0
192 -1954 0
-219 -1954 0
-192 219 1954 0
-1 -1955 0
57 -1955 0
1 -57 1955 0
488 -1956 0
-132 -1956 0
-488 132 1956 0
451 -1957 0
10 -1957 0
-451 -10 1957 0
181 -1958 0
-358 -1958 0
-181 358 1958 0
-397 -1959 0
170 -1959 0
397 -170 1959 0
416 -1960 0
403 -1960 0
-416 -403 1960 0
-241 -1961 0
329 -1961 0
241 -329 1961 0
256 -1962 0
251 -1962 0
-256 -251 1962 0
240 -1963 0
443 -1963 0
-240 -443 1963 0
166 -1964 0
59 -1964 0
-166 -59 1964 0
144 -1965 0
-405 -1965 0
-144 405 1965 0
205 -1966 0
114 -1966 0
-205 -114 1966 0
399 -1967 0
353 -1967 0
-399 -353 1967 0
-101 -1968 0
410 -1968 0
101 -410 1968 0
253 -1969 0
-493 -1969 0
-253 493 1969 0
-50 -1970 0
490 -1970 0
50 -490 1970 0
228 -1971 0
-391 -1971 0
-228 391 1971 0
-341 -1972 0
182 -1973 0
-55 -1973 0
-182 55 1973 0
-202 -1974 0
201 -1974 0
202 -201 1974 0
175 -1975 0
-461 -1975 0
-175 461 1975 0
-74 -1976 0
66 -1976 0
74 -66 1976 0
343 -1977 0
-244 -1977 0
-343 244 1977 0
-402 -1978 0
227 -1978 0
402 -227 1978 0
293 -1979 0
-166 -1979 0
-293 166 1979 0
246 -1980 0
393 -1980 0
-246 -393 1980 0
468 -1981 0
91 -1981 0
-468 -91 1981 0
-16 -1982 0
15 -1982 0
16 -15 1982 0
-376 -1983 0
437 -1983 0
376 -437 1983 0
-42 -1984 0
121 -1984 0
42 -121 1984 0
-227 -1985 0
380 -1985 0
227 -380 1985 0
55 -1986 0
-437 -1986 0
-55 437 1986 0
406 -1987 0
-124 -1987 0
-406 124 1987 0
355 -1988 0
-207 -1988 0
-355 207 1988 0
-18 -1989 0
469 -1989 0
18 -469 1989 0
6 -1990 0
-154 -1990 0
-6 154 1990 0
-192 -1991 0
129 -1991 0
192 -129 1991 0
166 -1992 0
323 -1992 0
-166 -323 1992 0
157 -1993 0
-327 -1993 0
-157 327 1993 0
390 -1994 0
-343 -1994 0
-390 343 1994 0
-312 -1995 0
363 -1995 0
312 -363 1995 0
383 -1996 0
262 -1996 0
-383 -262 1996 0
450 -1997 0
-447 -1997 0
-450 447 1997 0
288 -1998 0
-415 -1998 0
-288 415 1998 0
-329 -1999 0
356 -1999 0
329 -356 1999 0
-346 -2000 0
196 -2000 0
346 -196 2000 0
-179 -2001 0
292 -2001 0
179 -292 2001 0
359 -2002 0
27 -2002 0
-359 -27 2002 0
132 -2003 0
43 -2003 0
-132 -43 2003 0
244 -2004 0
-125 -2004 0
-244 125 2004 0
-120 -2005 0
351 -2005 0
120 -351 2005 0
430 -2006 0
-470 -2006 0
-430 470 2006 0
229 -2007 0
460 -2007 0
-229 -460 2007 0
360 -2008 0
316 -2008 0
-360 -316 2008 0
302 -2009 0
-34 -2009 0
-302 34 2009 0
416 -2010 0
343 -2010 0
-416 -343 2010 0
-42 -2011 0
444 -2011 0
42 -444 2011 0
172 -2012 0
25 -2012 0
-172 -25 2012 0
-153 -2013 0
268 -2013 0
153 -268 2013 0
220 -2014 0
42 -2014 0
-220 -42 2014 0
-327 -2015 0
17 -2015 0
327 -17 2015 0
-339 -2016 0
274 -2016 0
339 -274 2016 0
286 -2017 0
122 -2017 0
-286 -122 2017 0
-21 -2018 0
418 -2018 0
21 -418 2018 0
272 -2019 0
-402 -2019 0
-272 402 2019 0
101 -2020 0
-358 -2020 0
-101 358 2020 0
-468 -2021 0
249 -2021 0
468 -249 2021 0
118 -2022 0
139 -2022 0
-118 -139 2022 0
84 -2023 0
25 -2023 0
-84 -25 2023 0
23 -2024 0
-255 -2024 0
-23 255 2024 0
221 -2025 0
58 -2025 0
-221 -58 2025 0
71 -2026 0
-4 -2026 0
-71 4 2026 0
79 -2027 0
70 -2027 0
-79 -70 2027 0
218 -2028 0
58 -2028 0
-218 -58 2028 0
454 -2029 0
-323 -2029 0
-454 323 2029 0
376 -2030 0
-15 -2030 0
-376 15 2030 0
56 -2031 0
194 -2031 0
-56 -194 2031 0
357 -2032 0
66 -2032 0
-357 -66 2032 0
-148 -2033 0
291 -2033 0
148 -291 2033 0
334 -2034 0
-178 -2034 0
-334 178 2034 0
173 -2035 0
354 -2035 0
-173 -354 2035 0
30 -2036 0
-71 -2036 0
-30 71 2036 0
456 -2037 0
380 -2037 0
-456 -380 2037 0
-118 -2038 0
409 -2038 0
118 -409 2038 0
386 -2039 0
145 -2039 0
-386 -145 2039 0
79 -2040 0
-114 -2040 0
-79 114 2040 0
141 -2041 0
290 -2041 0
-141 -290 2041 0
-431 -2042 0
409 -2042 0
431 -409 2042 0
70 -2043 0
-78 -2043 0
-70 78 2043 0
61 -2044 0
-327 -2044 0
-61 327 2044 0
133 -2045 0
33 -2045 0
-133 -33 2045 0
380 -2046 0
-364 -2046 0
-380 364 2046 0
-194 -2047 0
366 -2047 0
194 -366 2047 0
-264 -2048 0
362 -2048 0
264 -362 2048 0
103 -2049 0
59 -2049 0
-103 -59 2049 0
-265 -2050 0
43 -2050 0
265 -43 2050 0
300 -2051 0
-4 -2051 0
-300 4 2051 0
187 -2052 0
-413 -2052 0
-187 413 2052 0
245 -2053 0
-116 -2053 0
-245 116 2053 0
410 -2054 0
369 -2054 0
-410 -369 2054 0
-346 -2055 0
3 -2055 0
346 -3 2055 0
350 -2056 0
161 -2056 0
-350 -161 2056 0
213 -2057 0
-396 -2057 0
-213 396 2057 0
166 -2058 0
205 -2058 0
-166 -205 2058 0
-331 -2059 0
468 -2059 0
331 -468 2059 0
140 -2060 0
-494 -2060 0
-140 494 2060 0
447 -2061 0
351 -2061 0
-447 -351 2061 0
-480 -2062 0
97 -2062 0
480 -97 2062 0
-210 -2063 0
68 -2063 0
210 -68 2063 0
149 -2064 0
124 -2064 0
-149 -124 2064 0
-441 -2065 0
221 -2065 0
441 -221 2065 0
-274 -2066 0
308 -2066 0
274 -308 2066 0
192 -2067 0
-108 -2067 0
-192 108 2067 0
-408 -2068 0
142 -2068 0
408 -142 2068 0
71 -2069 0
-27 -2069 0
-71 27 2069 0
445 -2070 0
321 -2070 0
-445 -321 2070 0
-138 -2071 0
404 -2071 0
138 -404 2071 0
412 -2072 0
411 -2072 0
-412 -411 2072 0
256 -2073 0
-292 -2073 0
-256 292 2073 0
110 -2074 0
313 -2074 0
-110 -313 2074 0
351 -2075 0
-95 -2075 0
-351 95 2075 0
-424 -2076 0
189 -2076 0
424 -189 2076 0
-116 -2077 0
84 -2077 0
116 -84 2077 0
415 -2078 0
-143 -2078 0
-415 143 2078 0
192 -2079 0
-471 -2079 0
-192 471 2079 0
160 -2080 0
-424 -2080 0
-160 424 2080 0
-103 -2081 0
441 -2081 0
103 -441 2081 0
336 -2082 0
279 -2082 0
-336 -279 2082 0
-13 -2083 0
434 -2083 0
13 -434 2083 0
261 -2084 0
354 -2084 0
-261 -354 2084 0
246 -2085 0
-420 -2085 0
-246 420 2085 0
101 -2086 0
4 -2086 0
-101 -4 2086 0
429 -2087 0
339 -2087 0
-429 -339 2087 0
118 -2088 0
116 -2088 0
-118 -116 2088 0
-160 -2089 0
395 -2089 0
160 -395 2089 0
86 -2090 0
134 -2090 0
-86 -134 2090 0
359 -2091 0
-94 -2091 0
-359 94 2091 0
16 -2092 0
-339 -2092 0
-16 339 2092 0
-330 -2093 0
3 -2093 0
330 -3 2093 0
391 -2094 0
437 -2094 0
-391 -437 2094 0
-336 -2095 0
399 -2095 0
336 -399 2095 0
-11 -2096 0
370 -2096 0
11 -370 2096 0
216 -2097 0
15 -2097 0
-216 -15 2097 0
159 -2098 0
433 -2098 0
-159 -433 2098 0
-193 -2099 0
153 -2099 0
193 -153 2099 0
456 -2100 0
474 -2100 0
-456 -474 2100 0
405 -2101 0
53 -2101 0
-405 -53 2101 0
-495 -2102 0
265 -2102 0
495 -265 2102 0
424 -2103 0
224 -2103 0
-424 -224 2103 0
-349 -2104 0
306 -2104 0
349 -306 2104 0
-231 -2105 0
361 -2105 0
231 -361 2105 0
219 -2106 0
169 -2106 0
-219 -169 2106 0
-149 -2107 0
241 -2107 0
149 -241 2107 0
335 -2108 0
-22 -2108 0
-335 22 2108 0
499 -2109 0
-159 -2109 0
-499 159 2109 0
260 -2110 0
105 -2110 0
-260 -105 2110 0
434 -2111 0
433 -2111 0
-434 -433 2111 0
67 -2112 0
-358 -2112 0
-67 358 2112 0
207 -2113 0
353 -2113 0
-207 -353 2113 0
-8 -2114 0
145 -2114 0
8 -145 2114 0
227 -2115 0
419 -2115 0
-227 -419 2115 0
294 -2116 0
259 -2116 0
-294 -259 2116 0
24 -2117 0
-146 -2117 0
-24 146 2117 0
469 -2118 0
-279 -2118 0
-469 279 2118 0
-80 -2119 0
125 -2119 0
80 -125 2119 0
416 -2120 0
-62 -2120 0
-416 62 2120 0
14 -2121 0
-213 -2121 0
-14 213 2121 0
160 -2122 0
458 -2122 0
-160 -458 2122 0
486 -2123 0
274 -2123 0
-486 -274 2123 0
149 -2124 0
243 -2124 0
-149 -243 2124 0
-394 -2125 0
298 -2125 0
394 -298 2125 0
384 -2126 0
-30 -2126 0
-384 30 2126 0
452 -2127 0
218 -2127 0
-452 -218 2127 0
-458 -2128 0
478 -2128 0
458 -478 2128 0
-66 -2129 0
242 -2129 0
66 -242 2129 0
-306 -2130 0
129 -2130 0
306 -129 2130 0
428 -2131 0
236 -2131 0
-428 -236 2131 0
257 -2132 0
449 -2132 0
-257 -449 2132 0
392 -2133 0
245 -2133 0
-392 -245 2133 0
302 -2134 0
-419 -2134 0
-302 419 2134 0
36 -2135 0
-484 -2135 0
-36 484 2135 0
-493 -2136 0
97 -2136 0
493 -97 2136 0
452 -2137 0
442 -2137 0
-452 -442 2137 0
174 -2138 0
68 -2138 0
-174 -68 2138 0
165 -2139 0
-268 -2139 0
-165 268 2139 0
-496 -2140 0
193 -2140 0
496 -193 2140 0
-473 -2141 0
446 -2141 0
473 -446 2141 0
479 -2142 0
377 -2142 0
-479 -377 2142 0
231 -2143 0
30 -2143 0
-231 -30 2143 0
-485 -2144 0
170 -2144 0
485 -170 2144 0
-114 -2145 0
332 -2145 0
114 -332 2145 0
3 -2146 0
385 -2146 0
-3 -385 2146 0
287 -2147 0
-133 -2147 0
-287 133 2147 0
492 -2148 0
218 -2148 0
-492 -218 2148 0
191 -2149 0
-229 -2149 0
-191 229 2149 0
8 -2150 0
-447 -2150 0
-8 447 2150 0
-336 -2151 0
130 -2151 0
336 -130 2151 0
92 -2152 0
474 -2152 0
-92 -474 2152 0
317 -2153 0
164 -2153 0
-317 -164 2153 0
278 -2154 0
275 -2154 0
-278 -275 2154 0
349 -2155 0
258 -2155 0
-349 -258 2155 0
479 -2156 0
463 -2156 0
-479 -463 2156 0
127 -2157 0
-102 -2157 0
-127 102 2157 0
-481 -2158 0
268 -2158 0
481 -268 2158 0
-105 -2159 0
413 -2159 0
105 -413 2159 0
-344 -2160 0
356 -2160 0
344 -356 2160 0
232 -2161 0
-182 -2161 0
-232 182 2161 0
493 -2162 0
73 -2162 0
-493 -73 2162 0
349 -2163 0
274 -2163 0
-349 -274 2163 0
-184 -2164 0
371 -2164 0
184 -371 2164 0
407 -2165 0
-410 -2165 0
-407 410 2165 0
-138 -2166 0
49 -2166 0
138 -49 2166 0
-385 -2167 0
94 -2167 0
385 -94 2167 0
24 -2168 0
201 -2168 0
-24 -201 2168 0
71 -2169 0
-234 -2169 0
-71 234 2169 0
190 -2170 0
-198 -2170 0
-190 198 2170 0
7 -2171 0
-169 -2171 0
-7 169 2171 0
355 -2172 0
497 -2172 0
-355 -497 2172 0
400 -2173 0
358 -2173 0
-400 -358 2173 0
31 -2174 0
466 -2174 0
-31 -466 2174 0
-284 -2175 0
314 -2175 0
284 -314 2175 0
-117 -2176 0
146 -2176 0
117 -146 2176 0
124 -2177 0
-190 -2177 0
-124 190 2177 0
366 -2178 0
-453 -2178 0
-366 453 2178 0
95 -2179 0
-107 -2179 0
-95 107 2179 0
40 -2180 0
263 -2180 0
-40 -263 2180 0
122 -2181 0
169 -2181 0
-122 -169 2181 0
222 -2182 0
252 -2182 0
-222 -252 2182 0
238 -2183 0
465 -2183 0
-238 -465 2183 0
488 -2184 0
428 -2184 0
-488 -428 2184 0
-273 -2185 0
209 -2185 0
273 -209 2185 0
399 -2186 0
90 -2186 0
-399 -90 2186 0
-345 -2187 0
4 -2187 0
345 -4 2187 0
64 -2188 0
-483 -2188 0
-64 483 2188 0
32 -2189 0
-136 -2189 0
-32 136 2189 0
295 -2190 0
12 -2190 0
-295 -12 2190 0
231 -2191 0
-314 -2191 0
-231 314 2191 0
-108 -2192 0
153 -2192 0
108 -153 2192 0
135 -2193 0
-244 -2193 0
-135 244 2193 0
-434 -2194 0
179 -2194 0
434 -179 2194 0
248 -2195 0
-372 -2195 0
-248 372 2195 0
-409 -2196 0
348 -2196 0
409 -348 2196 0
496 -2197 0
-296 -2197 0
-496 296 2197 0
415 -2198 0
340 -2198 0
-415 -340 2198 0
-79 -2199 0
97 -2199 0
79 -97 2199 0
30 -2200 0
-95 -2200 0
-30 95 2200 0
263 -2201 0
-233 -2201 0
-263 233 2201 0
-114 -2202 0
3 -2202 0
114 -3 2202 0
246 -2203 0
-70 -2203 0
-246 70 2203 0
309 -2204 0
26 -2204 0
-309 -26 2204 0
328 -2205 0
499 -2205 0
-328 -499 2205 0
-122 -2206 0
362 -2206 0
122 -362 2206 0
99 -2207 0
-142 -2207 0
-99 142 2207 0
40 -2208 0
-69 -2208 0
-40 69 2208 0
186 -2209 0
-486 -2209 0
-186 486 2209 0
-419 -2210 0
4 -2210 0
419 -4 2210 0
350 -2211 0
83 -2211 0
-350 -83 2211 0
-293 -2212 0
139 -2212 0
293 -139 2212 0
144 -2213 0
54 -2213 0
-144 -54 2213 0
37 -2214 0
-413 -2214 0
-37 413 2214 0
-42 -2215 0
3 -2215 0
42 -3 2215 0
-385 -2216 0
430 -2216 0
385 -430 2216 0
-290 -2217 0
409 -2217 0
290 -409 2217 0
283 -2218 0
314 -2218 0
-283 -314 2218 0
-257 -2219 0
185 -2219 0
257 -185 2219 0
330 -2220 0
353 -2220 0
-330 -353 2220 0
-252 -2221 0
226 -2221 0
252 -226 2221 0
-257 -2222 0
412 -2222 0
257 -412 2222 0
-218 -2223 0
237 -2223 0
218 -237 2223 0
-313 -2224 0
242 -2224 0
313 -242 2224 0
-348 -2225 0
67 -2225 0
348 -67 2225 0
72 -2226 0
-360 -2226 0
-72 360 2226 0
72 -2227 0
19 -2227 0
-72 -19 2227 0
112 -2228 0
79 -2228 0
-112 -79 2228 0
309 -2229 0
-110 -2229 0
-309 110 2229 0
-242 -2230 0
35 -2230 0
242 -35 2230 0
134 -2231 0
289 -2231 0
-134 -289 2231 0
419 -2232 0
-38 -2232 0
-419 38 2232 0
407 -2233 0
1 -2233 0
-407 -1 2233 0
294 -2234 0
-180 -2234 0
-294 180 2234 0
286 -2235 0
467 -2235 0
-286 -467 2235 0
-330 -2236 0
229 -2236 0
330 -229 2236 0
-417 -2237 0
298 -2237 0
417 -298 2237 0
264 -2238 0
-292 -2238 0
-264 292 2238 0
-249 -2239 0
308 -2239 0
249 -308 2239 0
287 -2240 0
443 -2240 0
-287 -443 2240 0
-307 -2241 0
444 -2241 0
307 -444 2241 0
80 -2242 0
255 -2242 0
-80 -255 2242 0
390 -2243 0
203 -2243 0
-390 -203 2243 0
31 -2244 0
-262 -2244 0
-31 262 2244 0
264 -2245 0
-461 -2245 0
-264 461 2245 0
380 -2246 0
281 -2246 0
-380 -281 2246 0
453 -2247 0
377 -2247 0
-453 -377 2247 0
39 -2248 0
441 -2248 0
-39 -441 2248 0
343 -2249 0
-257 -2249 0
-343 257 2249 0
478 -2250 0
454 -2250 0
-478 -454 2250 0
301 -2251 0
313 -2251 0
-301 -313 2251 0
-181 -2252 0
186 -2252 0
181 -186 2252 0
-263 -2253 0
145 -2253 0
263 -145 2253 0
88 -2254 0
493 -2254 0
-88 -493 2254 0
-1 -2255 0
198 -2255 0
1 -198 2255 0
107 -2256 0
-63 -2256 0
-107 63 2256 0
254 -2257 0
-110 -2257 0
-254 110 2257 0
24 -2258 0
-108 -2258 0
-24 108 2258 0
-370 -2259 0
486 -2259 0
370 -486 2259 0
88 -2260 0
-437 -2260 0
-88 437 2260 0
447 -2261 0
146 -2261 0
-447 -146 2261 0
210 -2262 0
209 -2262 0
-210 -209 2262 0
-186 -2263 0
292 -2263 0
186 -292 2263 0
7 -2264 0
-117 -2264 0
-7 117 2264 0
55 -2265 0
-331 -2265 0
-55 331 2265 0
-26 -2266 0
210 -2266 0
26 -210 2266 0
-112 -2267 0
292 -2267 0
112 -292 2267 0
407 -2268 0
268 -2268 0
-407 -268 2268 0
246 -2269 0
164 -2269 0
-246 -164 2269 0
288 -2270 0
278 -2270 0
-288 -278 2270 0
272 -2271 0
368 -2271 0
-272 -368 2271 0
368 -2272 0
-273 -2272 0
-368 273 2272 0
-312 -2273 0
487 -2273 0
312 -487 2273 0
-466 -2274 0
417 -2274 0
466 -417 2274 0
407 -2275 0
30 -2275 0
-407 -30 2275 0
206 -2276 0
-483 -2276 0
-206 483 2276 0
-81 -2277 0
434 -2277 0
81 -434 2277 0
8 -2278 0
255 -2278 0
-8 -255 2278 0
237 -2279 0
-319 -2279 0
-237 319 2279 0
342 -2280 0
-101 -2280 0
-342 101 2280 0
334 -2281 0
221 -2281 0
-334 -221 2281 0
-496 -2282 0
206 -2282 0
496 -206 2282 0
72 -2283 0
-15 -2283 0
-72 15 2283 0
77 -2284 0
377 -2284 0
-77 -377 2284 0
491 -2285 0
169 -2285 0
-491 -169 2285 0
-152 -2286 0
157 -2286 0
152 -157 2286 0
-304 -2287 0
174 -2287 0
304 -174 2287 0
-117 -2288 0
258 -2288 0
117 -258 2288 0
448 -2289 0
-341 -2289 0
-448 341 2289 0
-460 -2290 0
372 -2290 0
460 -372 2290 0
222 -2291 0
254 -2291 0
-222 -254 2291 0
-129 -2292 0
394 -2292 0
129 -394 2292 0
344 -2293 0
-428 -2293 0
-344 428 2293 0
499 -2294 0
257 -2294 0
-499 -257 2294 0
-170 -2295 0
410 -2295 0
170 -410 2295 0
-140 -2296 0
163 -2296 0
140 -163 2296 0
454 -2297 0
-69 -2297 0
-454 69 2297 0
-64 -2298 0
36 -2298 0
64 -36 2298 0
238 -2299 0
-258 -2299 0
-238 258 2299 0
64 -2300 0
88 -2300 0
-64 -88 2300 0
-32 -2301 0
318 -2301 0
32 -318 2301 0
166 -2302 0
-43 -2302 0
-166 43 2302 0
87 -2303 0
500 -2303 0
-87 -500 2303 0
-260 -2304 0
49 -2304 0
260 -49 2304 0
-264 -2305 0
115 -2305 0
264 -115 2305 0
243 -2306 0
34 -2306 0
-243 -34 2306 0
152 -2307 0
50 -2307 0
-152 -50 2307 0
-103 -2308 0
303 -2309 0
17 -2309 0
-303 -17 2309 0
433 -2310 0
41 -2310 0
-433 -41 2310 0
-232 -2311 0
462 -2311 0
232 -462 2311 0
331 -2312 0
-7 -2312 0
-331 7 2312 0
-216 -2313 0
459 -2313 0
216 -459 2313 0
343 -2314 0
-478 -2314 0
-343 478 2314 0
-64 -2315 0
353 -2315 0
64 -353 2315 0
-256 -2316 0
157 -2316 0
256 -157 2316 0
86 -2317 0
155 -2317 0
-86 -155 2317 0
-68 -2318 0
466 -2318 0
68 -466 2318 0
286 -2319 0
246 -2319 0
-286 -246 2319 0
-354 -2320 0
473 -2320 0
354 -473 2320 0
232 -2321 0
172 -2321 0
-232 -172 2321 0
234 -2322 0
169 -2322 0
-234 -169 2322 0
303 -2323 0
500 -2323 0
-303 -500 2323 0
470 -2324 0
-54 -2324 0
-470 54 2324 0
213 -2325 0
-262 -2325 0
-213 262 2325 0
150 -2326 0
-277 -2326 0
-150 277 2326 0
-241 -2327 0
452 -2327 0
241 -452 2327 0
262 -2328 0
145 -2328 0
-262 -145 2328 0
160 -2329 0
263 -2329 0
-160 -263 2329 0
140 -2330 0
364 -2330 0
-140 -364 2330 0
-482 -2331 0
145 -2331 0
482 -145 2331 0
448 -2332 0
-29 -2332 0
-448 29 2332 0
-432 -2333 0
404 -2333 0
432 -404 2333 0
471 -2334 0
-55 -2334 0
-471 55 2334 0
183 -2335 0
325 -2335 0
-183 -325 2335 0
262 -2336 0
276 -2336 0
-262 -276 2336 0
151 -2337 0
12 -2337 0
-151 -12 2337 0
-116 -2338 0
90 -2338 0
116 -90 2338 0
338 -2339 0
-406 -2339 0
-338 406 2339 0
384 -2340 0
-198 -2340 0
-384 198 2340 0
365 -2341 0
-295 -2341 0
-365 295 2341 0
454 -2342 0
497 -2342 0
-454 -497 2342 0
96 -2343 0
353 -2343 0
-96 -353 2343 0
285 -2344 0
289 -2344 0
-285 -289 2344 0
-376 -2345 0
385 -2345 0
376 -385 2345 0
278 -2346 0
-130 -2346 0
-278 130 2346 0
190 -2347 0
33 -2347 0
-190 -33 2347 0
-325 -2348 0
306 -2348 0
325 -306 2348 0
93 -2349 0
-119 -2349 0
-93 119 2349 0
408 -2350 0
401 -2350 0
-408 -401 2350 0
422 -2351 0
-195 -2351 0
-422 195 2351 0
100 -2352 0
498 -2352 0
-100 -498 2352 0
162 -2353 0
282 -2353 0
-162 -282 2353 0
318 -2354 0
-27 -2354 0
-318 27 2354 0
-256 -2355 0
295 -2355 0
256 -295 2355 0
488 -2356 0
-402 -2356 0
-488 402 2356 0
246 -2357 0
466 -2357 0
-246 -466 2357 0
29 -2358 0
250 -2358 0
-29 -250 2358 0
157 -2359 0
49 -2359 0
-157 -49 2359 0
180 -2360 0
393 -2360 0
-180 -393 2360 0
-429 -2361 0
457 -2361 0
429 -457 2361 0
-120 -2362 0
490 -2362 0
120 -490 2362 0
-347 -2363 0
365 -2363 0
347 -365 2363 0
238 -2364 0
-341 -2364 0
-238 341 2364 0
357 -2365 0
-94 -2365 0
-357 94 2365 0
263 -2366 0
-53 -2366 0
-263 53 2366 0
194 -2367 0
282 -2367 0
-194 -282 2367 0
269 -2368 0
475 -2368 0
-269 -475 2368 0
-227 -2369 0
401 -2369 0
227 -401 2369 0
160 -2370 0
-143 -2370 0
-160 143 2370 0
205 -2371 0
420 -2371 0
-205 -420 2371 0
178 -2372 0
17 -2372 0
-178 -17 2372 0
-106 -2373 0
146 -2373 0
106 -146 2373 0
-16 -2374 0
224 -2374 0
16 -224 2374 0
224 -2375 0
461 -2375 0
-224 -461 2375 0
120 -2376 0
-261 -2376 0
-120 261 2376 0
350 -2377 0
-451 -2377 0
-350 451 2377 0
29 -2378 0
-388 -2378 0
-29 388 2378 0
119 -2379 0
315 -2379 0
-119 -315 2379 0
-170 -2380 0
78 -2380 0
170 -78 2380 0
-20 -2381 0
203 -2381 0
20 -203 2381 0
-401 -2382 0
397 -2382 0
401 -397 2382 0
458 -2383 0
257 -2383 0
-458 -257 2383 0
236 -2384 0
-310 -2384 0
-236 310 2384 0
-459 -2385 0
337 -2385 0
459 -337 2385 0
349 -2386 0
476 -2386 0
-349 -476 2386 0
327 -2387 0
-53 -2387 0
-327 53 2387 0
392 -2388 0
-203 -2388 0
-392 203 2388 0
-12 -2389 0
473 -2389 0
12 -473 2389 0
463 -2390 0
-497 -2390 0
-463 497 2390 0
470 -2391 0
52 -2391 0
-470 -52 2391 0
56 -2392 0
251 -2392 0
-56 -251 2392 0
488 -2393 0
233 -2393 0
-488 -233 2393 0
-37 -2394 0
162 -2394 0
37 -162 2394 0
-10 -2395 0
50 -2395 0
10 -50 2395 0
35 -2396 0
-262 -2396 0
-35 262 2396 0
398 -2397 0
-286 -2397 0
-398 286 2397 0
416 -2398 0
-280 -2398 0
-416 280 2398 0
270 -2399 0
308 -2399 0
-270 -308 2399 0
-129 -2400 0
169 -2400 0
129 -169 2400 0
61 -2401 0
-23 -2401 0
-61 23 2401 0
55 -2402 0
-234 -2402 0
-55 234 2402 0
-80 -2403 0
91 -2403 0
80 -91 2403 0
-499 -2404 0
210 -2404 0
499 -210 2404 0
293 -2405 0
193 -2405 0
-293 -193 2405 0
262 -2406 0
443 -2406 0
-262 -443 2406 0
1 -2407 0
217 -2407 0
-1 -217 2407 0
173 -2408 0
-37 -2408 0
-173 37 2408 0
120 -2409 0
11 -2409 0
-120 -11 2409 0
328 -2410 0
-470 -2410 0
-328 470 2410 0
40 -2411 0
261 -2411 0
-40 -261 2411 0
-97 -2412 0
333 -2412 0
97 -333 2412 0
78 -2413 0
458 -2413 0
-78 -458 2413 0
64 -2414 0
-246 -2414 0
-64 246 2414 0
-258 -2415 0
421 -2415 0
258 -421 2415 0
373 -2416 0
53 -2416 0
-373 -53 2416 0
-424 -2417 0
368 -2417 0
424 -368 2417 0
-414 -2418 0
481 -2418 0
414 -481 2418 0
367 -2419 0
236 -2419 0
-367 -236 2419 0
423 -2420 0
-321 -2420 0
-423 321 2420 0
181 -2421 0
307 -2421 0
-181 -307 2421 0
-264 -2422 0
90 -2422 0
264 -90 2422 0
378 -2423 0
434 -2423 0
-378 -434 2423 0
493 -2424 0
-253 -2424 0
-493 253 2424 0
148 -2425 0
-429 -2425 0
-148 429 2425 0
232 -2426 0
180 -2426 0
-232 -180 2426 0
15 -2427 0
305 -2427 0
-15 -305 2427 0
-411 -2428 0
372 -2428 0
411 -372 2428 0
336 -2429 0
-292 -2429 0
-336 292 2429 0
99 -2430 0
-255 -2430 0
-99 255 2430 0
302 -2431 0
210 -2431 0
-302 -210 2431 0
480 -2432 0
415 -2432 0
-480 -415 2432 0
99 -2433 0
-375 -2433 0
-99 375 2433 0
485 -2434 0
433 -2434 0
-485 -433 2434 0
-445 -2435 0
83 -2435 0
445 -83 2435 0
40 -2436 0
-46 -2436 0
-40 46 2436 0
-423 -2437 0
57 -2437 0
423 -57 2437 0
-321 -2438 0
22 -2438 0
321 -22 2438 0
78 -2439 0
-459 -2439 0
-78 459 2439 0
-129 -2440 0
261 -2440 0
129 -261 2440 0
223 -2441 0
479 -2441 0
-223 -479 2441 0
-225 -2442 0
366 -2442 0
225 -366 2442 0
262 -2443 0
254 -2443 0
-262 -254 2443 0
-145 -2444 0
313 -2444 0
145 -313 2444 0
160 -2445 0
413 -2445 0
-160 -413 2445 0
283 -2446 0
42 -2446 0
-283 -42 2446 0
352 -2447 0
430 -2447 0
-352 -430 2447 0
-402 -2448 0
67 -2448 0
402 -67 2448 0
400 -2449 0
211 -2449 0
-400 -211 2449 0
-412 -2450 0
444 -2450 0
412 -444 2450 0
197 -2451 0
201 -2451 0
-197 -201 2451 0
334 -2452 0
437 -2452 0
-334 -437 2452 0
86 -2453 0
-189 -2453 0
-86 189 2453 0
447 -2454 0
-348 -2454 0
-447 348 2454 0
369 -2455 0
-495 -2455 0
-369 495 2455 0
23 -2456 0
-452 -2456 0
-23 452 2456 0
38 -2457 0
-6 -2457 0
-38 6 2457 0
-200 -2458 0
115 -2458 0
200 -115 2458 0
-304 -2459 0
342 -2459 0
304 -342 2459 0
219 -2460 0
186 -2460 0
-219 -186 2460 0
-169 -2461 0
341 -2461 0
169 -341 2461 0
-208 -2462 0
1 -2462 0
208 -1 2462 0
-416 -2463 0
273 -2463 0
416 -273 2463 0
-214 -2464 0
377 -2464 0
214 -377 2464 0
-122 -2465 0
292 -2465 0
122 -292 2465 0
343 -2466 0
-385 -2466 0
-343 385 2466 0
104 -2467 0
42 -2467 0
-104 -42 2467 0
463 -2468 0
276 -2468 0
-463 -276 2468 0
303 -2469 0
-156 -2469 0
-303 156 2469 0
207 -2470 0
178 -2470 0
-207 -178 2470 0
95 -2471 0
-60 -2471 0
-95 60 2471 0
295 -2472 0
417 -2472 0
-295 -417 2472 0
189 -2473 0
236 -2473 0
-189 -236 2473 0
464 -2474 0
307 -2474 0
-464 -307 2474 0
183 -2475 0
321 -2475 0
-183 -321 2475 0
-275 -2476 0
29 -2476 0
275 -29 2476 0
309 -2477 0
217 -2477 0
-309 -217 2477 0
127 -2478 0
457 -2478 0
-127 -457 2478 0
8 -2479 0
50 -2479 0
-8 -50 2479 0
-473 -2480 0
459 -2480 0
473 -459 2480 0
264 -2481 0
-194 -2481 0
-264 194 2481 0
181 -2482 0
-29 -2482 0
-181 29 2482 0
415 -2483 0
-57 -2484 0
133 -2484 0
57 -133 2484 0
-307 -2485 0
426 -2485 0
307 -426 2485 0
-421 -2486 0
290 -2486 0
421 -290 2486 0
394 -2487 0
-159 -2487 0
-394 159 2487 0
12 -2488 0
-143 -2488 0
-12 143 2488 0
-419 -2489 0
188 -2489 0
419 -188 2489 0
128 -2490 0
-137 -2490 0
-128 137 2490 0
-330 -2491 0
146 -2491 0
330 -146 2491 0
-273 -2492 0
139 -2492 0
273 -139 2492 0
307 -2493 0
283 -2493 0
-307 -283 2493 0
-265 -2494 0
141 -2494 0
265 -141 2494 0
324 -2495 0
436 -2495 0
-324 -436 2495 0
452 -2496 0
107 -2496 0
-452 -107 2496 0
-448 -2497 0
451 -2497 0
448 -451 2497 0
344 -2498 0
265 -2498 0
-344 -265 2498 0
-373 -2499 0
34 -2499 0
373 -34 2499 0
482 -2500 0
113 -2500 0
-482 -113 2500 0
437 -2501 0
241 -2501 0
-437 -241 2501 0
166 -2502 0
-231 -2502 0
-166 231 2502 0
179 -2503 0
-437 -2503 0
-179 437 2503 0
339 -2504 0
-143 -2504 0
-339 143 2504 0
-264 -2505 0
299 -2505 0
264 -299 2505 0
308 -2506 0
499 -2506 0
-308 -499 2506 0
-366 -2507 0
314 -2507 0
366 -314 2507 0
-488 -2508 0
368 -2508 0
488 -368 2508 0
-243 -2509 0
60 -2509 0
243 -60 2509 0
279 -2510 0
397 -2510 0
-279 -397 2510 0
397 -2511 0
-47 -2511 0
-397 47 2511 0
58 -2512 0
-206 -2512 0
-58 206 2512 0
88 -2513 0
451 -2513 0
-88 -451 2513 0
66 -2514 0
490 -2514 0
-66 -490 2514 0
-60 -2515 0
98 -2515 0
60 -98 2515 0
-288 -2516 0
491 -2516 0
288 -491 2516 0
183 -2517 0
425 -2517 0
-183 -425 2517 0
-347 -2518 0
105 -2518 0
347 -105 2518 0
271 -2519 0
380 -2519 0
-271 -380 2519 0
-434 -2520 0
365 -2520 0
434 -365 2520 0
408 -2521 0
34 -2521 0
-408 -34 2521 0
-109 -2522 0
34 -2522 0
109 -34 2522 0
160 -2523 0
-489 -2523 0
-160 489 2523 0
-160 -2524 0
335 -2524 0
160 -335 2524 0
-245 -2525 0
418 -2525 0
245 -418 2525 0
364 -2526 0
425 -2526 0
-364 -425 2526 0
30 -2527 0
-61 -2527 0
-30 61 2527 0
430 -2528 0
290 -2528 0
-430 -290 2528 0
172 -2529 0
433 -2529 0
-172 -433 2529 0
109 -2530 0
-93 -2530 0
-109 93 2530 0
231 -2531 0
-217 -2531 0
-231 217 2531 0
-440 -2532 0
205 -2532 0
440 -205 2532 0
344 -2533 0
-482 -2533 0
-344 482 2533 0
-393 -2534 0
399 -2534 0
393 -399 2534 0
407 -2535 0
404 -2535 0
-407 -404 2535 0
37 -2536 0
-302 -2536 0
-37 302 2536 0
357 -2537 0
-412 -2537 0
-357 412 2537 0
-389 -2538 0
442 -2538 0
389 -442 2538 0
-123 -2539 0
490 -2539 0
123 -490 2539 0
-464 -2540 0
341 -2540 0
464 -341 2540 0
-437 -2541 0
18 -2541 0
437 -18 2541 0
397 -2542 0
301 -2542 0
-397 -301 2542 0
-353 -2543 0
316 -2543 0
353 -316 2543 0
-442 -2544 0
89 -2544 0
442 -89 2544 0
273 -2545 0
321 -2545 0
-273 -321 2545 0
-418 -2546 0
340 -2546 0
418 -340 2546 0
424 -2547 0
-423 -2547 0
-424 423 2547 0
-411 -2548 0
42 -2548 0
411 -42 2548 0
320 -2549 0
-36 -2549 0
-320 36 2549 0
351 -2550 0
-230 -2550 0
-351 230 2550 0
68 -2551 0
-12 -2551 0
-68 12 2551 0
429 -2552 0
109 -2552 0
-429 -109 2552 0
-67 -2553 0
117 -2553 0
67 -117 2553 0
-56 -2554 0
314 -2554 0
56 -314 2554 0
-176 -2555 0
304 -2555 0
176 -304 2555 0
312 -2556 0
113 -2556 0
-312 -113 2556 0
253 -2557 0
-109 -2557 0
-253 109 2557 0
293 -2558 0
353 -2558 0
-293 -353 2558 0
-393 -2559 0
217 -2559 0
393 -217 2559 0
-21 -2560 0
155 -2560 0
21 -155 2560 0
263 -2561 0
93 -2561 0
-263 -93 2561 0
-426 -2562 0
17 -2562 0
426 -17 2562 0
112 -2563 0
-353 -2563 0
-112 353 2563 0
-49 -2564 0
300 -2564 0
49 -300 2564 0
-26 -2565 0
474 -2565 0
26 -474 2565 0
208 -2566 0
270 -2566 0
-208 -270 2566 0
-225 -2567 0
66 -2567 0
225 -66 2567 0
-382 -2568 0
58 -2568 0
382 -58 2568 0
269 -2569 0
-207 -2569 0
-269 207 2569 0
-388 -2570 0
266 -2570 0
388 -266 2570 0
446 -2571 0
147 -2571 0
-446 -147 2571 0
-164 -2572 0
410 -2572 0
164 -410 2572 0
184 -2573 0
-177 -2573 0
-184 177 2573 0
86 -2574 0
-131 -2574 0
-86 131 2574 0
103 -2575 0
114 -2575 0
-103 -114 2575 0
-372 -2576 0
299 -2576 0
372 -299 2576 0
-99 -2577 0
229 -2577 0
99 -229 2577 0
114 -2578 0
-262 -2578 0
-114 262 2578 0
149 -2579 0
-94 -2579 0
-149 94 2579 0
128 -2580 0
286 -2580 0
-128 -286 2580 0
8 -2581 0
94 -2581 0
-8 -94 2581 0
-204 -2582 0
459 -2582 0
204 -459 2582 0
293 -2583 0
10 -2583 0
-293 -10 2583 0
39 -2584 0
404 -2584 0
-39 -404 2584 0
38 -2585 0
12 -2585 0
-38 -12 2585 0
-415 -2586 0
249 -2586 0
415 -249 2586 0
-321 -2587 0
174 -2587 0
321 -174 2587 0
159 -2588 0
-418 -2588 0
-159 418 2588 0
11 -2589 0
-158 -2589 0
-11 158 2589 0
318 -2590 0
-182 -2590 0
-318 182 2590 0
383 -2591 0
-463 -2591 0
-383 463 2591 0
8 -2592 0
265 -2592 0
-8 -265 2592 0
470 -2593 0
-221 -2593 0
-470 221 2593 0
-482 -2594 0
305 -2594 0
482 -305 2594 0
-440 -2595 0
239 -2595 0
440 -239 2595 0
144 -2596 0
410 -2596 0
-144 -410 2596 0
356 -2597 0
-7 -2597 0
-356 7 2597 0
8 -2598 0
-35 -2598 0
-8 35 2598 0
213 -2599 0
442 -2599 0
-213 -442 2599 0
-456 -2600 0
411 -2600 0
456 -411 2600 0
196 -2601 0
465 -2601 0
-196 -465 2601 0
416 -2602 0
-464 -2602 0
-416 464 2602 0
440 -2603 0
146 -2603 0
-440 -146 2603 0
244 -2604 0
-430 -2604 0
-244 430 2604 0
-37 -2605 0
130 -2605 0
37 -130 2605 0
-344 -2606 0
352 -2606 0
344 -352 2606 0
437 -2607 0
-316 -2607 0
-437 316 2607 0
390 -2608 0
-339 -2608 0
-390 339 2608 0
89 -2609 0
-231 -2609 0
-89 231 2609 0
254 -2610 0
477 -2610 0
-254 -477 2610 0
54 -2611 0
34 -2611 0
-54 -34 2611 0
214 -2612 0
-309 -2612 0
-214 309 2612 0
317 -2613 0
201 -2613 0
-317 -201 2613 0
469 -2614 0
-422 -2614 0
-469 422 2614 0
-394 -2615 0
157 -2615 0
394 -157 2615 0
373 -2616 0
362 -2616 0
-373 -362 2616 0
46 -2617 0
-58 -2617 0
-46 58 2617 0
372 -2618 0
-407 -2618 0
-372 407 2618 0
311 -2619 0
150 -2619 0
-311 -150 2619 0
370 -2620 0
137 -2620 0
-370 -137 2620 0
-408 -2621 0
4 -2621 0
408 -4 2621 0
392 -2622 0
-40 -2622 0
-392 40 2622 0
463 -2623 0
442 -2623 0
-463 -442 2623 0
-368 -2624 0
38 -2624 0
368 -38 2624 0
280 -2625 0
218 -2625 0
-280 -218 2625 0
-466 -2626 0
180 -2626 0
466 -180 2626 0
349 -2627 0
-492 -2627 0
-349 492 2627 0
367 -2628 0
243 -2628 0
-367 -243 2628 0
63 -2629 0
438 -2629 0
-63 -438 2629 0
478 -2630 0
-115 -2630 0
-478 115 2630 0
312 -2631 0
-465 -2631 0
-312 465 2631 0
-201 -2632 0
155 -2632 0
201 -155 2632 0
-464 -2633 0
476 -2633 0
464 -476 2633 0
-89 -2634 0
279 -2634 0
89 -279 2634 0
424 -2635 0
70 -2635 0
-424 -70 2635 0
320 -2636 0
-451 -2636 0
-320 451 2636 0
260 -2637 0
-391 -2637 0
-260 391 2637 0
111 -2638 0
305 -2638 0
-111 -305 2638 0
464 -2639 0
-265 -2639 0
-464 265 2639 0
107 -2640 0
-31 -2640 0
-107 31 2640 0
-466 -2641 0
355 -2641 0
466 -355 2641 0
-461 -2642 0
89 -2642 0
461 -89 2642 0
168 -2643 0
-21 -2643 0
-168 21 2643 0
-264 -2644 0
393 -2644 0
264 -393 2644 0
178 -2645 0
18 -2645 0
-178 -18 2645 0
-298 -2646 0
414 -2646 0
298 -414 2646 0
352 -2647 0
415 -2647 0
-352 -415 2647 0
-223 -2648 0
17 -2648 0
223 -17 2648 0
475 -2649 0
-7 -2649 0
-475 7 2649 0
84 -2650 0
-12 -2650 0
-84 12 2650 0
431 -2651 0
76 -2651 0
-431 -76 2651 0
184 -2652 0
-423 -2652 0
-184 423 2652 0
117 -2653 0
-403 -2653 0
-117 403 2653 0
-136 -2654 0
191 -2654 0
136 -191 2654 0
-488 -2655 0
233 -2655 0
488 -233 2655 0
-212 -2656 0
92 -2656 0
212 -92 2656 0
280 -2657 0
-282 -2657 0
-280 282 2657 0
-49 -2658 0
343 -2658 0
49 -343 2658 0
470 -2659 0
-205 -2659 0
-470 205 2659 0
73 -2660 0
433 -2660 0
-73 -433 2660 0
216 -2661 0
54 -2661 0
-216 -54 2661 0
317 -2662 0
-428 -2662 0
-317 428 2662 0
429 -2663 0
-131 -2663 0
-429 131 2663 0
-260 -2664 0
65 -2664 0
260 -65 2664 0
415 -2665 0
261 -2665 0
-415 -261 2665 0
165 -2666 0
75 -2666 0
-165 -75 2666 0
166 -2667 0
-395 -2667 0
-166 395 2667 0
280 -2668 0
-492 -2668 0
-280 492 2668 0
383 -2669 0
108 -2669 0
-383 -108 2669 0
423 -2670 0
-114 -2670 0
-423 114 2670 0
134 -2671 0
-389 -2671 0
-134 389 2671 0
437 -2672 0
-125 -2672 0
-437 125 2672 0
-448 -2673 0
165 -2673 0
448 -165 2673 0
479 -2674 0
230 -2674 0
-479 -230 2674 0
170 -2675 0
153 -2675 0
-170 -153 2675 0
303 -2676 0
49 -2676 0
-303 -49 2676 0
336 -2677 0
-364 -2677 0
-336 364 2677 0
414 -2678 0
-392 -2679 0
244 -2679 0
392 -244 2679 0
359 -2680 0
-213 -2680 0
-359 213 2680 0
22 -2681 0
-222 -2681 0
-22 222 2681 0
302 -2682 0
-300 -2682 0
-302 300 2682 0
-300 -2683 0
43 -2683 0
300 -43 2683 0
103 -2684 0
281 -2684 0
-103 -281 2684 0
-368 -2685 0
124 -2685 0
368 -124 2685 0
-86 -2686 0
329 -2686 0
86 -329 2686 0
118 -2687 0
389 -2687 0
-118 -389 2687 0
455 -2688 0
-244 -2688 0
-455 244 2688 0
123 -2689 0
-375 -2689 0
-123 375 2689 0
12 -2690 0
-308 -2690 0
-12 308 2690 0
374 -2691 0
260 -2691 0
-374 -260 2691 0
6 -2692 0
-388 -2692 0
-6 388 2692 0
68 -2693 0
-350 -2693 0
-68 350 2693 0
-121 -2694 0
143 -2694 0
121 -143 2694 0
363 -2695 0
-133 -2695 0
-363 133 2695 0
310 -2696 0
-86 -2696 0
-310 86 2696 0
227 -2697 0
-118 -2697 0
-227 118 2697 0
247 -2698 0
-53 -2698 0
-247 53 2698 0
72 -2699 0
243 -2699 0
-72 -243 2699 0
86 -2700 0
-439 -2700 0
-86 439 2700 0
479 -2701 0
-293 -2701 0
-479 293 2701 0
-300 -2702 0
410 -2702 0
300 -410 2702 0
320 -2703 0
-331 -2703 0
-320 331 2703 0
423 -2704 0
-77 -2704 0
-423 77 2704 0
103 -2705 0
-236 -2705 0
-103 236 2705 0
165 -2706 0
-484 -2706 0
-165 484 2706 0
8 -2707 0
296 -2707 0
-8 -296 2707 0
193 -2708 0
97 -2708 0
-193 -97 2708 0
132 -2709 0
281 -2709 0
-132 -281 2709 0
-169 -2710 0
101 -2710 0
169 -101 2710 0
-62 -2711 0
394 -2711 0
62 -394 2711 0
156 -2712 0
-318 -2712 0
-156 318 2712 0
-177 -2713 0
268 -2713 0
177 -268 2713 0
-272 -2714 0
220 -2714 0
272 -220 2714 0
373 -2715 0
394 -2715 0
-373 -394 2715 0
79 -2716 0
-399 -2716 0
-79 399 2716 0
-202 -2717 0
130 -2717 0
202 -130 2717 0
-490 -2718 0
27 -2718 0
490 -27 2718 0
-331 -2719 0
292 -2719 0
331 -292 2719 0
56 -2720 0
-175 -2720 0
-56 175 2720 0
-365 -2721 0
457 -2721 0
365 -457 2721 0
487 -2722 0
-78 -2722 0
-487 78 2722 0
121 -2723 0
17 -2723 0
-121 -17 2723 0
427 -2724 0
89 -2724 0
-427 -89 2724 0
338 -2725 0
273 -2725 0
-338 -273 2725 0
-301 -2726 0
378 -2726 0
301 -378 2726 0
-104 -2727 0
373 -2727 0
104 -373 2727 0
167 -2728 0
-115 -2728 0
-167 115 2728 0
420 -2729 0
258 -2729 0
-420 -258 2729 0
99 -2730 0
-455 -2730 0
-99 455 2730 0
400 -2731 0
-269 -2731 0
-400 269 2731 0
187 -2732 0
49 -2732 0
-187 -49 2732 0
396 -2733 0
-52 -2733 0
-396 52 2733 0
-297 -2734 0
441 -2734 0
297 -441 2734 0
-392 -2735 0
96 -2735 0
392 -96 2735 0
-302 -2736 0
57 -2736 0
302 -57 2736 0
270 -2737 0
28 -2737 0
-270 -28 2737 0
292 -2738 0
-15 -2738 0
-292 15 2738 0
-417 -2739 0
79 -2739 0
417 -79 2739 0
176 -2740 0
-163 -2740 0
-176 163 2740 0
148 -2741 0
233 -2741 0
-148 -233 2741 0
447 -2742 0
68 -2742 0
-447 -68 2742 0
391 -2743 0
179 -2743 0
-391 -179 2743 0
398 -2744 0
-139 -2744 0
-398 139 2744 0
31 -2745 0
-474 -2745 0
-31 474 2745 0
-209 -2746 0
486 -2746 0
209 -486 2746 0
23 -2747 0
126 -2747 0
-23 -126 2747 0
207 -2748 0
247 -2748 0
-207 -247 2748 0
163 -2749 0
411 -2749 0
-163 -411 2749 0
237 -2750 0
-307 -2750 0
-237 307 2750 0
206 -2751 0
267 -2751 0
-206 -267 2751 0
-384 -2752 0
116 -2752 0
384 -116 2752 0
-483 -2753 0
292 -2753 0
483 -292 2753 0
79 -2754 0
-118 -2754 0
-79 118 2754 0
88 -2755 0
-215 -2755 0
-88 215 2755 0
222 -2756 0
-439 -2756 0
-222 439 2756 0
28 -2757 0
234 -2757 0
-28 -234 2757 0
232 -2758 0
-461 -2758 0
-232 461 2758 0
121 -2759 0
361 -2759 0
-121 -361 2759 0
350 -2760 0
50 -2760 0
-350 -50 2760 0
-369 -2761 0
5 -2761 0
369 -5 2761 0
180 -2762 0
338 -2762 0
-180 -338 2762 0
456 -2763 0
357 -2763 0
-456 -357 2763 0
-458 -2764 0
396 -2764 0
458 -396 2764 0
