p cnf 20 68
-12 -2 0
18 0
-8 2 -4 0
-8 16 4 0
-3 7 0
-2 0
-3 -6 -19 0
-16 -13 -17 0
1 2 -11 9 0
-3 12 -11 -18 0
1 -12 -9 0
10 -4 0
8 20 -12 0
8 18 -20 14 0
16 19 -20 7 0
-16 10 14 0
-3 0
13 -10 -9 0
17 -11 -10 0
-1 0
19 2 -13 0
-7 3 -4 0
-15 -13 -1 -17 0
16 -19 -2 -17 0
-14 5 -10 -9 0
4 -2 0
16 -11 6 0
-20 0
-4 0
-16 6 0
2 -3 0
-8 3 -1 0
9 -5 6 1 0
1 7 -20 -17 0
-5 14 -18 -10 0
-3 13 0
16 -5 14 -9 0
-15 0
9 18 -13 0
-8 -19 0
17 -19 -20 12 0
-10 -17 0
-11 6 14 0
-6 -5 0
12 -11 0
-19 -18 0
-8 -5 -1 0
2 3 -18 -1 0
-17 0
-6 -18 0
3 -17 0
-2 15 0
9 -11 -3 13 0
13 -9 0
-13 -2 -9 0
-6 0
-12 0
18 5 0
16 -14 -12 0
-8 -20 -4 0
-19 0
19 -10 0
16 -6 -13 15 0
-6 3 13 0
8 -6 3 5 0
16 17 -5 -4 0
-6 5 0
2 11 -3 0
