p cnf 1000 31030
-599 0
681 -746 0
-326 558 0
-926 -116 0
-829 0
-607 2 0
-804 0
-283 0
-384 -447 0
-960 391 0
-85 0
-730 0
-901 0
-494 527 0
-166 859 0
-522 759 0
-167 0
-674 0
-893 0
-536 0
-343 -365 0
-739 0
-113 0
937 -574 0
395 -860 0
561 -741 0
697 -105 0
-748 791 0
-931 0
669 -353 0
-724 -185 0
-448 -77 0
-412 -43 0
-421 -635 0
-683 0
-206 291 0
-432 -733 0
-23 -67 0
-358 506 0
-761 0
-252 0
-605 823 0
-277 0
-44 0
442 -723 0
-364 -385 0
-270 -612 0
-128 783 0
650 -484 0
-880 0
-392 -550 0
-406 -788 0
-872 0
-667 247 0
-32 -731 0
-602 0
81 -797 0
-536 -182 0
-261 0
-65 0
-726 813 0
339 -732 0
-779 109 0
-608 459 0
-924 231 0
438 -17 0
548 -426 0
904 -856 0
817 -980 0
228 -963 0
289 -388 0
-800 0
-144 -898 0
-32 0
-387 -211 0
504 -329 0
-613 0
-648 332 0
-877 -387 0
-663 298 0
-964 0
824 -513 0
-380 0
322 -518 0
-876 -762 0
-814 0
-422 0
-907 0
-110 0
-480 64 0
-270 76 0
-385 0
-351 156 0
-672 -142 0
765 -339 0
440 -248 0
-440 -277 0
-645 -818 0
852 -778 0
-179 718 0
-555 0
-989 324 0
-436 -121 0
414 -857 0
-51 710 0
-707 0
-447 779 0
-555 -577 0
-152 53 0
-290 6 0
184 -46 0
-36 0
-519 166 0
560 -827 0
-348 0
-233 0
-289 0
994 -707 0
-96 -784 0
-595 0
-495 0
-840 -661 0
-967 134 0
-959 -865 0
-528 -201 0
-794 0
178 -20 0
-756 -66 0
-904 0
-802 0
-864 748 0
-438 -221 0
304 -76 0
-478 0
-310 765 0
997 -297 0
-227 -937 0
168 -121 0
-636 0
-272 0
-50 0
-736 -181 0
-519 0
-253 0
328 -63 0
-975 0
-702 909 0
-236 0
-505 0
-713 0
-807 0
-363 118 0
-13 -883 0
-96 -668 0
-64 0
726 -753 0
-516 -601 0
546 -361 0
-118 246 0
711 -657 0
-648 0
26 -405 0
-818 0
-736 90 0
-548 0
-87 0
-199 0
-599 575 0
392 -853 0
-935 625 0
-330 0
-181 0
-286 0
-307 -705 0
-437 0
-721 0
-244 -561 0
-237 956 0
-939 0
-300 356 0
394 -933 0
-71 746 0
-172 0
-952 -78 0
-949 -250 0
-184 -126 0
-305 -561 0
330 -698 0
279 -753 0
-547 0
722 -515 0
-416 -902 0
-725 -634 0
-636 -601 0
-392 -474 0
-371 0
860 -251 0
-781 0
-431 0
-300 0
-195 0
-337 0
-245 902 0
-702 -756 0
-685 519 0
-246 0
-768 540 0
-488 -92 0
760 -480 0
-61 0
-911 291 0
-523 -866 0
188 -83 0
-728 -759 0
216 -295 0
-271 0
-385 -209 0
-135 0
-18 0
-314 0
-421 0
624 -46 0
-525 -20 0
-888 731 0
265 -702 0
-479 0
-136 840 0
616 -875 0
-390 0
-144 0
-296 759 0
845 -809 0
-774 0
-917 -971 0
-507 0
-127 770 0
-212 0
26 -878 0
-528 366 0
-669 0
-56 666 0
-913 0
-608 891 0
-95 0
512 -604 0
-852 -345 0
-205 0
-207 887 0
-757 -802 0
-985 0
-416 -781 0
-74 87 0
-74 279 0
-506 0
-149 764 0
-751 -83 0
-558 -749 0
-123 0
-532 0
-856 -349 0
672 -470 0
-936 -267 0
-93 0
-67 278 0
403 -581 0
-566 338 0
-203 0
-716 -780 0
-150 -836 0
829 -194 0
-750 -497 0
-528 -341 0
-591 -970 0
-216 -320 0
-548 0
-5 -266 0
-791 0
-217 0
-876 0
272 -541 0
382 -921 0
-37 -898 0
-580 0
-228 0
-136 804 0
-292 -187 0
-611 909 0
-426 0
24 -644 0
-628 365 0
-70 -853 0
-93 0
-798 791 0
283 -340 0
-243 711 0
-944 0
945 -199 0
131 -605 0
-195 0
-648 0
-798 869 0
-757 0
538 -610 0
-432 585 0
-682 0
-838 0
-840 -331 0
-197 517 0
940 -131 0
-624 0
220 -564 0
-541 302 0
616 -561 0
956 -866 0
496 -1000 0
-262 299 0
-54 652 0
488 -869 0
-494 0
-755 0
-798 -3 0
-439 0
-262 0
-237 0
-137 687 0
-643 -522 0
-658 183 0
-810 0
-468 0
-674 -82 0
455 -33 0
-93 -947 0
-680 0
-339 0
18 -443 0
-685 0
-856 -493 0
-657 0
-797 966 0
-180 0
-204 661 0
-9 -449 0
-112 -837 0
-48 0
-636 -803 0
-343 338 0
-381 -845 0
-367 0
-848 0
-639 98 0
-526 566 0
-615 0
-532 0
615 -513 0
187 -49 0
-648 -521 0
17 -294 0
-224 0
-687 943 0
-255 -718 0
-878 -681 0
-80 74 0
840 -350 0
-739 295 0
254 -537 0
-869 -66 0
-454 0
-31 -483 0
475 -161 0
-990 0
-154 0
-859 -121 0
-919 -460 0
725 -83 0
932 -217 0
-563 -721 0
395 -74 0
-96 826 0
-107 0
-608 674 0
-173 733 0
634 -950 0
-604 -131 0
-23 0
-698 0
-845 -621 0
14 -577 0
-748 629 0
808 -849 0
-427 0
-5 719 0
-487 899 0
-487 0
-242 0
-791 0
33 -635 0
-544 0
81 -641 0
-711 0
233 -299 0
405 -105 0
-870 885 0
-82 -930 0
269 -322 0
-439 133 0
-751 -437 0
-300 556 0
-957 0
-933 0
217 -637 0
-2 0
-928 315 0
390 -906 0
105 -659 0
-496 -321 0
-594 0
-804 -995 0
-988 0
-703 0
-538 0
563 -298 0
-936 0
-846 -804 0
-570 0
-429 0
-361 -321 0
-973 0
411 -937 0
-391 221 0
-862 0
-665 0
986 -205 0
-191 -188 0
-728 0
-222 0
368 -692 0
-559 0
-647 0
-256 777 0
-829 77 0
-898 0
-266 0
-535 -353 0
-232 345 0
-503 -669 0
-3 0
-78 0
-919 707 0
-421 -301 0
-504 434 0
-139 0
-261 -425 0
-997 -100 0
-796 0
-662 797 0
-197 591 0
722 -251 0
-734 0
-40 0
-320 283 0
-299 -161 0
-727 -534 0
-470 0
-328 0
-184 321 0
-620 0
-48 0
-505 0
-626 -425 0
1 -129 0
-202 0
-190 398 0
-766 0
967 -497 0
801 -627 0
-9 0
-393 0
785 -855 0
-421 0
675 -395 0
-682 0
-161 0
-270 -99 0
-489 15 0
-375 986 0
-503 -597 0
-175 -882 0
928 -182 0
-280 -863 0
514 -834 0
-134 0
-826 183 0
-936 -605 0
961 -69 0
-337 0
-920 -579 0
-486 0
745 -954 0
1000 -396 0
552 -332 0
-938 0
-482 534 0
192 -143 0
65 -199 0
-237 0
-273 0
110 -810 0
-495 758 0
-134 275 0
734 -25 0
-430 0
-915 -667 0
-260 0
-165 -405 0
-729 0
299 -585 0
-937 0
-986 0
-570 230 0
-849 0
-983 -750 0
-658 0
-445 -986 0
-792 170 0
-684 0
-590 0
238 -265 0
-352 -381 0
-703 -431 0
-955 0
-615 0
-964 150 0
-177 0
922 -323 0
-243 950 0
-445 -979 0
-524 996 0
-79 0
-642 0
60 -154 0
-803 -49 0
-694 -692 0
-334 543 0
787 -561 0
330 -636 0
-687 -301 0
-42 0
41 -319 0
-464 -19 0
537 -394 0
-244 110 0
376 -102 0
-409 0
-110 301 0
-775 0
-739 0
155 -170 0
240 -345 0
-501 0
-125 0
-945 0
-568 0
-29 0
282 -116 0
-270 0
-108 -348 0
-652 141 0
-443 0
-304 -961 0
-934 -737 0
-916 -473 0
-61 -900 0
-541 -659 0
-920 0
-514 -961 0
-859 0
-104 0
-626 0
-160 0
16 -167 0
-800 -134 0
-430 731 0
954 -358 0
-200 0
-909 -812 0
-936 -728 0
-762 0
-715 -321 0
-98 0
-166 -353 0
-41 0
-978 0
-59 663 0
-21 573 0
-983 -913 0
400 -955 0
-246 0
-913 0
-810 551 0
480 -485 0
-237 131 0
-71 0
-104 0
-79 0
-727 47 0
-189 -921 0
936 -636 0
-526 -41 0
-770 -873 0
874 -137 0
-539 0
330 -646 0
-845 0
-436 0
-63 537 0
-220 190 0
-790 634 0
258 -508 0
-782 638 0
-383 0
82 -181 0
9 -963 0
-209 0
-734 887 0
-808 -86 0
10 -118 0
-473 0
323 -673 0
-844 0
240 -362 0
-184 -883 0
-686 0
801 -849 0
-784 0
-715 0
680 -34 0
-239 -313 0
-845 0
-511 -741 0
-392 0
102 -321 0
141 -154 0
-710 -282 0
-987 0
-746 0
-520 0
-663 0
-888 -234 0
320 -23 0
-968 484 0
-169 0
-825 0
-273 0
-308 -426 0
-997 0
-500 -283 0
402 -610 0
-424 0
-1000 175 0
-105 0
-397 0
498 -851 0
-298 -154 0
-394 0
426 -142 0
-203 0
-48 -145 0
777 -406 0
-645 -10 0
-49 0
-411 461 0
-327 0
-739 0
-303 622 0
556 -650 0
-417 0
-175 0
-305 0
-709 -972 0
-686 534 0
-205 0
-102 0
-376 -795 0
870 -401 0
-143 0
-59 -722 0
-45 0
385 -590 0
-849 0
-900 0
-196 0
-449 0
-15 29 0
-820 0
-38 -169 0
-503 0
-165 11 0
-289 0
-240 0
824 -15 0
-994 0
-904 -88 0
443 -891 0
-557 0
-157 -828 0
-982 -721 0
413 -681 0
-688 -576 0
-443 0
-546 0
-13 0
912 -661 0
-850 0
-970 30 0
-992 -748 0
-65 0
-327 -889 0
736 -281 0
-997 0
-302 -686 0
968 -479 0
-547 0
-927 0
-933 0
-844 213 0
-306 87 0
-325 0
-681 0
-992 0
860 -786 0
-477 0
-457 0
-295 981 0
-735 0
-723 -554 0
-212 -491 0
481 -678 0
-71 950 0
-326 0
-408 -717 0
-290 0
-85 0
-335 0
484 -586 0
-772 0
-254 727 0
-611 0
-472 -117 0
-814 -685 0
-629 -612 0
-255 829 0
-665 0
241 -630 0
-508 0
-289 0
-697 191 0
668 -929 0
413 -914 0
-955 0
-783 903 0
-221 -803 0
982 -546 0
-365 -235 0
-22 386 0
-149 0
-305 0
-38 162 0
-212 0
-728 350 0
535 -9 0
-927 -214 0
19 -820 0
-455 -540 0
-152 0
336 -866 0
-165 0
-772 790 0
-428 0
-571 342 0
-53 0
354 -492 0
-733 -845 0
816 -106 0
-887 -844 0
-307 0
-93 0
-541 0
-299 0
250 -931 0
-824 0
-609 0
-799 -161 0
-230 0
-33 0
-309 -371 0
400 -647 0
-22 -141 0
-347 0
-159 806 0
-335 -786 0
-383 541 0
-99 0
857 -311 0
-744 0
-614 860 0
-546 751 0
384 -826 0
994 -141 0
-987 -347 0
515 -793 0
-42 0
-452 -460 0
-72 0
-744 0
-733 0
-494 -556 0
-128 0
-804 0
-682 0
-26 0
-664 0
-661 516 0
-614 0
-311 -822 0
-975 0
-430 687 0
-369 0
-367 0
-640 510 0
124 -387 0
-711 0
940 -362 0
-486 -714 0
-89 0
-512 -592 0
-254 211 0
291 -44 0
-254 642 0
258 -673 0
-343 -587 0
-726 452 0
71 -121 0
-949 0
-993 0
148 -187 0
-642 0
-728 90 0
-238 0
-517 0
49 -166 0
-999 -773 0
37 -955 0
-247 446 0
-638 0
-838 755 0
-334 0
113 -933 0
-537 -441 0
-352 -985 0
-208 -161 0
70 -313 0
-769 0
-733 227 0
97 -340 0
768 -366 0
400 -601 0
-501 -860 0
-440 394 0
939 -977 0
-893 -4 0
-694 0
-406 0
-184 -499 0
-152 132 0
-566 0
-633 0
788 -577 0
-193 0
-423 0
842 -876 0
-113 0
-83 -569 0
-125 0
-584 326 0
-86 959 0
-659 0
-941 0
-790 0
699 -45 0
-441 0
-176 -802 0
-408 925 0
261 -403 0
-5 997 0
-389 0
-478 0
-647 0
-677 612 0
-224 -863 0
-708 670 0
946 -905 0
-680 -219 0
492 -873 0
-6 -939 0
760 -49 0
859 -700 0
-723 0
-77 0
-878 0
385 -659 0
-727 0
-780 0
621 -754 0
-480 -481 0
-145 0
-891 0
-821 0
-13 -186 0
338 -809 0
-169 0
-943 -67 0
786 -226 0
-123 0
-566 149 0
929 -129 0
-580 0
-667 0
-327 671 0
459 -675 0
-218 0
-254 596 0
-579 -178 0
-938 911 0
-345 0
-551 0
949 -409 0
756 -515 0
793 -35 0
-437 87 0
-836 0
-214 95 0
665 -829 0
-153 0
64 -804 0
-529 0
320 -701 0
-565 0
-548 142 0
-927 0
-719 0
-96 139 0
-334 0
-874 0
-23 0
73 -559 0
891 -74 0
-625 0
-943 566 0
240 -593 0
478 -145 0
-402 0
-230 0
-504 217 0
-953 0
260 -540 0
-295 -238 0
-190 0
664 -220 0
-264 -295 0
-568 0
-374 935 0
211 -661 0
-414 662 0
-826 -82 0
-135 229 0
211 -297 0
-822 0
-399 0
-150 0
-166 735 0
-39 671 0
478 -953 0
-95 0
-648 0
-872 0
313 -556 0
-3 0
-591 0
-12 0
-883 0
-695 -198 0
-15 758 0
-718 0
-571 734 0
-744 0
-192 602 0
-102 0
-55 0
-243 0
-280 -644 0
-27 0
-153 0
-208 -335 0
-767 401 0
-535 133 0
-913 0
-539 805 0
571 -745 0
-508 0
-319 -926 0
-463 -711 0
-684 0
-265 0
-972 -739 0
-995 677 0
-13 0
-63 0
-605 187 0
699 -915 0
-104 -676 0
-250 0
-227 -249 0
-830 -422 0
-775 0
650 -91 0
-301 0
-310 -84 0
-956 0
-188 -34 0
-8 -487 0
-960 -913 0
-799 0
701 -865 0
-372 0
-908 -971 0
386 -684 0
-777 0
-470 661 0
-135 -310 0
-823 -939 0
519 -577 0
-710 927 0
-35 0
-131 0
-324 -497 0
-111 922 0
-166 629 0
-513 0
-98 39 0
482 -44 0
-248 -889 0
-765 0
872 -178 0
696 -363 0
116 -202 0
734 -169 0
489 -13 0
868 -164 0
-334 396 0
-328 0
-293 0
-602 0
-570 0
-112 787 0
203 -732 0
-854 -500 0
-832 570 0
-758 0
-284 0
-211 0
-871 7 0
561 -44 0
-180 0
-104 0
-340 -905 0
-243 0
-521 0
989 -785 0
-614 0
-795 0
288 -304 0
126 -297 0
-227 0
-896 317 0
-655 978 0
-615 -831 0
-345 0
-40 0
-463 0
-206 567 0
-968 140 0
-518 -754 0
-497 0
29 -777 0
-200 0
-542 0
-135 449 0
-677 703 0
-392 881 0
-624 329 0
-38 -202 0
-213 -940 0
601 -871 0
-660 0
-451 822 0
-959 0
-189 148 0
-690 0
-45 0
-134 0
-847 919 0
238 -226 0
-141 0
641 -579 0
-602 0
784 -437 0
-736 -158 0
-571 0
-461 0
-309 947 0
292 -395 0
-708 79 0
532 -369 0
-846 0
-165 0
-967 902 0
-421 0
-343 0
-646 99 0
-983 -83 0
-563 0
345 -838 0
204 -306 0
73 -571 0
-629 0
-428 -988 0
-247 474 0
-326 0
-427 0
-677 -673 0
-414 0
-174 -486 0
-194 0
-477 -586 0
-601 0
114 -644 0
-582 0
-368 236 0
-999 -653 0
-668 0
-270 0
-276 -729 0
-907 -553 0
-345 0
-339 735 0
-307 -937 0
-951 0
-837 -193 0
-954 0
-74 -937 0
25 -293 0
-870 0
355 -660 0
-3 0
-886 -484 0
-188 0
-743 0
-474 0
-536 -548 0
-984 -415 0
-87 668 0
-624 732 0
-734 0
-900 0
832 -813 0
-559 795 0
-954 758 0
-92 -972 0
-532 0
-815 -810 0
-234 -329 0
488 -33 0
-671 0
-367 0
369 -118 0
-827 686 0
-920 0
867 -962 0
-204 0
-289 0
-825 0
-954 -193 0
-174 0
-501 0
-803 0
-375 157 0
249 -262 0
-365 -124 0
-318 -965 0
-66 0
-197 0
-299 0
-364 0
49 -253 0
-982 0
-976 878 0
-452 357 0
-184 0
-390 30 0
-699 0
-331 367 0
-66 0
-394 0
-694 7 0
-94 0
-88 0
480 -35 0
-758 -860 0
-404 -204 0
-516 285 0
-126 -492 0
-234 0
-469 -405 0
-359 -828 0
-142 -694 0
-648 -211 0
-501 -754 0
-512 0
-996 165 0
-621 0
212 -433 0
-829 0
-133 596 0
682 -845 0
-342 -613 0
-855 0
824 -231 0
-534 755 0
-824 616 0
-298 0
-292 -665 0
-359 0
-976 -665 0
-448 0
-890 -929 0
-954 0
120 -614 0
-14 -76 0
-835 0
-125 -425 0
-56 248 0
719 -305 0
-128 -205 0
-636 0
241 -511 0
-710 -714 0
-200 90 0
-52 0
-198 0
-926 -3 0
-620 0
-408 5 0
-595 279 0
-87 0
-320 0
-343 0
-791 0
-929 0
-496 0
777 -26 0
-21 0
-693 -845 0
347 -619 0
-145 0
-288 0
109 -938 0
352 -313 0
-813 0
-295 0
-529 0
483 -553 0
888 -756 0
-821 -148 0
-970 0
-478 0
-392 -855 0
-330 830 0
-805 423 0
-734 135 0
-443 0
-968 0
904 -154 0
-883 0
492 -922 0
-656 -578 0
-419 0
-683 54 0
834 -125 0
-43 -594 0
-32 -221 0
-483 -569 0
-256 -654 0
721 -818 0
66 -156 0
-278 0
-26 -249 0
-420 0
-267 0
-778 503 0
851 -306 0
-863 0
-921 0
-294 -41 0
761 -115 0
-581 243 0
872 -247 0
-359 0
-98 -593 0
-288 418 0
-893 0
-885 847 0
-698 310 0
-517 0
-209 0
-367 742 0
930 -233 0
-88 390 0
802 -653 0
-373 -170 0
-693 0
-688 -626 0
-259 0
-901 0
107 -724 0
885 -649 0
-115 0
-846 -993 0
-861 0
-160 -590 0
683 -346 0
-295 0
-134 669 0
-182 0
-76 0
-410 0
-206 0
-316 206 0
-672 -280 0
-113 0
-124 0
-981 196 0
-515 878 0
997 -706 0
354 -705 0
-642 0
344 -650 0
-828 -570 0
-523 47 0
341 -690 0
-232 535 0
-952 73 0
-558 140 0
-286 -425 0
-480 0
-119 0
-327 -157 0
-17 0
-600 796 0
-297 -857 0
795 -617 0
-1000 0
-87 0
-248 -206 0
-494 244 0
-991 -533 0
-365 0
-448 831 0
102 -266 0
-384 715 0
-548 0
-557 407 0
-299 0
-778 0
475 -588 0
-19 0
250 -630 0
-88 -822 0
-389 0
-903 0
-133 -609 0
-675 0
-546 0
-335 -381 0
512 -412 0
-188 117 0
-821 0
490 -809 0
-408 0
-70 -193 0
-732 -435 0
-647 462 0
-229 0
-936 718 0
-986 0
-88 0
-210 0
-112 -427 0
312 -859 0
-106 63 0
716 -178 0
-517 0
-912 -603 0
-584 62 0
-580 0
-300 0
433 -141 0
-949 0
665 -907 0
-779 0
-368 0
-406 165 0
-557 0
-973 963 0
-182 -942 0
-724 0
-38 711 0
-424 741 0
-797 0
-296 -97 0
-192 362 0
-827 0
-625 0
-34 0
-231 179 0
435 -323 0
-757 0
-832 -657 0
-159 0
-238 0
-980 0
-363 0
-565 799 0
-521 0
882 -429 0
-462 0
446 -241 0
-623 0
-517 0
-312 -495 0
-957 0
-946 0
-412 0
-5 0
178 -372 0
-265 -969 0
-119 673 0
-342 -99 0
570 -254 0
-453 0
-102 695 0
532 -217 0
-919 302 0
-27 0
-664 0
-248 959 0
-868 390 0
-319 -811 0
-423 0
601 -951 0
-516 284 0
-133 0
-152 0
-752 -876 0
-326 340 0
-209 0
465 -493 0
-111 659 0
465 -620 0
-149 0
969 -946 0
386 -731 0
-828 0
-385 0
-712 0
-263 -130 0
-768 0
-192 0
-919 -757 0
-361 0
712 -115 0
-718 0
380 -841 0
-940 0
-332 0
91 -820 0
-563 0
-119 -819 0
-759 -457 0
-812 356 0
-350 124 0
385 -107 0
-869 -700 0
-71 671 0
261 -570 0
-819 0
-645 939 0
-373 0
-894 -485 0
-744 0
-729 0
960 -203 0
-459 0
-849 0
-580 567 0
-711 0
-893 -689 0
-686 0
-657 0
-762 0
-397 180 0
-333 0
-677 0
-902 0
-897 0
-19 839 0
836 -770 0
-878 0
-317 0
-162 -194 0
-521 0
74 -406 0
-309 0
-468 0
-584 -435 0
-526 0
-791 -947 0
-214 755 0
384 -548 0
-365 0
-970 0
478 -449 0
-689 0
9 -293 0
-500 0
-238 0
-287 0
-464 -892 0
-544 -324 0
445 -738 0
886 -506 0
-578 0
-799 339 0
-600 873 0
-654 -782 0
-532 -187 0
-120 822 0
-640 0
809 -594 0
-616 0
-302 0
664 -697 0
-28 228 0
-76 0
-900 -787 0
-550 0
-343 0
-587 0
-130 0
-916 0
-73 0
-668 0
-191 0
-716 -986 0
-29 0
-503 -484 0
-578 0
-389 0
-175 -135 0
-261 942 0
-239 0
-573 -666 0
-676 0
-550 0
91 -506 0
-915 327 0
-144 -629 0
-588 -450 0
-134 0
-930 0
-256 0
-967 -748 0
-457 0
-212 261 0
-600 0
976 -432 0
-624 -889 0
-956 0
-387 -969 0
-360 0
606 -577 0
809 -398 0
-7 -179 0
-528 0
-545 0
-339 -209 0
-412 0
770 -779 0
-216 579 0
-672 -624 0
-768 0
-622 847 0
-993 0
-287 0
979 -169 0
-560 -724 0
21 -417 0
610 -634 0
-53 479 0
57 -124 0
802 -521 0
-536 313 0
-535 543 0
-901 -244 0
-884 0
773 -67 0
-850 0
-142 0
-610 0
210 -281 0
-819 0
57 -5 0
-788 772 0
305 -377 0
281 -255 0
-607 -237 0
-311 526 0
-96 0
416 -998 0
-253 813 0
-836 -708 0
361 -557 0
-746 -977 0
793 -930 0
-58 -89 0
-135 613 0
-896 0
853 -690 0
494 -514 0
-852 -433 0
-75 0
-979 143 0
-272 -823 0
-239 0
-319 343 0
-846 290 0
-622 711 0
-421 0
-786 0
-87 0
-477 0
-454 -985 0
-773 100 0
-742 291 0
217 -286 0
867 -740 0
-680 -325 0
-574 -204 0
-679 0
-487 974 0
907 -217 0
-644 0
865 -918 0
-541 0
864 -281 0
-662 -612 0
-712 -219 0
-672 979 0
-487 831 0
201 -804 0
-483 223 0
-949 0
-782 -170 0
-190 0
-848 323 0
-207 -555 0
-852 0
-786 0
-981 0
-7 -940 0
-411 -786 0
699 -917 0
-149 -92 0
-772 373 0
-347 0
-530 758 0
-914 351 0
409 -587 0
-351 -549 0
-911 852 0
-32 489 0
-59 -282 0
-269 804 0
-842 -914 0
-492 0
-646 0
-184 0
-125 -179 0
-466 615 0
-391 -660 0
-98 0
-179 0
64 -983 0
64 -629 0
-4 -611 0
323 -233 0
-836 951 0
-313 0
-246 0
-292 622 0
-926 0
-176 0
-959 0
-864 -962 0
113 -124 0
825 -919 0
-514 0
-768 -267 0
-879 -762 0
-96 0
-731 551 0
832 -956 0
-675 0
498 -412 0
-191 0
-599 -939 0
-343 260 0
371 -117 0
-815 899 0
-310 0
-240 0
-183 -289 0
-160 305 0
-448 41 0
-561 0
812 -186 0
-607 637 0
-88 0
-381 77 0
-545 0
72 -495 0
-166 -899 0
-234 0
-778 0
192 -85 0
-283 0
849 -466 0
314 -363 0
-679 0
-782 0
-658 0
-462 0
-906 0
-388 0
-405 735 0
-460 933 0
-386 782 0
-979 0
-208 490 0
-439 -51 0
-957 0
-348 903 0
-907 150 0
-934 0
-739 0
-628 348 0
-8 0
553 -777 0
-206 45 0
-563 0
-227 519 0
-280 684 0
-656 -30 0
-485 -661 0
-663 -148 0
-463 0
-631 -798 0
-438 -354 0
-956 0
-288 84 0
-527 963 0
384 -106 0
-93 0
304 -731 0
-498 0
-97 0
-661 0
-70 -866 0
-788 -258 0
905 -910 0
-998 -85 0
657 -524 0
-965 -725 0
-265 0
-704 -307 0
566 -825 0
-491 454 0
-403 125 0
-313 0
-807 677 0
-931 -387 0
-519 0
936 -470 0
948 -451 0
-370 254 0
-405 -778 0
-835 695 0
-335 -418 0
837 -987 0
-23 721 0
-647 0
-139 0
-14 0
-631 0
679 -769 0
-546 0
584 -787 0
-75 0
-850 0
779 -587 0
-463 63 0
-968 0
-330 0
442 -948 0
858 -204 0
-591 -900 0
217 -990 0
-584 0
-380 0
-858 0
-84 0
-500 0
-581 463 0
-481 0
860 -587 0
-221 412 0
-903 0
-359 0
-439 213 0
-14 0
986 -500 0
-249 719 0
962 -398 0
408 -653 0
-221 0
-406 -187 0
664 -386 0
-167 -249 0
-628 0
-735 -529 0
-410 0
-750 -562 0
-936 303 0
-564 492 0
-909 717 0
-138 0
-35 0
-997 -667 0
-706 -290 0
991 -217 0
-346 0
-922 0
-792 453 0
875 -421 0
-799 0
-234 0
730 -588 0
-287 356 0
610 -265 0
-560 -719 0
-626 0
-430 0
-856 5 0
987 -330 0
-140 100 0
-992 0
-789 0
-479 -108 0
-477 0
1000 -303 0
-343 -506 0
-742 -428 0
-971 0
-165 0
40 -100 0
-628 -634 0
681 -927 0
-496 0
-133 0
813 -841 0
-400 -279 0
-159 419 0
-662 -445 0
-856 -948 0
-150 0
819 -884 0
-914 0
-598 -445 0
-192 -321 0
-476 0
425 -28 0
-16 0
-864 -676 0
-598 845 0
-472 0
603 -961 0
-712 0
-100 -545 0
-64 -533 0
-805 0
-40 -159 0
-185 -617 0
-463 0
-895 178 0
-113 0
-221 0
-654 0
-945 0
-326 -625 0
46 -321 0
-254 0
-146 647 0
-660 0
-508 0
-896 -293 0
-39 -28 0
-914 0
-158 0
-804 0
-564 0
-239 -554 0
-550 0
-845 0
76 -492 0
-9 -337 0
-364 -89 0
-637 0
-941 471 0
-861 0
-376 133 0
-511 -486 0
478 -113 0
-991 -115 0
-261 0
-429 263 0
-148 710 0
-368 248 0
-299 0
-706 0
-791 163 0
-77 -265 0
-570 0
-655 -490 0
-152 347 0
-728 676 0
-284 0
817 -778 0
-277 0
286 -258 0
-185 0
-667 0
417 -486 0
707 -395 0
-260 0
-358 -147 0
-465 0
272 -305 0
-64 713 0
-344 -233 0
-470 309 0
-557 52 0
-799 869 0
-157 0
-445 0
232 -105 0
-224 -771 0
-368 -461 0
-197 731 0
-813 30 0
-127 0
-853 0
-814 -149 0
-428 622 0
-309 894 0
-264 182 0
3 -932 0
-252 -530 0
-525 -884 0
-232 341 0
-784 0
-439 -858 0
-743 204 0
-974 838 0
-96 -251 0
-824 137 0
-475 367 0
-604 -266 0
-947 0
-924 0
-703 -83 0
-954 0
-935 0
-454 0
-96 -810 0
-963 0
272 -477 0
-269 206 0
232 -444 0
-443 0
-312 0
760 -44 0
-887 0
224 -247 0
-802 0
-554 0
197 -354 0
-478 0
139 -915 0
-405 0
-364 415 0
-831 21 0
285 -203 0
-446 611 0
-862 581 0
-69 0
-368 -563 0
-59 -634 0
-520 415 0
-265 0
16 -929 0
-197 -449 0
484 -994 0
-566 0
-527 0
-957 0
-984 -697 0
-161 0
-109 -913 0
-822 590 0
119 -313 0
-919 505 0
-914 0
-669 0
-142 902 0
274 -589 0
-540 445 0
-688 -9 0
-633 0
-112 147 0
768 -925 0
-615 0
848 -474 0
241 -126 0
888 -626 0
-807 275 0
-844 -849 0
-524 0
634 -404 0
-662 0
-769 0
-788 0
-184 0
504 -323 0
386 -205 0
-353 0
-738 0
-18 0
-556 0
-254 -770 0
-863 0
-339 0
73 -175 0
-370 0
-528 638 0
-771 -74 0
-699 -618 0
137 -334 0
608 -391 0
-186 0
-271 0
216 -322 0
-239 -599 0
-495 0
-326 190 0
954 -341 0
-83 982 0
-606 405 0
521 -356 0
-653 0
-975 -939 0
-389 0
-672 0
200 -271 0
-385 0
-443 -683 0
888 -396 0
-555 0
-839 938 0
-977 0
-703 0
-423 889 0
-79 0
-271 956 0
-240 -306 0
352 -444 0
-693 0
-439 -417 0
-28 165 0
-858 0
-297 0
-965 -669 0
-396 807 0
-935 0
-650 0
-679 0
-118 -185 0
-293 -420 0
-438 519 0
932 -274 0
-414 0
-691 -802 0
816 -105 0
449 -127 0
-787 0
-884 607 0
-632 -969 0
-671 0
-572 0
-432 782 0
664 -20 0
-532 0
-302 167 0
785 -495 0
416 -385 0
-120 -124 0
-976 704 0
-772 0
977 -324 0
-592 0
-863 0
-863 485 0
-140 -747 0
-293 0
-724 0
-358 -533 0
-200 -421 0
-863 867 0
18 -818 0
-557 0
-742 0
-95 -113 0
-308 605 0
-343 -182 0
-646 309 0
322 -826 0
-668 0
-189 0
-377 0
306 -155 0
-410 14 0
-253 0
-348 0
-23 121 0
-978 0
-736 -819 0
-573 0
-168 262 0
-887 0
-586 0
-587 14 0
-420 0
-584 0
-431 403 0
-704 0
-143 0
-80 0
-23 241 0
-413 0
516 -979 0
-735 -212 0
-436 0
-706 0
-159 -782 0
121 -273 0
-726 -605 0
-870 427 0
-389 0
-976 253 0
352 -381 0
640 -737 0
-231 19 0
485 -10 0
-626 486 0
-84 -611 0
-299 0
-157 0
-661 -898 0
-686 0
-554 0
513 -529 0
273 -618 0
-121 0
-694 -885 0
-387 703 0
-250 0
-3 0
-564 974 0
-268 0
-278 -902 0
-14 0
-45 0
472 -933 0
-518 -228 0
-85 0
-46 614 0
-596 756 0
-14 0
-317 78 0
-943 452 0
561 -774 0
-502 947 0
-938 0
-617 0
-211 0
-469 -857 0
-480 671 0
-819 0
-422 948 0
-323 0
-636 0
-263 322 0
-878 0
-288 0
800 -71 0
-693 565 0
-486 -826 0
-113 0
586 -666 0
577 -469 0
-373 0
-342 507 0
-839 0
-40 -134 0
-950 878 0
-813 134 0
-488 0
-370 0
-533 -227 0
-89 0
-901 -426 0
-943 -550 0
-173 0
-246 -22 0
-218 0
-192 0
-814 -430 0
-116 0
-606 485 0
-547 -601 0
456 -458 0
-95 0
-791 -370 0
-340 0
-557 -755 0
171 -283 0
-927 -740 0
-221 0
-852 629 0
-696 0
-290 0
-892 0
22 -241 0
-683 0
-726 -740 0
-3 0
211 -123 0
-455 0
-930 0
-270 0
-69 597 0
-214 804 0
-279 -236 0
-437 597 0
-994 0
244 -433 0
-227 487 0
360 -5 0
-392 0
-932 36 0
-278 -966 0
-351 -281 0
-719 0
-829 796 0
-491 0
332 -106 0
-738 0
-449 0
-527 -583 0
-184 0
-724 109 0
-439 0
-415 52 0
-942 0
-771 87 0
-214 0
-397 0
-587 0
-238 0
478 -273 0
-14 0
-752 775 0
-14 0
-992 0
-199 0
-154 518 0
-901 820 0
-508 694 0
-471 563 0
99 -837 0
-228 0
-416 0
-409 159 0
99 -514 0
-820 893 0
-871 0
-556 -883 0
-24 195 0
-553 0
-908 0
-429 -773 0
428 -970 0
-883 95 0
-519 613 0
-99 0
35 -556 0
-782 675 0
-953 0
-351 -131 0
-634 0
-579 0
825 -186 0
-116 0
659 -372 0
-133 0
-496 0
-215 835 0
-623 285 0
-884 54 0
-232 0
-960 -297 0
-785 0
-971 0
403 -947 0
-155 806 0
-708 0
194 -470 0
489 -223 0
78 -465 0
-656 0
-6 -682 0
-756 0
-659 662 0
-13 -460 0
-298 -10 0
-654 0
-800 781 0
-141 0
-404 0
-53 0
-567 0
-646 -314 0
-208 0
-743 0
-800 -407 0
-728 -818 0
-314 0
-543 0
-356 0
474 -300 0
-938 -873 0
-922 303 0
-274 0
-248 -580 0
-756 0
-80 0
-24 0
-535 -359 0
-956 0
-676 0
-414 0
-864 331 0
203 -500 0
-753 607 0
-149 0
-359 1 0
936 -620 0
-281 0
-45 773 0
-56 0
-773 447 0
-151 935 0
-523 0
280 -724 0
-474 0
-973 0
-133 0
-246 -67 0
-280 702 0
-503 693 0
-135 -366 0
585 -106 0
-697 0
-691 0
-951 0
-580 0
-77 -153 0
781 -993 0
-31 292 0
-635 0
-472 947 0
-817 0
-495 0
-92 -89 0
-501 805 0
-89 503 0
-334 590 0
-957 0
-62 -348 0
827 -290 0
-335 -361 0
341 -689 0
-53 759 0
-701 -81 0
-151 0
917 -417 0
-152 -348 0
-954 0
-461 -277 0
-641 0
-309 0
-397 -115 0
525 -977 0
-832 179 0
-674 703 0
-158 0
-944 0
-693 -826 0
-813 -580 0
115 -89 0
330 -474 0
-593 0
-575 -802 0
-420 0
-429 21 0
-558 -481 0
-698 0
333 -891 0
-38 62 0
-675 0
-29 908 0
-424 0
60 -577 0
978 -19 0
-134 564 0
-750 -12 0
-656 0
41 -139 0
760 -686 0
-150 75 0
-702 0
-662 164 0
106 -291 0
-743 933 0
496 -921 0
-503 0
-739 0
-112 454 0
60 -546 0
-583 0
-406 0
-519 0
-501 0
547 -716 0
-256 0
-668 -241 0
826 -363 0
-511 -657 0
-176 0
-183 347 0
-627 -866 0
-160 0
-591 -187 0
232 -627 0
-254 0
600 -14 0
-391 -659 0
-196 30 0
-772 574 0
-663 244 0
-3 0
604 -809 0
-978 0
-482 0
-6 0
-970 0
-688 978 0
-167 -28 0
27 -75 0
-878 -444 0
-389 0
-567 554 0
-765 406 0
-253 -969 0
-344 0
777 -701 0
-896 563 0
-454 685 0
-392 977 0
-578 -297 0
-309 0
-655 915 0
-147 0
-196 0
-813 0
-799 0
-159 6 0
-429 653 0
-335 0
-392 -94 0
-519 0
-6 -956 0
-180 0
185 -585 0
-350 2 0
-696 0
832 -375 0
-954 0
-83 0
-567 36 0
594 -37 0
659 -5 0
-636 197 0
-382 -645 0
-934 0
-350 78 0
-261 0
256 -279 0
-378 0
-737 0
-481 0
-637 -579 0
-608 0
-741 695 0
66 -398 0
-958 -893 0
-262 -97 0
-875 0
784 -320 0
-518 -76 0
470 -465 0
533 -665 0
-253 91 0
-30 0
-403 -162 0
-49 0
305 -574 0
-984 0
-415 109 0
-967 -794 0
-664 645 0
-396 300 0
-493 -331 0
187 -372 0
-947 0
613 -410 0
-713 0
-506 0
-598 999 0
-973 -627 0
-798 0
329 -626 0
84 -362 0
-309 -338 0
584 -78 0
-786 0
-468 0
-158 -459 0
-907 0
622 -314 0
-30 -637 0
-552 -575 0
450 -746 0
-301 0
-716 0
226 -493 0
-107 966 0
-996 750 0
-451 -130 0
-171 0
-101 903 0
-925 0
-519 0
-871 0
-617 0
625 -33 0
-10 703 0
-160 829 0
496 -367 0
-233 0
-676 373 0
-334 -466 0
-159 0
-435 0
-706 71 0
-591 -252 0
-373 -618 0
-764 -137 0
-197 973 0
-62 0
-538 -857 0
-951 335 0
-485 -410 0
-28 0
-535 575 0
-204 0
690 -326 0
193 -270 0
-760 -372 0
749 -833 0
-646 819 0
-175 0
-721 103 0
-796 710 0
812 -33 0
-575 0
-782 364 0
-223 0
-328 -414 0
-556 0
713 -394 0
-199 55 0
-938 0
-523 -106 0
784 -565 0
-949 0
-965 381 0
438 -577 0
-192 -982 0
-23 311 0
54 -833 0
442 -149 0
-78 886 0
-750 0
-992 935 0
225 -851 0
-696 0
-300 0
-329 0
-439 -977 0
-238 0
-36 28 0
-430 -629 0
-88 537 0
-906 -769 0
-952 0
-303 146 0
-485 0
-781 -730 0
-426 0
-612 0
-533 -138 0
-320 0
-128 367 0
-406 -154 0
-976 731 0
-439 0
-909 924 0
122 -446 0
-269 0
106 -229 0
-636 511 0
-304 0
-780 0
-303 250 0
-258 415 0
-263 253 0
-907 0
-353 0
-565 293 0
-685 700 0
-258 0
20 -841 0
-136 0
381 -969 0
-989 -594 0
104 -634 0
-886 -955 0
-883 0
-855 0
-872 0
-671 -367 0
-121 0
-768 227 0
71 -217 0
200 -433 0
-908 0
-333 0
-688 0
-757 0
-652 -458 0
938 -110 0
187 -676 0
-741 0
586 -381 0
777 -299 0
-266 -529 0
-397 933 0
988 -682 0
-964 0
-756 430 0
-333 422 0
-302 -654 0
689 -22 0
398 -33 0
-888 125 0
363 -149 0
-186 199 0
-428 0
-487 -276 0
-520 0
-920 -76 0
668 -73 0
-762 0
-463 0
-472 -492 0
-57 0
993 -874 0
-679 -199 0
643 -817 0
-532 0
-448 -887 0
-973 -498 0
-364 423 0
-527 -761 0
-505 0
-240 0
-550 -212 0
-563 0
-780 0
-389 405 0
421 -835 0
-705 0
-624 0
45 -642 0
-590 0
-783 -489 0
-600 0
-932 0
436 -627 0
498 -571 0
-746 0
-141 0
-232 875 0
-507 0
-742 670 0
-567 807 0
-601 0
-635 0
-309 0
-5 0
-25 0
-950 -505 0
-811 0
-355 0
-811 0
99 -836 0
750 -329 0
142 -890 0
-903 0
-87 466 0
-772 661 0
-13 -482 0
-432 46 0
-186 0
-625 0
653 -770 0
-104 -840 0
53 -379 0
-178 0
-508 -595 0
-821 0
-64 0
-638 -873 0
842 -277 0
744 -928 0
-770 0
-967 0
-804 0
-201 0
-848 260 0
-990 -686 0
-615 412 0
-183 -10 0
-945 919 0
-532 0
-935 411 0
36 -435 0
-29 0
-236 0
-45 253 0
-891 0
-94 -122 0
-351 372 0
-984 225 0
-255 0
-53 0
-304 -876 0
-23 0
-630 635 0
409 -566 0
-119 147 0
-195 957 0
-432 0
320 -185 0
19 -876 0
-61 94 0
-124 0
-39 929 0
-162 0
-424 0
283 -450 0
-482 0
-66 0
-38 0
552 -467 0
513 -587 0
-945 0
188 -778 0
-859 -961 0
-592 -690 0
944 -415 0
581 -426 0
8 -50 0
-172 710 0
-573 0
-17 0
-149 0
-942 0
269 -579 0
-69 708 0
-237 -258 0
-206 -172 0
-362 0
-751 -678 0
825 -540 0
-952 197 0
-845 -42 0
-925 -409 0
227 -281 0
-679 0
882 -597 0
-665 0
-288 185 0
-951 -673 0
-312 828 0
444 -28 0
-443 0
-686 0
-656 0
-871 172 0
248 -57 0
-282 0
-798 -569 0
835 -130 0
-95 -699 0
-576 520 0
-959 0
640 -854 0
-744 -382 0
-171 -265 0
-353 0
-664 0
-821 653 0
947 -835 0
-375 -163 0
-227 0
365 -841 0
-536 542 0
-795 -123 0
960 -135 0
-564 0
-188 895 0
-71 383 0
-713 0
-709 435 0
-127 -941 0
829 -569 0
-681 0
-727 486 0
385 -78 0
-574 0
-462 -493 0
-612 0
-995 -571 0
-449 0
-493 0
-535 -814 0
-3 773 0
-690 0
-806 0
-996 -83 0
275 -237 0
-690 215 0
-921 0
-863 0
-168 0
-830 -542 0
-616 35 0
-457 0
-296 804 0
-628 0
-396 367 0
-10 0
-6 271 0
-291 0
924 -970 0
-683 0
-4 0
-688 44 0
-783 0
-928 969 0
-655 325 0
-128 -939 0
-346 0
-707 -441 0
645 -41 0
-640 -955 0
-971 0
211 -468 0
221 -411 0
-955 0
-2 0
-24 0
-862 0
-168 390 0
715 -953 0
-291 -113 0
-864 -44 0
-494 0
-264 -914 0
-225 0
-5 0
-245 -665 0
-717 0
-60 -443 0
-416 913 0
833 -457 0
460 -579 0
-654 0
-557 -604 0
-131 0
-472 0
-951 -101 0
-425 0
-611 -514 0
828 -385 0
-872 564 0
158 -970 0
-690 -721 0
-750 733 0
-109 0
-270 -772 0
-79 -622 0
-237 -836 0
-777 0
-382 0
-288 0
-799 654 0
-670 0
-564 462 0
261 -233 0
-175 5 0
288 -695 0
-791 548 0
-702 324 0
-360 0
553 -354 0
-4 0
-256 237 0
-788 0
-325 887 0
-461 -746 0
-162 310 0
-686 0
-795 -241 0
217 -613 0
-852 0
302 -242 0
-834 0
-293 0
-11 0
-941 0
-645 0
-643 0
-623 0
-872 889 0
-294 -196 0
-421 492 0
-952 0
-718 0
-7 482 0
-512 791 0
125 -435 0
-716 0
-473 0
-792 424 0
713 -17 0
347 -676 0
-546 -90 0
-992 -300 0
-25 0
-84 0
690 -61 0
-261 -781 0
586 -539 0
-86 0
856 -700 0
-691 -91 0
-887 645 0
-800 321 0
-344 273 0
-224 -802 0
-504 -138 0
-186 0
-427 0
946 -819 0
320 -697 0
40 -474 0
361 -34 0
-28 0
939 -737 0
-686 630 0
-312 0
212 -180 0
-675 0
-121 0
-739 0
-343 447 0
-127 86 0
-209 0
-446 531 0
-678 0
-639 0
811 -387 0
-218 0
-729 0
-284 0
-728 707 0
-147 0
-699 0
-210 -57 0
-823 -780 0
-850 0
-247 418 0
-418 0
-371 0
-313 0
-233 0
880 -182 0
358 -58 0
-291 0
-424 985 0
-964 0
-488 0
-973 0
-480 0
-162 0
-565 0
580 -961 0
-528 359 0
-812 0
-460 0
810 -364 0
-801 0
-192 0
-329 0
-420 -107 0
-455 -461 0
363 -905 0
-440 -82 0
-961 191 0
-483 887 0
-123 0
-305 0
-638 142 0
-722 0
-236 0
-81 0
-859 0
-534 653 0
-255 0
-167 -81 0
-541 0
-244 0
-522 0
-85 -218 0
-350 0
-751 0
-942 591 0
714 -161 0
-804 0
-136 -361 0
890 -50 0
-536 158 0
-278 -985 0
-360 311 0
-958 0
-427 -257 0
-21 -865 0
976 -735 0
-993 0
-892 -956 0
484 -617 0
-105 0
-333 0
-651 0
-586 0
-598 331 0
-144 -618 0
-475 -401 0
-389 255 0
-248 0
-238 0
-564 -660 0
-252 0
-770 0
518 -673 0
-45 -676 0
-470 363 0
-872 -986 0
-699 0
-165 623 0
-291 669 0
809 -810 0
-653 -233 0
-775 0
956 -610 0
-103 -993 0
-218 0
-743 622 0
-364 268 0
-94 84 0
-749 -643 0
157 -841 0
-12 -778 0
-578 174 0
-748 0
283 -234 0
-295 0
-159 74 0
-535 0
-792 0
314 -769 0
-656 0
82 -195 0
-512 0
-87 0
-248 0
-207 918 0
-618 0
-591 0
571 -921 0
776 -766 0
-70 382 0
-216 682 0
-747 0
100 -178 0
954 -101 0
-462 574 0
-413 812 0
304 -85 0
-73 0
552 -800 0
-267 38 0
-120 -703 0
-90 0
937 -882 0
161 -382 0
-95 -388 0
-908 0
-418 0
-990 14 0
-463 0
913 -769 0
-357 0
-429 0
530 -305 0
-970 0
-722 -9 0
-207 638 0
-816 -176 0
-74 0
-544 645 0
889 -646 0
-115 0
-834 -249 0
-814 35 0
-793 0
-239 -282 0
-71 -219 0
568 -401 0
-698 0
-197 0
-387 0
-280 -617 0
-232 226 0
-345 0
-109 0
-421 204 0
-254 0
-111 646 0
-752 -718 0
-352 -171 0
-582 0
-392 -947 0
-618 0
875 -771 0
291 -569 0
-328 -474 0
-483 -777 0
-392 0
800 -564 0
-261 0
-247 0
-607 -747 0
-451 0
-213 -133 0
-8 0
555 -10 0
-807 -758 0
-344 -858 0
-451 191 0
496 -919 0
-105 0
-981 0
-274 0
-145 0
-383 -28 0
-518 997 0
-493 0
-356 0
-475 0
-909 0
-856 0
529 -459 0
-824 522 0
-254 0
-280 0
-799 -531 0
-116 446 0
-849 0
-114 0
-34 0
-514 -81 0
-667 0
-672 -661 0
-248 0
-584 0
-134 0
-517 909 0
-208 -773 0
161 -893 0
-295 -801 0
-457 0
315 -860 0
-546 0
-875 0
-79 0
-926 0
-542 0
-898 0
-967 -985 0
-285 902 0
-527 -859 0
744 -764 0
-775 0
640 -401 0
564 -497 0
-967 -621 0
-840 -91 0
-427 -73 0
-559 769 0
896 -58 0
-407 506 0
-174 0
388 -889 0
104 -233 0
-520 704 0
-905 0
-94 0
-431 502 0
-93 837 0
827 -85 0
-852 909 0
-232 0
-904 -510 0
-147 198 0
-390 0
-898 0
-115 0
-975 580 0
-292 -529 0
-724 0
-990 -164 0
-309 775 0
978 -470 0
-983 0
-545 0
-893 -756 0
-911 -564 0
-393 0
-360 -36 0
841 -607 0
-641 0
-924 -545 0
-650 0
-992 132 0
-488 0
-210 358 0
-287 0
-250 0
-684 -201 0
-490 -337 0
-544 757 0
-164 -738 0
-477 0
-308 -76 0
-815 0
-960 -887 0
-68 0
-932 0
-85 0
-539 -866 0
-907 0
-56 795 0
283 -746 0
-247 0
-339 0
977 -273 0
353 -117 0
-604 0
344 -26 0
-111 91 0
-712 0
-269 0
-928 811 0
-984 -243 0
-659 0
-819 46 0
-757 0
-593 0
-225 87 0
-813 -930 0
-699 0
-535 0
-762 663 0
504 -47 0
-776 -575 0
-973 0
-838 -876 0
-998 0
-599 -381 0
-368 0
-73 199 0
-878 107 0
-765 911 0
-264 0
-489 999 0
-713 0
-696 991 0
312 -860 0
-327 0
-284 -540 0
-13 0
-446 863 0
-734 0
-263 0
-827 0
-125 701 0
66 -673 0
-780 0
-552 0
-476 909 0
984 -692 0
-51 0
-533 0
-48 0
-859 -777 0
646 -577 0
920 -681 0
-573 0
-824 0
-189 -563 0
-159 -629 0
888 -751 0
-1 479 0
-7 417 0
-71 366 0
-31 -669 0
-784 0
-114 0
-560 390 0
625 -658 0
488 -761 0
-494 815 0
-152 0
-241 0
552 -617 0
-581 -162 0
-666 0
-764 0
-622 70 0
-808 0
-216 805 0
-589 -595 0
-996 671 0
-401 0
506 -137 0
-219 0
-718 0
-208 -771 0
-733 0
936 -6 0
-511 0
-885 0
-462 -513 0
126 -201 0
-55 630 0
344 -19 0
-180 -266 0
-661 0
-101 0
343 -745 0
469 -810 0
-745 0
-909 615 0
-157 0
921 -502 0
-165 238 0
531 -819 0
-918 397 0
2 -714 0
-526 0
-64 0
-210 -889 0
-47 -483 0
-275 -865 0
347 -333 0
612 -804 0
-134 -284 0
-990 -786 0
-15 0
-688 -254 0
-207 0
-214 0
-463 -541 0
-269 -525 0
-108 0
-494 0
-619 0
-855 -101 0
105 -985 0
904 -390 0
-207 201 0
-973 0
-297 0
682 -834 0
-966 -193 0
-649 0
-611 0
-21 -907 0
-99 0
-890 0
-624 -558 0
-640 253 0
-135 570 0
-207 -907 0
-946 0
-94 -34 0
-968 -924 0
929 -950 0
-432 399 0
-715 -371 0
58 -126 0
-798 0
-508 0
-805 0
-342 435 0
618 -403 0
-702 -602 0
-200 0
-560 -724 0
-94 -209 0
648 -478 0
984 -30 0
-12 0
-625 0
-530 0
-382 0
-486 0
-656 -262 0
-630 0
905 -907 0
-297 0
-174 812 0
-798 270 0
530 -413 0
225 -942 0
-148 0
396 -19 0
675 -604 0
-55 99 0
970 -290 0
361 -10 0
-752 748 0
467 -658 0
-95 -3 0
105 -177 0
-149 471 0
-30 -795 0
-4 -386 0
-526 124 0
-982 -66 0
528 -980 0
-933 667 0
105 -253 0
-773 0
-135 -807 0
697 -669 0
-903 0
-351 0
-182 0
-262 0
738 -748 0
-453 0
-491 38 0
-583 -47 0
-976 -713 0
-523 0
-372 0
948 -737 0
-435 0
-502 142 0
-854 0
-825 0
-771 -155 0
380 -122 0
-235 0
90 -923 0
746 -97 0
-592 -810 0
-253 511 0
-731 0
-88 -563 0
820 -569 0
-847 -315 0
625 -748 0
-564 13 0
896 -553 0
618 -738 0
-522 0
-65 0
175 -985 0
-72 -746 0
35 -842 0
228 -858 0
-383 0
-666 527 0
-163 0
-177 0
-439 0
-367 894 0
-817 -849 0
498 -653 0
224 -572 0
-143 0
-420 510 0
811 -985 0
-285 0
710 -418 0
-469 -219 0
-730 0
-391 0
-809 0
-733 0
-192 140 0
-559 99 0
-847 0
-56 0
-66 199 0
128 -885 0
582 -57 0
-399 -795 0
460 -306 0
-576 0
-976 97 0
-195 0
-629 -877 0
-689 0
-237 0
-303 0
-592 -956 0
-735 27 0
-640 0
-192 692 0
-547 0
-387 0
-72 -441 0
-112 0
-775 0
-418 0
-135 -124 0
-936 0
-805 348 0
-512 0
-306 0
97 -974 0
-842 0
125 -161 0
386 -196 0
-962 0
-183 0
-635 0
-153 0
-564 0
-235 719 0
-556 -602 0
-99 0
-574 891 0
-447 0
-725 -956 0
-595 -874 0
-454 0
-756 0
585 -767 0
955 -865 0
-296 0
-679 325 0
-928 -274 0
-856 0
237 -345 0
-318 0
-584 0
-998 0
-559 0
-654 0
-827 326 0
-802 0
-484 0
-776 -722 0
-488 0
833 -725 0
-848 0
-670 0
-116 0
-848 0
-180 -257 0
-110 -764 0
-729 0
851 -601 0
-680 964 0
222 -617 0
-765 0
898 -13 0
720 -802 0
-555 0
-569 0
-263 0
-388 -561 0
-476 0
973 -378 0
-883 110 0
-172 308 0
-225 0
-71 990 0
-119 244 0
-143 0
-288 0
818 -453 0
-203 -458 0
-992 0
618 -588 0
-800 919 0
-975 -865 0
-176 0
-380 -193 0
-803 30 0
-285 0
-338 0
-55 -129 0
-69 0
381 -833 0
-35 0
-486 517 0
884 -579 0
-365 0
497 -51 0
-58 0
-731 0
-475 253 0
-456 0
-56 0
-943 0
-300 0
193 -29 0
-630 0
-776 -842 0
-326 847 0
-489 79 0
-124 0
-589 0
-952 858 0
-901 0
-38 -738 0
-696 -543 0
-675 0
-267 -866 0
-798 -995 0
-44 0
-960 -690 0
-11 0
-80 14 0
921 -505 0
-451 -890 0
-550 0
-117 0
217 -198 0
-437 0
-198 359 0
-116 0
-453 0
-492 646 0
-91 0
-438 431 0
-876 182 0
-300 0
-774 263 0
-14 -283 0
-614 -453 0
784 -985 0
-737 0
192 -218 0
454 -946 0
675 -317 0
-387 -354 0
-392 475 0
-219 0
444 -764 0
405 -851 0
-656 0
-149 0
-48 -251 0
-736 0
-236 0
-112 -611 0
-276 509 0
274 -513 0
-898 0
728 -622 0
-821 -778 0
-266 0
-160 467 0
-449 0
-506 0
-127 0
-596 0
-408 685 0
-294 0
-372 0
-383 -492 0
-417 0
712 -122 0
-758 0
-673 0
-282 615 0
90 -474 0
-158 0
-698 0
-153 0
-698 0
-639 -797 0
-328 0
-364 -273 0
-814 956 0
768 -286 0
970 -35 0
-652 126 0
-476 0
-473 0
18 -115 0
986 -155 0
-836 0
-779 0
-959 58 0
-733 -73 0
-360 0
-622 -890 0
-822 0
-678 -59 0
-993 0
-282 0
-687 -198 0
-477 -681 0
-956 0
-256 0
-327 131 0
223 -657 0
-247 -553 0
-656 0
-605 -44 0
-920 0
-685 -619 0
-670 -949 0
-696 0
-727 767 0
-534 0
-763 0
-685 -93 0
-135 938 0
-479 -170 0
664 -448 0
-479 505 0
-967 362 0
-956 0
-142 0
-33 0
-576 0
-226 0
-443 991 0
-909 -906 0
-586 0
-731 0
-290 0
824 -866 0
-221 -251 0
-574 0
-762 0
-679 0
-579 0
-897 -729 0
-873 0
-561 0
-1 0
-670 0
-198 -708 0
-831 -283 0
-880 0
-779 0
-357 0
-821 -738 0
984 -673 0
770 -852 0
-927 -505 0
426 -284 0
-835 0
-815 402 0
-692 894 0
330 -930 0
-919 -682 0
-153 0
-639 963 0
-62 0
-14 0
-369 0
-144 0
377 -261 0
35 -331 0
-872 0
-742 -83 0
-254 0
-784 -991 0
636 -89 0
552 -862 0
761 -796 0
-322 -81 0
-136 566 0
547 -92 0
-993 0
-223 0
-665 0
-581 0
-484 -699 0
-10 975 0
-173 -579 0
588 -138 0
-568 0
387 -917 0
534 -617 0
-588 493 0
-153 0
-696 969 0
-428 383 0
-591 -313 0
283 -52 0
-664 -242 0
250 -577 0
-860 0
-259 0
-735 -714 0
-436 0
-870 0
-620 983 0
-806 0
-967 108 0
-343 0
-522 0
-8 0
-336 0
-42 0
275 -220 0
-919 -217 0
161 -897 0
-264 466 0
-878 -497 0
-127 0
-183 931 0
-178 -465 0
-374 -213 0
-417 0
-368 -356 0
-377 0
769 -820 0
-517 -85 0
-342 924 0
888 -645 0
-835 0
-532 0
-901 0
-442 0
629 -106 0
-134 -513 0
-166 0
-768 -500 0
-709 -83 0
-402 0
-509 -691 0
-101 151 0
437 -409 0
-716 -843 0
-624 178 0
570 -285 0
-595 -89 0
-733 -970 0
-929 0
-68 -995 0
-797 0
-571 0
-890 0
-741 0
730 -233 0
299 -937 0
-273 0
-293 0
817 -283 0
-451 0
-246 -892 0
-399 -603 0
-352 178 0
-290 0
-800 0
599 -393 0
-308 0
-226 0
968 -60 0
-871 0
866 -819 0
-127 0
-165 219 0
-387 -922 0
360 -42 0
-871 0
-293 -962 0
384 -547 0
584 -679 0
795 -642 0
-542 -211 0
107 -548 0
-598 558 0
291 -802 0
-64 0
817 -351 0
-982 0
-911 0
-560 437 0
-307 0
-95 836 0
721 -338 0
-902 572 0
-824 173 0
318 -930 0
146 -987 0
-975 -677 0
-751 -914 0
-695 -398 0
-286 0
241 -404 0
-45 0
981 -866 0
-132 422 0
-832 301 0
-304 -994 0
-685 0
-480 0
-116 -819 0
912 -614 0
-888 0
-777 311 0
-973 -809 0
-668 -666 0
-825 0
736 -193 0
-295 0
-1000 684 0
-81 0
442 -763 0
-215 251 0
-712 907 0
-154 0
-190 0
-502 350 0
-752 -839 0
-830 0
459 -146 0
-127 830 0
656 -97 0
-151 0
634 -338 0
638 -121 0
-149 52 0
-197 357 0
-58 0
-303 0
-671 0
946 -931 0
-632 783 0
-442 0
-725 -253 0
-232 0
-23 0
272 -681 0
440 -662 0
963 -970 0
-514 0
-78 0
-568 973 0
-784 611 0
-882 438 0
-138 0
579 -225 0
-252 518 0
-519 0
-149 -420 0
-813 461 0
-593 0
808 -412 0
-419 0
-569 0
-393 0
-826 407 0
-302 -267 0
-17 0
-39 0
-503 0
-631 0
-819 0
-756 0
-911 -871 0
-811 0
-128 0
-560 -866 0
706 -579 0
248 -29 0
-725 -883 0
-261 0
-29 0
-760 -463 0
-627 0
872 -16 0
-520 44 0
-415 0
-351 211 0
-320 552 0
-149 -210 0
-149 -179 0
-223 0
-833 0
-235 0
-720 140 0
-346 0
428 -545 0
-115 0
-444 726 0
-391 839 0
-564 0
-728 852 0
-727 0
-23 715 0
-43 0
-268 0
297 -894 0
-712 -905 0
-725 -740 0
860 -250 0
-110 -716 0
-978 0
-245 381 0
-798 -234 0
-972 -426 0
-943 53 0
-4 0
-220 -545 0
-725 815 0
-446 351 0
-578 0
-487 0
-893 -673 0
-247 0
-443 -346 0
-385 0
634 -557 0
-545 0
146 -433 0
-81 0
-588 0
-913 0
-911 -411 0
-704 115 0
-471 -666 0
-526 -777 0
-476 0
-688 0
-154 0
-203 0
-933 0
-667 957 0
-43 0
-961 0
-50 0
-415 678 0
-941 0
-269 0
-6 757 0
-509 0
-982 0
161 -942 0
-76 -260 0
-662 678 0
-69 0
-756 -497 0
-288 998 0
-576 691 0
-741 4 0
-578 0
713 -279 0
-124 663 0
-158 820 0
232 -210 0
-384 -202 0
28 -803 0
-230 0
-578 78 0
-983 675 0
-903 482 0
-25 0
420 -241 0
-533 111 0
-167 0
-446 0
-330 0
-499 -418 0
-831 0
868 -754 0
-410 0
323 -610 0
-763 -986 0
-63 0
82 -857 0
-896 0
-234 0
-448 828 0
-638 229 0
-610 0
-130 0
-24 652 0
130 -169 0
-447 0
-360 0
314 -966 0
-947 0
-495 0
-346 0
-926 366 0
-541 511 0
-147 0
-613 188 0
-434 0
524 -123 0
936 -443 0
-69 -337 0
249 -197 0
-253 -930 0
-543 677 0
-399 -642 0
-747 -313 0
-623 0
-694 0
-516 -155 0
491 -93 0
176 -610 0
-525 -427 0
522 -841 0
-883 0
-584 -286 0
-412 118 0
-94 0
909 -82 0
-986 0
704 -950 0
-950 0
-693 -317 0
-256 0
-358 -841 0
-548 446 0
-674 0
-447 -130 0
-383 -94 0
562 -388 0
-118 0
-49 0
410 -730 0
-994 847 0
-486 0
-902 0
-604 0
-347 0
-374 419 0
-949 181 0
-35 0
-125 0
-222 748 0
-237 926 0
-114 0
266 -161 0
60 -699 0
-909 237 0
-540 0
-271 205 0
-297 0
129 -942 0
-752 -938 0
-600 0
-541 0
188 -596 0
-478 0
964 -523 0
-220 -754 0
-529 0
-730 0
-456 -795 0
-482 -41 0
-344 -829 0
-286 0
-447 146 0
-660 0
-567 -821 0
553 -585 0
-778 0
-76 0
-124 -275 0
236 -331 0
-80 -785 0
-956 607 0
-904 507 0
254 -649 0
560 -423 0
-214 0
320 -71 0
-680 294 0
-511 -405 0
-100 0
520 -213 0
252 -859 0
-205 0
-430 -939 0
-406 612 0
892 -68 0
-599 0
-260 0
-520 0
-286 -81 0
-439 0
-715 901 0
-688 0
-884 -883 0
-807 0
-71 0
-80 -983 0
-776 736 0
-823 0
-447 0
72 -626 0
-452 0
-658 0
-66 0
757 -827 0
-914 0
-91 198 0
556 -57 0
470 -329 0
-23 -834 0
56 -524 0
-254 0
-608 -975 0
-736 0
-535 -643 0
-863 0
-828 0
-13 0
-802 0
-463 851 0
-456 81 0
185 -730 0
-198 -35 0
-108 0
924 -674 0
-986 0
-331 974 0
499 -123 0
-17 311 0
-205 0
-788 0
-551 -963 0
-28 0
-987 0
-622 0
-199 0
-277 -125 0
-389 206 0
676 -955 0
-971 0
896 -822 0
-613 221 0
-266 0
-495 0
-485 0
-879 0
-118 0
-84 -537 0
-432 706 0
-590 0
-893 0
-498 0
-660 230 0
956 -44 0
595 -450 0
-30 0
-756 -34 0
-381 0
-390 -731 0
-791 -753 0
-692 181 0
-594 246 0
-926 927 0
645 -635 0
-321 0
44 -105 0
-23 866 0
-472 0
-408 0
-207 -469 0
-837 -217 0
272 -467 0
-750 -966 0
-572 821 0
249 -59 0
-274 103 0
442 -402 0
-419 0
-412 0
-158 204 0
-730 0
-774 157 0
-799 262 0
-732 711 0
-486 31 0
-437 877 0
-721 0
-712 -620 0
-517 628 0
-178 0
753 -177 0
-280 -889 0
-108 0
-680 0
-491 767 0
93 -314 0
-461 0
-405 0
-743 -473 0
-935 -654 0
-464 -85 0
-937 0
-526 -341 0
-368 394 0
-5 615 0
-626 0
273 -222 0
-456 0
-406 -652 0
-404 -129 0
-740 -563 0
-818 0
-40 829 0
717 -331 0
456 -492 0
-352 0
-107 0
-400 718 0
-825 0
-990 -19 0
226 -881 0
-831 -69 0
-925 0
-328 -11 0
48 -420 0
-795 0
-870 485 0
-294 0
-434 -585 0
556 -803 0
460 -969 0
-836 0
-46 710 0
-950 0
-268 -570 0
-677 -796 0
-373 0
-931 0
-360 310 0
-393 0
-243 0
731 -841 0
-50 0
118 -945 0
-664 973 0
-259 0
19 -129 0
-6 -740 0
758 -697 0
-825 0
-251 -250 0
509 -409 0
-976 0
-200 -207 0
369 -878 0
241 -956 0
-115 -202 0
408 -476 0
-14 0
-248 -594 0
-586 0
-784 -372 0
605 -401 0
931 -698 0
-595 295 0
-468 0
-214 83 0
-442 0
-867 0
186 -827 0
-286 -468 0
-13 0
-514 0
-771 0
-140 0
-277 -730 0
-128 979 0
-216 0
-680 -611 0
-758 -673 0
-143 589 0
-888 0
-151 0
500 -202 0
956 -267 0
-794 959 0
-626 0
-317 0
-119 -19 0
728 -143 0
-536 567 0
-703 0
98 -291 0
-512 -347 0
-845 -531 0
-942 0
-268 0
-519 0
-208 -157 0
-124 -801 0
-718 -997 0
736 -400 0
-225 0
-40 0
-97 0
98 -201 0
-748 0
-30 975 0
-610 0
-86 -542 0
-459 -793 0
-60 0
-97 0
-22 0
-288 0
-975 570 0
-98 0
915 -13 0
-879 110 0
-207 -148 0
-617 0
-89 0
-382 -443 0
210 -739 0
-51 0
-256 0
-954 0
-932 0
-532 0
-360 -183 0
-51 0
-714 0
-375 0
-920 940 0
-361 0
217 -815 0
-17 783 0
-750 -253 0
-484 0
-431 0
258 -385 0
-223 0
-599 0
-736 -538 0
-847 -202 0
-235 463 0
-173 734 0
-694 -890 0
-871 999 0
-947 0
-571 758 0
-740 -947 0
569 -374 0
-188 0
-864 0
-515 0
-835 0
-295 -437 0
-412 0
-52 -145 0
437 -706 0
-396 71 0
-544 706 0
-110 0
-616 0
598 -593 0
-559 0
-787 -9 0
-808 621 0
253 -843 0
-755 0
329 -588 0
-391 0
-957 -485 0
-874 0
-830 997 0
-525 0
-739 -729 0
-909 0
136 -77 0
-551 0
-79 738 0
-237 845 0
-910 0
-311 0
-570 0
209 -471 0
-170 -593 0
-718 861 0
-16 141 0
865 -116 0
-58 231 0
677 -610 0
-39 0
178 -818 0
546 -275 0
-628 -2 0
-66 0
-357 732 0
-530 0
-983 365 0
-952 868 0
-547 335 0
-118 47 0
909 -867 0
-156 -258 0
-27 0
-169 0
-938 0
-683 350 0
-349 0
683 -484 0
-949 0
-694 0
-822 -316 0
612 -162 0
-608 -340 0
-40 173 0
-41 0
-640 0
-585 0
929 -883 0
-910 -180 0
-928 486 0
562 -121 0
-462 -629 0
-892 0
592 -870 0
-357 805 0
-924 -217 0
-330 0
-695 0
-128 -786 0
-53 0
714 -780 0
-298 0
-925 -484 0
-299 -579 0
798 -762 0
-351 383 0
627 -34 0
-289 0
-939 -361 0
-27 -329 0
832 -885 0
-707 0
-298 0
-244 734 0
-629 0
-60 207 0
8 -483 0
-6 0
-618 0
698 -654 0
-952 0
-390 615 0
472 -52 0
-941 319 0
1000 -803 0
-514 -225 0
-652 0
732 -714 0
530 -37 0
70 -81 0
-930 0
-358 -474 0
-78 -860 0
-117 582 0
-60 573 0
-230 166 0
-249 0
-607 0
-339 0
-399 0
179 -873 0
-625 0
-64 387 0
-731 0
-30 -530 0
-21 622 0
-511 0
-6 0
-819 589 0
-680 915 0
292 -746 0
-976 -33 0
-495 0
-447 0
-909 -236 0
-876 0
-927 -479 0
-497 0
-860 255 0
841 -684 0
-564 701 0
-660 0
643 -380 0
-39 0
25 -525 0
-669 -321 0
-198 76 0
-63 -702 0
221 -11 0
-814 134 0
674 -532 0
-540 341 0
-796 0
-150 0
-809 807 0
-52 0
-443 0
-550 0
-620 -393 0
-463 245 0
-288 -243 0
-763 0
-250 0
80 -681 0
145 -818 0
-18 -482 0
-573 0
-412 357 0
-823 -830 0
-486 -458 0
480 -211 0
-740 430 0
-883 0
629 -985 0
-340 -147 0
-676 0
-86 -627 0
-327 0
-45 0
40 -489 0
842 -9 0
-631 0
497 -207 0
-136 -885 0
-262 0
-271 0
-816 0
657 -493 0
-751 0
-122 503 0
-529 0
98 -947 0
-752 -614 0
-344 -625 0
-881 -257 0
-557 0
-714 0
-155 917 0
-445 -507 0
-525 0
-60 0
-908 0
-971 -586 0
-912 -527 0
-845 0
-708 0
443 -395 0
-589 0
-987 -482 0
-447 413 0
-584 -446 0
-429 -245 0
-708 -425 0
-563 302 0
-163 0
-859 0
384 -634 0
-159 266 0
-795 118 0
-146 0
-147 0
-18 0
-69 -301 0
-610 0
-103 -991 0
-306 0
434 -429 0
484 -513 0
-722 -409 0
-235 0
666 -337 0
-103 548 0
-649 0
-535 -458 0
-483 0
-340 0
569 -149 0
-239 -350 0
728 -91 0
-882 0
828 -873 0
-275 -235 0
697 -543 0
-416 0
-394 -889 0
-993 0
849 -471 0
-508 0
-788 0
-960 897 0
-207 -857 0
-816 98 0
-223 0
152 -717 0
-246 0
-384 -832 0
-812 0
348 -619 0
-340 -841 0
781 -843 0
-654 -516 0
728 -564 0
-559 0
-927 79 0
-391 3 0
-387 0
-784 955 0
-48 -817 0
-82 0
-654 471 0
-993 0
-975 563 0
-397 -620 0
537 -513 0
-61 -393 0
-124 0
-824 -718 0
355 -402 0
515 -19 0
-494 580 0
-952 0
-332 0
-814 526 0
-734 -609 0
-790 -828 0
-618 -769 0
-637 -492 0
-471 0
323 -874 0
-227 0
89 -261 0
-572 935 0
-692 -51 0
-298 0
-819 0
-277 596 0
-878 -81 0
-789 877 0
384 -586 0
13 -65 0
68 -713 0
-517 -890 0
-408 0
-858 0
-320 -483 0
572 -595 0
-969 0
-884 357 0
-646 0
-225 0
-943 0
-191 0
-273 0
6 -593 0
450 -340 0
-926 0
-158 0
-647 -404 0
810 -474 0
177 -347 0
-488 -936 0
152 -342 0
793 -993 0
-272 -642 0
-233 0
-528 -370 0
-60 148 0
-117 0
-452 -257 0
57 -572 0
-963 0
-580 0
-203 814 0
-306 0
-514 0
80 -869 0
-116 0
-70 724 0
-570 423 0
-554 0
-782 0
-353 0
720 -214 0
-101 0
-540 0
-839 0
-196 0
-441 0
-599 -838 0
148 -74 0
-728 993 0
-597 0
-968 -654 0
716 -27 0
-842 319 0
909 -482 0
323 -865 0
-175 778 0
-919 0
-792 -918 0
600 -939 0
-115 534 0
-191 0
-624 -71 0
-928 498 0
-99 0
-617 0
-333 0
-267 0
-683 -298 0
-70 942 0
-633 0
-538 0
-752 455 0
-54 -149 0
-167 -903 0
-702 317 0
-392 59 0
-635 -201 0
-355 -561 0
-898 0
-401 0
-723 0
752 -929 0
-205 0
-69 0
-713 0
962 -898 0
-586 0
80 -24 0
-383 0
-659 935 0
-52 -795 0
-816 -142 0
684 -179 0
532 -881 0
298 -422 0
-496 842 0
-430 -925 0
-237 227 0
738 -674 0
-515 0
-107 0
859 -252 0
-665 0
71 -297 0
313 -819 0
-960 465 0
-406 -137 0
329 -994 0
325 -955 0
826 -89 0
393 -193 0
-532 0
-572 -505 0
-748 0
-869 0
-942 390 0
-154 -345 0
-993 -617 0
-74 0
-989 0
-376 13 0
448 -655 0
-984 0
-906 447 0
-158 -451 0
-285 -36 0
821 -985 0
-966 0
-654 -604 0
586 -34 0
-636 0
-571 0
-716 855 0
93 -2 0
81 -518 0
-118 -650 0
-385 0
433 -303 0
546 -189 0
-681 -449 0
-482 0
-782 0
-108 262 0
389 -586 0
-755 951 0
-422 0
-271 0
-828 0
657 -11 0
-879 851 0
626 -618 0
-502 214 0
-395 0
-464 0
-5 0
-306 0
-693 645 0
153 -717 0
-540 0
-136 835 0
-467 0
-212 0
-429 357 0
-382 -828 0
-232 0
290 -553 0
544 -82 0
-875 0
-40 -355 0
-766 565 0
419 -338 0
934 -490 0
-372 -346 0
-976 907 0
-752 422 0
-777 -289 0
-967 -973 0
473 -611 0
-457 0
-654 -77 0
-43 622 0
-879 0
-840 0
-644 0
-167 789 0
-472 12 0
600 -993 0
-901 300 0
-584 0
-550 -374 0
-85 271 0
-199 0
886 -882 0
-760 773 0
-629 0
321 -950 0
-502 -477 0
-437 639 0
68 -451 0
-735 -916 0
-640 0
336 -458 0
957 -698 0
-66 -881 0
-283 -513 0
260 -50 0
107 -220 0
682 -358 0
-575 -418 0
-85 -362 0
-889 0
-863 889 0
-663 -699 0
-15 -898 0
-965 0
-939 0
-199 -485 0
-329 0
888 -738 0
684 -482 0
-248 -987 0
682 -925 0
707 -554 0
-76 125 0
324 -290 0
-271 527 0
-5 0
-344 435 0
-95 0
-567 0
801 -29 0
-412 0
962 -612 0
-35 -801 0
-520 0
-267 0
-995 -666 0
980 -34 0
226 -85 0
-568 -841 0
-646 86 0
-484 0
-833 0
-709 661 0
-291 0
-724 5 0
-439 0
-583 615 0
-562 0
-850 0
-320 0
-84 0
-544 644 0
-933 190 0
-760 -235 0
-553 0
-104 0
-159 -334 0
-232 191 0
662 -857 0
-270 0
780 -524 0
288 -77 0
-313 0
-550 0
-653 487 0
112 -736 0
-153 0
345 -130 0
-536 0
58 -306 0
915 -65 0
-984 0
-139 0
-536 507 0
-394 526 0
-457 0
-248 270 0
-876 -908 0
-39 -193 0
944 -777 0
-255 0
-748 0
-277 0
654 -793 0
803 -586 0
-300 0
-499 -193 0
-288 387 0
-423 -162 0
-644 0
-819 253 0
-946 0
-296 0
-409 0
-957 0
-927 229 0
-927 531 0
-967 0
-251 0
-371 0
-575 0
-112 153 0
-224 0
-199 -550 0
-519 0
-351 975 0
-494 0
-129 0
-981 -449 0
-891 0
-507 677 0
-116 -715 0
-132 0
-536 -574 0
-111 0
-712 881 0
-158 27 0
978 -369 0
-218 0
786 -268 0
-970 0
-589 -954 0
-200 694 0
-974 654 0
-520 717 0
-277 -548 0
154 -811 0
-822 506 0
-727 122 0
-513 0
-183 163 0
-96 -367 0
-877 557 0
233 -137 0
-121 0
-49 463 0
-431 0
-159 236 0
-469 -116 0
-31 -345 0
-356 0
-534 -899 0
784 -779 0
793 -612 0
601 -205 0
928 -575 0
-384 443 0
-589 0
915 -74 0
-963 0
-152 145 0
-967 0
-455 -713 0
-614 -273 0
-55 0
780 -979 0
-935 301 0
-982 0
-71 0
857 -302 0
-1 -113 0
-328 0
-632 0
-213 103 0
268 -233 0
-462 387 0
493 -451 0
-488 -482 0
-916 0
852 -731 0
-263 0
-731 0
-422 923 0
-936 357 0
-827 726 0
-255 0
-461 110 0
-525 0
-871 -734 0
81 -655 0
-694 0
381 -619 0
-239 389 0
-538 -105 0
-910 0
396 -241 0
-500 0
-826 -33 0
440 -902 0
743 -433 0
445 -994 0
-740 76 0
-237 0
633 -933 0
-69 0
649 -826 0
425 -97 0
-837 -828 0
-911 0
-295 687 0
-582 229 0
-748 -426 0
-858 0
488 -796 0
74 -387 0
-962 -169 0
-304 0
433 -811 0
-429 0
-416 636 0
-342 -962 0
338 -9 0
-925 989 0
258 -101 0
-499 0
197 -113 0
-341 0
-240 0
-234 0
-766 0
-164 0
-467 0
-239 -377 0
-40 -325 0
-428 0
-138 0
-103 0
-690 742 0
-303 0
-808 0
-356 -603 0
604 -322 0
-97 0
-376 -799 0
-971 0
-838 0
-483 -843 0
-694 -509 0
-142 0
-458 0
-613 -115 0
-680 583 0
-450 0
-744 0
640 -257 0
-596 -753 0
970 -93 0
-835 0
-398 0
-980 -994 0
-829 0
-24 0
948 -185 0
-853 246 0
-681 0
-23 319 0
848 -541 0
725 -794 0
74 -620 0
520 -465 0
912 -838 0
-14 0
123 -380 0
-192 -591 0
-804 0
-953 0
-293 -379 0
-991 515 0
-264 -580 0
-510 -123 0
-331 0
-422 0
-59 855 0
-428 295 0
-870 0
468 -265 0
-755 -362 0
-213 0
-319 13 0
-270 0
-678 0
-402 0
-108 741 0
-708 316 0
-589 468 0
121 -129 0
-882 0
85 -945 0
-919 627 0
-754 0
-173 0
-282 0
-680 0
-927 -985 0
-138 0
-759 389 0
-709 0
-465 0
-246 -658 0
-440 0
796 -561 0
-97 -473 0
-262 0
-652 0
-333 0
-3 -657 0
396 -489 0
-550 0
-568 450 0
-236 0
-325 740 0
-261 -403 0
894 -881 0
-926 -513 0
650 -549 0
-406 -205 0
410 -773 0
-270 0
-68 0
-360 -402 0
296 -125 0
-172 0
-683 0
-836 0
-847 292 0
-583 950 0
-888 -613 0
-36 0
842 -657 0
-816 -216 0
-660 0
-973 -365 0
986 -689 0
-664 0
-766 -523 0
-88 -700 0
-608 0
-791 191 0
777 -406 0
796 -833 0
-911 0
955 -57 0
-267 0
42 -51 0
557 -809 0
-528 -805 0
-997 0
-415 -58 0
-584 6 0
-218 0
770 -733 0
-806 686 0
-615 0
-325 0
-169 0
-992 0
-138 246 0
-861 0
-45 0
-973 -493 0
-796 0
-390 622 0
522 -211 0
-917 0
841 -187 0
-539 0
-845 0
-121 0
-707 0
-913 0
-887 901 0
322 -657 0
739 -674 0
-310 -373 0
-9 0
584 -172 0
107 -482 0
793 -193 0
-429 0
-171 0
-127 0
212 -937 0
905 -790 0
-934 -827 0
-825 0
-901 0
481 -322 0
-30 0
-972 0
-766 502 0
-218 0
280 -679 0
-377 0
-696 46 0
-676 679 0
-664 -353 0
822 -929 0
-559 164 0
-781 -801 0
802 -676 0
-526 -77 0
-425 0
-565 0
-480 0
-454 -914 0
-431 0
-577 0
-433 0
-959 0
-5 821 0
-985 0
-875 -801 0
-970 0
-28 564 0
-175 0
-655 147 0
-511 -979 0
-927 -317 0
-370 0
-609 0
-371 0
256 -59 0
-59 -667 0
-101 -163 0
-484 -802 0
-688 0
-357 0
-925 959 0
-85 486 0
-997 0
-272 721 0
-133 0
-255 203 0
-904 -874 0
-241 0
-452 -827 0
-318 630 0
-717 -337 0
-927 -292 0
-253 277 0
-782 0
-693 -861 0
-294 0
-519 717 0
-162 967 0
153 -583 0
368 -612 0
-258 -49 0
-892 -601 0
-48 -252 0
-526 0
-238 -123 0
-48 -191 0
802 -322 0
123 -987 0
-489 0
-214 0
-566 858 0
772 -337 0
-851 0
-31 0
-733 150 0
-581 -475 0
-479 5 0
146 -845 0
-853 0
-568 0
-752 315 0
-772 -788 0
11 -234 0
-896 -301 0
-525 0
-440 516 0
-495 -635 0
-519 0
-80 -791 0
-710 -441 0
-421 -883 0
-963 0
-505 0
-863 227 0
-573 0
913 -92 0
-798 0
240 -900 0
-228 -107 0
714 -691 0
-871 245 0
-862 -482 0
-805 -178 0
-58 0
34 -625 0
-992 -185 0
-73 671 0
-640 557 0
-886 0
-936 -301 0
-223 693 0
-76 -602 0
936 -462 0
299 -188 0
-596 -945 0
-903 -311 0
-335 -662 0
-424 339 0
-178 814 0
-16 275 0
-63 -210 0
-666 0
-575 -810 0
-545 0
104 -903 0
-982 829 0
947 -401 0
-479 0
-799 706 0
338 -665 0
-202 0
758 -657 0
-905 0
-773 -411 0
297 -758 0
-181 0
194 -300 0
-418 0
-356 0
-634 0
-556 -972 0
-920 0
-271 -444 0
-238 0
-45 0
-784 -215 0
443 -251 0
-606 -267 0
-613 -251 0
-373 0
-565 0
-784 0
-758 0
712 -325 0
-148 0
-972 0
-767 -564 0
229 -81 0
375 -121 0
-128 562 0
-149 117 0
692 -378 0
-953 0
-914 0
-712 0
-648 447 0
-687 -457 0
-36 478 0
-326 -346 0
409 -980 0
-960 0
-780 36 0
-378 0
-256 -362 0
813 -859 0
-86 996 0
-434 0
-343 0
184 -553 0
-784 0
396 -242 0
604 -667 0
-891 750 0
-585 0
-558 -596 0
-543 -981 0
-247 485 0
-337 0
-407 0
-778 0
362 -298 0
353 -602 0
-926 0
-859 0
288 -539 0
-891 0
-832 5 0
989 -843 0
-130 0
648 -247 0
-615 668 0
48 -512 0
-96 0
-869 0
-516 0
-293 0
-77 87 0
-700 0
-415 0
-45 -283 0
-324 0
-710 885 0
-304 473 0
-816 0
-497 0
641 -557 0
-259 0
-173 -204 0
-617 0
-687 -62 0
-348 439 0
889 -234 0
-435 751 0
-154 887 0
-299 0
-419 0
-177 0
-488 -149 0
281 -47 0
-864 626 0
-295 0
-135 0
-315 0
933 -617 0
-483 -49 0
-887 -733 0
-644 77 0
-132 -76 0
-563 -931 0
-463 133 0
-806 0
-898 -626 0
-13 0
-613 229 0
-220 350 0
-733 0
-696 0
-920 -934 0
-31 391 0
-597 0
-985 0
-487 0
52 -595 0
-280 -477 0
208 -221 0
-939 -994 0
-532 0
-238 0
418 -948 0
930 -972 0
-188 0
-811 0
-47 707 0
938 -906 0
-650 751 0
-749 0
-350 66 0
-382 0
105 -957 0
-338 0
-163 0
-864 0
-575 0
-239 -601 0
-797 -161 0
-839 591 0
-565 -505 0
-509 0
-215 -778 0
-462 0
-461 0
-641 0
-53 0
-555 757 0
769 -143 0
112 -581 0
-333 -811 0
128 -721 0
-916 0
989 -835 0
-713 0
317 -601 0
-500 0
-695 0
-693 0
-288 -480 0
-897 0
-1000 -287 0
-352 -958 0
-428 0
-878 0
-776 -498 0
-217 0
-250 -425 0
-391 0
-86 0
611 -90 0
-117 0
-192 0
-462 932 0
-852 -282 0
224 -347 0
356 -993 0
-975 812 0
-836 917 0
148 -17 0
-959 0
-701 0
-7 0
-648 0
217 -771 0
-221 0
-805 0
-893 77 0
-940 -162 0
-904 0
-95 634 0
-447 727 0
-690 0
-315 0
-555 0
-834 0
-50 0
942 -969 0
-525 -889 0
48 -523 0
-341 0
-994 0
729 -660 0
-979 -657 0
-607 0
-936 -286 0
-455 0
-437 693 0
523 -141 0
-27 0
-252 -90 0
-481 0
-53 0
-835 0
-702 0
-255 0
-509 527 0
-269 0
-125 364 0
-215 0
-911 -926 0
288 -465 0
-3 0
-419 0
-504 893 0
-99 0
88 -728 0
-891 -626 0
364 -258 0
-798 899 0
865 -202 0
-294 587 0
-603 0
-327 0
-376 874 0
-629 451 0
-849 0
-460 -737 0
98 -852 0
120 -979 0
-96 -690 0
861 -490 0
-295 0
-424 -933 0
778 -270 0
-119 0
-564 -963 0
-82 0
-916 119 0
760 -941 0
434 -203 0
-828 0
-747 855 0
-690 0
-435 0
-918 0
-608 101 0
-213 0
-558 0
803 -769 0
-712 -890 0
-280 -161 0
-345 0
-154 0
597 -209 0
-455 0
231 -129 0
785 -603 0
1 -750 0
-237 23 0
-543 -762 0
-869 0
354 -395 0
-126 244 0
-499 0
-555 0
-738 503 0
-116 -689 0
241 -251 0
-644 845 0
-754 0
315 -354 0
-468 0
-733 0
-520 -179 0
-664 29 0
-928 0
-895 722 0
881 -796 0
-486 0
-180 0
144 -118 0
-561 0
-28 0
172 -713 0
-223 -402 0
-659 718 0
-551 77 0
-257 0
-331 0
-97 0
322 -857 0
-206 22 0
-38 0
-421 0
-799 0
-92 0
-384 -882 0
-197 -697 0
-470 0
-637 0
890 -618 0
-768 0
-715 -899 0
-343 0
-557 326 0
-606 0
-535 663 0
528 -421 0
-6 788 0
-255 0
-320 548 0
-148 -779 0
-360 0
362 -498 0
-454 661 0
-496 -204 0
256 -74 0
-163 750 0
-891 0
-298 0
993 -149 0
-845 0
-134 0
-901 0
-48 -672 0
-811 727 0
-345 0
123 -172 0
282 -973 0
-642 0
-990 403 0
908 -818 0
-678 410 0
969 -981 0
-553 0
-916 -452 0
-367 0
-120 -300 0
-127 319 0
-581 0
-712 0
693 -682 0
-146 0
962 -132 0
-430 76 0
-335 839 0
330 -490 0
-710 -684 0
928 -394 0
1000 -568 0
-734 0
-683 934 0
-192 -474 0
-520 -542 0
-721 0
169 -683 0
-399 0
-395 358 0
-256 -563 0
-638 0
-935 0
-993 -849 0
192 -498 0
-168 0
241 -446 0
-999 0
-37 0
-743 0
-248 0
-611 -378 0
-792 636 0
915 -257 0
-215 -801 0
570 -467 0
108 -121 0
-84 981 0
-399 0
374 -465 0
-156 0
-293 0
-472 0
-451 0
203 -412 0
977 -190 0
-263 -370 0
-87 -53 0
948 -417 0
-224 0
-826 0
674 -355 0
-374 213 0
-872 55 0
-606 343 0
-439 -834 0
-400 -268 0
-581 923 0
-543 -12 0
-174 212 0
-642 0
-662 883 0
-179 0
-93 -548 0
-97 0
-509 -834 0
-239 -451 0
745 -706 0
-735 0
-181 0
-560 -175 0
-839 -702 0
-992 518 0
-439 0
-380 0
746 -969 0
-392 0
-93 0
-919 643 0
-790 125 0
212 -801 0
-614 0
-99 462 0
76 -746 0
-279 -821 0
-669 94 0
-227 0
-851 0
416 -755 0
-979 0
-768 -665 0
-108 790 0
-327 71 0
-903 842 0
-989 0
-212 -298 0
-942 467 0
756 -346 0
-737 0
-64 0
-888 -285 0
419 -557 0
-954 -642 0
-766 -570 0
986 -33 0
683 -755 0
-584 497 0
-563 -210 0
768 -615 0
-792 146 0
-520 0
-318 -726 0
-268 -345 0
436 -964 0
-687 964 0
-537 0
-98 0
-182 0
-838 0
-363 0
-530 0
-989 -601 0
-260 0
-20 -737 0
312 -77 0
-413 0
-747 0
-325 0
-891 0
-468 0
288 -961 0
-183 0
-920 -163 0
-45 0
-772 0
-562 0
-370 0
-920 0
-766 0
-276 -354 0
-846 0
-918 -74 0
-541 22 0
-390 155 0
-231 -377 0
891 -45 0
-915 0
-781 -283 0
-673 0
-620 0
475 -90 0
-956 0
-116 54 0
170 -310 0
-407 765 0
-693 0
-365 0
201 -481 0
-241 0
-19 0
-814 0
-760 979 0
-110 835 0
-780 -33 0
-863 745 0
-367 951 0
-381 -395 0
-334 731 0
-718 -142 0
-39 0
-481 0
-607 0
-122 0
-323 -994 0
-266 0
-422 0
-81 0
-804 767 0
-410 -770 0
-616 0
240 -277 0
-981 0
-250 0
-56 0
-451 0
-292 0
-341 303 0
-909 0
-286 0
-443 -785 0
26 -433 0
-503 0
-638 0
-721 0
-35 0
833 -523 0
632 -942 0
-405 0
-496 0
843 -153 0
-880 0
-15 36 0
-92 0
-21 0
992 -211 0
-322 0
-68 964 0
-153 0
-469 0
-418 0
-210 999 0
665 -586 0
372 -619 0
-262 0
948 -931 0
-728 985 0
-304 -329 0
402 -329 0
-742 -269 0
323 -317 0
-526 0
-696 0
-839 -838 0
-118 0
761 -756 0
-4 -187 0
-427 653 0
-653 0
729 -236 0
-919 -487 0
-799 0
-909 -899 0
-948 -475 0
-712 0
-10 0
-149 742 0
-342 635 0
654 -305 0
-571 0
-757 0
434 -707 0
-229 182 0
-161 0
-714 0
-984 274 0
-349 0
-37 0
-628 0
-205 0
-278 -897 0
842 -261 0
-886 0
-26 895 0
-358 -26 0
-534 0
102 -913 0
32 -105 0
-870 0
-600 946 0
-983 0
-491 0
-960 0
-6 0
-668 0
-206 0
-631 -655 0
-815 249 0
-116 0
-16 0
792 -43 0
-648 622 0
-745 0
-755 357 0
-636 199 0
-183 -473 0
-578 246 0
-805 0
-520 0
-650 -569 0
387 -324 0
952 -856 0
469 -825 0
-541 364 0
-407 -234 0
-542 0
-134 68 0
415 -905 0
-218 0
-63 0
-574 910 0
-711 0
-236 0
66 -348 0
-764 0
241 -633 0
-516 0
-80 0
-840 -635 0
-165 -321 0
816 -149 0
-844 -643 0
-628 669 0
-129 0
-116 0
-470 398 0
863 -353 0
186 -356 0
-495 -369 0
-574 0
-265 0
-750 687 0
-503 607 0
-818 0
129 -684 0
-158 367 0
-997 0
881 -540 0
169 -41 0
-118 -770 0
-383 -221 0
827 -723 0
-901 0
-94 0
-533 684 0
-779 309 0
-671 0
-105 -585 0
-914 0
-683 0
-891 0
894 -625 0
-137 0
-791 925 0
-117 -44 0
-326 0
-776 0
-839 855 0
-949 381 0
-252 -315 0
-576 0
-94 997 0
-939 -674 0
293 -169 0
-319 247 0
1000 -127 0
843 -548 0
-260 0
-72 -935 0
610 -186 0
-671 -977 0
-736 317 0
-463 -998 0
-748 511 0
417 -905 0
-42 0
-537 0
-641 0
467 -34 0
-97 175 0
272 -403 0
-819 0
-908 0
-349 0
-45 -371 0
253 -139 0
-318 799 0
-38 143 0
-272 973 0
-532 269 0
-576 638 0
-824 -330 0
-751 958 0
-162 0
-244 294 0
-438 0
-285 0
-768 -111 0
-894 0
-582 0
-606 0
-239 0
-396 -995 0
-665 0
-764 996 0
-731 0
-854 706 0
-532 0
-48 -919 0
960 -830 0
-478 860 0
-269 0
-832 -616 0
-982 -681 0
-535 0
-680 -424 0
-659 0
-970 0
-82 -290 0
-334 126 0
-21 0
-568 -452 0
-826 0
-455 222 0
-253 -874 0
-811 0
578 -82 0
-463 -162 0
-248 0
-663 715 0
-597 750 0
-35 0
-339 0
-46 -785 0
-248 0
-855 -326 0
-123 0
-648 608 0
-149 -993 0
483 -186 0
165 -18 0
-47 403 0
-486 663 0
-643 0
-193 0
-610 0
-804 0
-726 -83 0
-797 0
-166 742 0
-746 759 0
-769 0
-606 607 0
-301 285 0
923 -153 0
771 -619 0
993 -876 0
-192 0
-700 -89 0
-554 -658 0
-344 -445 0
-527 -279 0
8 -177 0
-670 -454 0
-244 357 0
-511 -130 0
-967 -418 0
-560 -946 0
-199 0
872 -575 0
-933 0
-864 -667 0
-987 -218 0
-694 646 0
-319 -674 0
-140 212 0
83 -261 0
875 -972 0
-798 -363 0
-553 0
-439 985 0
-773 0
200 -331 0
324 -546 0
-443 0
-623 0
-969 0
-501 747 0
-50 0
-345 -281 0
-618 0
-604 0
-707 0
-472 45 0
-871 700 0
-294 -149 0
-836 0
-901 739 0
-328 0
-743 0
-716 0
492 -385 0
-742 0
-63 0
-527 0
-240 0
-287 -66 0
-741 0
-758 0
-719 502 0
-114 0
-304 0
840 -716 0
938 -729 0
-707 0
-702 0
-378 -450 0
-447 -737 0
-994 0
379 -193 0
-581 0
-991 0
712 -753 0
385 -961 0
-52 -481 0
264 -642 0
-436 0
820 -162 0
-38 909 0
-584 -403 0
-915 0
-901 0
-149 -11 0
-498 0
764 -155 0
-216 0
704 -239 0
-956 0
-175 -615 0
-803 0
-234 0
-483 0
-21 52 0
-357 645 0
784 -74 0
-90 0
-232 0
-736 -262 0
-581 0
-370 0
-892 63 0
-832 -382 0
-612 396 0
-791 0
401 -405 0
952 -109 0
-341 53 0
-981 -797 0
432 -249 0
-70 0
-1 0
-356 0
-103 815 0
-798 0
-553 0
-47 0
-223 -825 0
-503 0
-545 0
-579 214 0
609 -444 0
-269 302 0
853 -73 0
-519 180 0
-942 0
123 -595 0
632 -789 0
-1000 789 0
-483 0
314 -974 0
-606 0
-432 -489 0
-655 317 0
-781 0
196 -202 0
-568 0
-958 786 0
834 -877 0
-166 -217 0
893 -362 0
-269 420 0
-926 -897 0
-119 0
-642 0
-496 -877 0
-48 0
-184 900 0
56 -713 0
11 -84 0
272 -166 0
-298 0
-462 0
-943 0
-282 -625 0
-574 92 0
-821 0
-574 -442 0
-535 0
-153 0
978 -513 0
-21 0
419 -98 0
-977 0
-784 0
345 -372 0
-192 466 0
-896 373 0
-756 0
-879 0
-27 941 0
-236 0
-195 0
147 -258 0
-915 0
640 -179 0
410 -100 0
-631 0
300 -508 0
-556 0
43 -385 0
-768 -642 0
944 -757 0
-773 0
-1000 -631 0
-638 0
196 -483 0
364 -809 0
702 -274 0
579 -332 0
-744 -492 0
86 -305 0
-270 0
-485 -449 0
-968 0
-319 -295 0
444 -610 0
-857 0
-362 0
-162 0
-383 97 0
-46 0
-610 0
-348 -690 0
-12 558 0
-253 661 0
-377 0
-72 721 0
-239 327 0
-603 990 0
-6 795 0
-878 211 0
-132 0
-254 124 0
-638 654 0
-180 806 0
-916 0
960 -158 0
477 -258 0
-551 0
-438 -205 0
-949 0
-84 -956 0
-198 -857 0
104 -25 0
-796 0
-237 215 0
601 -946 0
-372 -155 0
-439 162 0
-422 0
-802 0
-583 -853 0
-797 0
-61 0
-917 359 0
616 -774 0
-471 605 0
-383 -886 0
-48 -366 0
-400 0
-444 0
490 -139 0
897 -779 0
-725 148 0
-732 0
-576 0
-819 0
-276 0
-224 -83 0
537 -86 0
-346 0
-926 -493 0
-82 0
-565 36 0
-352 0
944 -227 0
-917 -564 0
-980 911 0
-333 -85 0
-240 0
-710 0
-254 0
675 -562 0
-407 269 0
-679 222 0
-612 550 0
-720 411 0
-451 -297 0
-956 -195 0
-857 0
-616 0
-967 0
-282 0
-998 -826 0
-880 300 0
-177 0
-19 0
-72 -643 0
5 -731 0
-514 0
305 -708 0
-669 479 0
-636 604 0
-276 0
-588 652 0
263 -545 0
-63 0
-335 0
-845 -130 0
-404 596 0
-88 271 0
-157 0
-64 677 0
-24 -199 0
-302 0
-593 0
-915 0
872 -289 0
-944 908 0
-205 -427 0
-821 0
-47 828 0
-295 60 0
578 -924 0
-539 -609 0
-301 -764 0
-430 0
708 -772 0
-963 0
-524 0
-129 0
-511 0
-704 -702 0
18 -907 0
-71 0
-125 -44 0
-316 0
-690 0
-964 0
-518 -690 0
-868 -289 0
755 -409 0
-681 0
-501 0
-779 0
-302 0
-877 606 0
523 -282 0
792 -543 0
-563 -955 0
-967 747 0
-454 0
-87 -185 0
-93 0
-216 0
74 -518 0
774 -401 0
-55 0
-278 902 0
-766 -924 0
963 -75 0
-536 -766 0
-940 0
940 -314 0
714 -195 0
-917 0
-475 0
-753 -249 0
-628 0
-318 309 0
-579 -866 0
-275 0
294 -649 0
-973 0
593 -145 0
593 -441 0
-868 0
781 -443 0
-35 519 0
-108 0
-560 -314 0
680 -181 0
705 -967 0
-220 0
-11 0
570 -756 0
-618 0
-217 0
-653 -99 0
-73 0
-904 -770 0
-716 197 0
907 -27 0
-272 -246 0
-975 0
-926 0
130 -890 0
-902 -379 0
880 -727 0
-519 0
-916 29 0
-736 -791 0
-299 -577 0
-151 0
-485 -595 0
992 -201 0
-670 0
-148 0
-596 597 0
-914 0
-573 0
-830 -875 0
756 -17 0
-423 0
-764 0
-912 289 0
929 -908 0
-628 -26 0
-899 967 0
-493 -138 0
-295 0
-94 750 0
-613 0
-864 -545 0
661 -842 0
-678 602 0
-174 0
-575 0
-791 524 0
996 -740 0
674 -638 0
-463 0
-619 0
-315 -17 0
-274 0
-139 0
-608 0
-1000 -719 0
-94 346 0
-312 0
-98 -369 0
667 -83 0
-566 179 0
-509 591 0
777 -578 0
-359 0
-668 759 0
-530 0
-674 0
-676 -945 0
-53 575 0
-126 -210 0
-69 0
-359 0
-73 0
-780 959 0
-652 735 0
313 -218 0
-743 -273 0
-216 185 0
-525 343 0
-400 167 0
-68 0
-762 0
-119 -649 0
-663 647 0
-411 0
-980 0
-390 773 0
-545 0
-398 0
756 -451 0
-819 0
435 -995 0
561 -597 0
-480 803 0
-894 0
-862 0
-464 141 0
-550 0
-904 -319 0
-394 0
-9 0
-864 0
-87 0
-329 0
-237 643 0
-784 847 0
729 -271 0
-989 0
-844 0
659 -81 0
-534 0
160 -636 0
-609 0
658 -629 0
-564 0
-872 0
-15 -809 0
346 -197 0
-629 311 0
-829 -891 0
-909 -61 0
-65 0
-427 0
153 -361 0
306 -612 0
528 -206 0
-695 -364 0
544 -802 0
-843 0
496 -146 0
625 -675 0
513 -278 0
-128 -811 0
-317 0
665 -31 0
-848 438 0
-390 922 0
516 -819 0
-128 -478 0
-174 0
-979 743 0
-98 0
-429 0
-943 0
-112 774 0
-267 989 0
818 -252 0
-700 0
-278 -926 0
-871 818 0
802 -899 0
-702 -819 0
179 -301 0
-414 342 0
-999 0
-359 668 0
497 -3 0
-649 0
-17 0
-224 -563 0
-415 -162 0
-639 563 0
545 -276 0
-928 0
-293 716 0
-343 0
605 -418 0
-703 58 0
-87 0
-205 0
120 -297 0
-716 0
593 -131 0
497 -446 0
-153 0
-61 0
-562 0
-591 318 0
-52 47 0
-280 0
904 -589 0
-695 -571 0
-784 -602 0
-408 0
-207 0
-870 0
-88 0
-336 234 0
904 -418 0
-592 0
-776 -922 0
-982 0
-695 0
-117 0
-753 0
-24 779 0
-640 0
-856 0
-811 0
-88 -649 0
296 -492 0
-53 877 0
688 -685 0
-261 0
-230 -165 0
-502 572 0
-159 0
-509 0
-104 452 0
-429 0
749 -187 0
-646 0
-158 727 0
-22 -923 0
-97 775 0
-568 -453 0
-927 0
-768 745 0
-740 0
-938 0
-522 0
624 -606 0
-48 0
-275 0
-866 0
-161 0
-840 0
-79 813 0
-568 919 0
-62 0
-103 -529 0
-139 0
-247 -973 0
-566 423 0
-813 0
657 -417 0
-944 -709 0
-649 0
-947 30 0
-430 0
-670 0
-491 0
-582 0
-34 334 0
-854 565 0
-406 0
-351 0
-646 0
-671 0
-344 889 0
-720 -84 0
-372 0
-170 -402 0
234 -106 0
-343 0
-437 -914 0
-256 324 0
565 -81 0
450 -662 0
255 -961 0
-870 0
-113 0
-167 0
-591 467 0
-598 0
-687 -310 0
-994 -705 0
-898 0
-414 -553 0
-599 0
-799 -948 0
912 -355 0
-62 559 0
-360 151 0
-503 -438 0
-999 0
-434 -697 0
-511 0
315 -833 0
-880 -641 0
-439 0
-530 0
-893 0
-455 -17 0
-627 0
-683 -307 0
-509 500 0
-327 -567 0
-845 -786 0
-862 -726 0
-886 823 0
-399 0
-224 866 0
-151 -674 0
54 -105 0
-938 0
-123 398 0
-177 0
-5 0
337 -973 0
840 -593 0
-584 668 0
387 -29 0
728 -754 0
123 -181 0
-221 0
2 -171 0
235 -82 0
-230 0
-229 -506 0
-164 678 0
-304 534 0
-610 0
121 -721 0
-16 0
-12 0
524 -618 0
-424 239 0
-58 0
-236 383 0
-183 0
-657 0
739 -778 0
-757 -506 0
-972 0
-641 911 0
752 -976 0
-550 0
-288 693 0
49 -118 0
-578 0
-497 0
-936 609 0
-296 0
-503 -543 0
-252 -90 0
-956 -81 0
-733 0
562 -755 0
-922 0
-213 -500 0
-460 0
-819 0
1 -524 0
110 -762 0
-776 -738 0
-386 0
-845 -754 0
-661 -490 0
610 -42 0
-63 0
-959 0
966 -921 0
-249 0
-748 0
-248 960 0
-796 350 0
577 -716 0
-15 0
-195 -610 0
525 -282 0
-502 0
-787 0
-860 0
707 -867 0
-936 0
-603 367 0
-526 535 0
997 -210 0
-412 0
-804 0
-1000 691 0
-914 143 0
-870 0
-643 0
-303 0
-397 0
-768 -2 0
-584 0
512 -158 0
93 -259 0
-24 -390 0
-911 0
-648 -402 0
539 -634 0
701 -530 0
-637 303 0
-641 0
-733 862 0
-552 0
-231 628 0
-912 916 0
-18 0
650 -562 0
-101 0
-900 0
-322 -905 0
-678 0
136 -89 0
-602 -441 0
496 -955 0
-407 -397 0
-38 819 0
-294 -333 0
-531 0
-912 245 0
-295 259 0
-909 444 0
-788 0
-206 -73 0
-534 556 0
-397 855 0
-447 147 0
-813 0
-120 9 0
-746 0
-743 247 0
-854 -517 0
-951 -876 0
-314 0
-650 0
-109 -188 0
201 -782 0
-943 253 0
-152 0
-928 195 0
-828 0
-838 0
-247 0
-390 0
-800 0
40 -786 0
-546 0
-848 548 0
-581 -147 0
-192 796 0
-275 0
-58 0
-717 0
-101 716 0
825 -372 0
-340 -194 0
-298 0
136 -493 0
-851 0
-966 0
-339 0
-515 846 0
-625 0
346 -652 0
-564 823 0
-248 86 0
-958 -841 0
-555 0
-426 -41 0
-584 898 0
-822 63 0
-955 0
-212 622 0
-335 -938 0
-835 -34 0
-770 0
-27 0
16 -442 0
-958 0
-707 189 0
-230 572 0
-221 0
-792 0
-510 -107 0
-728 -531 0
-639 -99 0
953 -862 0
256 -310 0
-685 -893 0
-159 0
-56 0
-23 -124 0
-948 285 0
-736 0
-310 36 0
-653 0
-812 0
-623 0
-943 807 0
824 -658 0
-132 0
-180 0
-57 -105 0
-553 0
-639 -555 0
-865 0
-639 0
-315 0
-749 -938 0
-613 -657 0
-901 0
472 -407 0
-5 0
945 -142 0
-389 0
244 -226 0
233 -49 0
-24 -717 0
-610 0
-480 -54 0
88 -665 0
-745 -369 0
-791 0
776 -605 0
-901 0
-719 0
-737 0
138 -307 0
587 -404 0
192 -2 0
-690 0
-911 15 0
-525 -556 0
-736 194 0
-399 -619 0
-790 590 0
-350 -364 0
-944 595 0
146 -660 0
-571 0
147 -643 0
-819 0
-303 -897 0
-695 -819 0
980 -452 0
326 -57 0
-111 0
-661 -730 0
-55 476 0
536 -886 0
-693 -996 0
-903 0
-272 217 0
-92 0
-887 -907 0
202 -587 0
872 -322 0
-94 487 0
-155 0
898 -789 0
-602 870 0
3 -21 0
705 -618 0
-867 -785 0
-914 -681 0
-531 0
-92 0
-364 -723 0
448 -417 0
-199 690 0
796 -882 0
829 -202 0
463 -969 0
-606 -188 0
256 -959 0
-432 0
840 -335 0
-279 195 0
-311 0
308 -193 0
65 -334 0
985 -270 0
-900 0
-965 0
-160 775 0
752 -831 0
-65 0
456 -447 0
-83 0
-3 0
-632 0
-166 244 0
-536 0
-767 -345 0
-383 477 0
-520 226 0
-467 957 0
760 -858 0
-896 0
-89 0
-470 108 0
-432 97 0
-341 854 0
705 -67 0
-728 -171 0
-982 0
57 -438 0
-967 0
-801 0
654 -122 0
-816 0
657 -9 0
961 -757 0
-241 0
-180 0
-888 395 0
-727 0
-500 -265 0
521 -753 0
211 -401 0
-479 0
-831 0
176 -196 0
-32 -147 0
-930 0
-613 0
-245 -425 0
-561 0
45 -994 0
-981 0
425 -372 0
-338 -505 0
-10 0
-388 -826 0
-506 0
621 -843 0
-754 0
-4 0
-160 50 0
-101 -482 0
-714 0
-630 -49 0
-117 0
-568 404 0
-168 -390 0
731 -283 0
980 -75 0
-903 -541 0
-622 -453 0
45 -641 0
-445 0
-376 -920 0
-744 0
-619 0
-724 0
-935 -458 0
-688 -633 0
-911 0
883 -349 0
-704 0
-366 557 0
-905 0
-855 -820 0
-381 -641 0
-530 0
-14 -341 0
-80 -677 0
-449 0
146 -427 0
-544 -838 0
-975 -363 0
-396 -90 0
-584 0
-910 -129 0
56 -287 0
-261 -163 0
-694 0
-685 0
-487 70 0
-576 0
-945 0
280 -806 0
-464 -502 0
-145 0
-340 0
-414 0
-728 -358 0
-622 309 0
-729 0
787 -794 0
493 -945 0
-363 0
-144 686 0
793 -156 0
-786 0
-593 0
-946 0
-594 0
-739 0
-82 0
323 -459 0
938 -737 0
-509 468 0
-848 0
-886 0
-492 0
-862 0
-626 -257 0
360 -981 0
-292 0
-960 0
-840 103 0
-538 0
-505 0
-237 -180 0
-438 0
-83 -946 0
-203 0
-115 0
-633 0
809 -84 0
-676 599 0
-204 150 0
-923 0
-812 0
-656 -427 0
-662 -410 0
-881 0
-525 0
-22 0
-544 0
-260 0
-743 794 0
-347 0
-110 -145 0
-290 30 0
-88 -583 0
-130 0
-748 0
-199 -940 0
-726 0
-667 677 0
145 -662 0
-832 0
-647 0
-987 -347 0
-464 328 0
-241 0
-899 -169 0
-74 951 0
-12 831 0
-376 -582 0
-239 -510 0
-382 278 0
882 -82 0
-156 0
778 -260 0
-94 535 0
-96 -118 0
-509 -221 0
-736 0
-312 280 0
-499 -410 0
-792 0
-416 0
235 -98 0
-920 468 0
-928 -233 0
81 -668 0
-166 0
-854 0
-280 0
938 -83 0
-684 319 0
-424 -49 0
32 -980 0
-27 221 0
-797 -450 0
-70 -670 0
-50 0
-662 0
-422 0
-447 0
-212 0
-370 0
-720 0
933 -226 0
-701 0
152 -573 0
889 -580 0
-349 931 0
-973 -234 0
-226 0
-309 0
-372 -698 0
-181 -834 0
-739 -513 0
720 -365 0
-850 0
185 -879 0
-906 0
-614 453 0
-892 725 0
-453 0
-790 0
-69 316 0
91 -780 0
-554 0
-756 166 0
-590 0
-474 0
-515 0
-799 -141 0
-822 -746 0
755 -522 0
-5 0
-71 -531 0
687 -417 0
-555 854 0
-604 0
-291 0
-228 0
555 -658 0
580 -251 0
813 -11 0
72 -342 0
-573 0
-666 0
-324 0
-552 841 0
-539 -802 0
-238 411 0
641 -108 0
-722 -521 0
-262 -317 0
-787 0
945 -77 0
-915 0
-469 0
-922 -201 0
264 -281 0
-253 0
-376 0
-542 -122 0
876 -730 0
-586 0
834 -353 0
-391 0
-192 -457 0
-471 -566 0
-920 -873 0
-37 973 0
-517 0
568 -977 0
428 -713 0
-639 -389 0
-245 -53 0
-635 830 0
-737 0
-75 391 0
-263 -710 0
-996 950 0
981 -74 0
-861 0
-399 732 0
937 -665 0
881 -83 0
-694 140 0
-126 0
-752 154 0
-71 -589 0
-968 0
-185 0
-820 -194 0
-124 0
-364 0
330 -412 0
-572 0
-285 796 0
-181 -323 0
-807 0
-404 0
-424 558 0
-437 -722 0
-269 0
-814 0
-285 -43 0
-156 94 0
-230 0
-584 322 0
-179 0
-506 0
-466 790 0
-360 81 0
-473 0
-620 0
-91 0
72 -259 0
-283 0
-172 181 0
-748 -785 0
-368 -789 0
-576 372 0
-79 0
-238 47 0
-880 0
578 -354 0
-886 66 0
-24 0
336 -623 0
-935 583 0
-687 -138 0
-588 -34 0
-232 0
236 -929 0
-934 -245 0
-892 -371 0
-776 601 0
360 -7 0
-901 -604 0
-629 223 0
-981 387 0
-130 -258 0
-590 660 0
-366 413 0
-40 134 0
-965 0
-847 19 0
-919 362 0
-376 0
-85 0
-640 -306 0
-172 0
244 -689 0
-576 -374 0
-504 0
-496 505 0
-264 915 0
-967 0
-442 0
-198 -35 0
-382 0
-127 734 0
-360 -750 0
-338 0
-617 0
-347 -913 0
576 -157 0
-207 -543 0
-244 0
99 -177 0
-243 0
-639 -834 0
-291 -938 0
-712 649 0
818 -715 0
-365 0
-119 0
-568 627 0
-660 0
-104 389 0
-536 0
-313 -681 0
-352 0
-476 0
-315 0
-348 0
-372 966 0
-99 0
-66 0
-513 415 0
-980 0
-301 0
-830 0
40 -107 0
-167 -771 0
-423 967 0
561 -621 0
-884 -577 0
-765 0
-184 -49 0
-466 0
-279 -974 0
-488 -739 0
-872 0
-755 -994 0
306 -802 0
-48 7 0
-112 562 0
-213 125 0
380 -937 0
741 -866 0
-528 -468 0
-468 0
-319 0
435 -275 0
581 -681 0
-970 0
-992 0
-512 0
-197 206 0
-30 0
-345 0
-976 201 0
-384 374 0
-932 0
-911 229 0
-72 0
-908 0
-514 0
-194 0
-846 -331 0
-412 0
-708 -26 0
-329 0
-492 0
-571 -35 0
337 -254 0
716 -42 0
-381 -289 0
-528 298 0
816 -194 0
-191 471 0
489 -270 0
-45 77 0
-507 0
-561 631 0
556 -402 0
-749 0
-135 -390 0
-799 0
-936 434 0
-265 0
-430 0
229 -179 0
-452 -195 0
803 -595 0
-730 198 0
-699 -371 0
-736 0
-575 0
-128 0
-524 789 0
-600 -48 0
-13 0
-87 0
-386 -434 0
145 -59 0
-140 0
-756 -889 0
-222 -889 0
-262 254 0
-749 -565 0
1 -503 0
243 -449 0
-422 0
-69 695 0
-845 261 0
-679 0
-32 413 0
-229 -690 0
-69 0
-918 -405 0
-352 940 0
368 -291 0
856 -337 0
-988 -146 0
-484 0
-948 0
-280 0
-966 -985 0
512 -114 0
985 -342 0
212 -987 0
-744 0
-860 -337 0
-866 0
-320 0
-887 722 0
-325 0
-149 836 0
653 -603 0
-216 127 0
-616 189 0
193 -766 0
-465 -433 0
-966 0
-628 0
-238 823 0
80 -940 0
-454 0
-742 110 0
995 -893 0
-488 -556 0
-336 0
-823 341 0
-391 563 0
104 -890 0
-505 0
-796 -819 0
107 -233 0
-148 0
435 -642 0
-755 0
-328 -303 0
-524 -882 0
-368 -678 0
-348 463 0
-201 0
-887 -254 0
-597 878 0
753 -165 0
-870 503 0
-628 -979 0
-90 0
-956 0
-114 0
778 -885 0
691 -633 0
-993 0
-889 0
-792 0
138 -875 0
698 -715 0
-291 0
-255 61 0
-739 0
-522 0
-497 0
-792 -510 0
-653 -241 0
-358 900 0
-435 390 0
-231 -502 0
718 -418 0
-312 367 0
268 -419 0
-804 0
-254 0
-488 -476 0
-900 0
-70 452 0
-156 -306 0
-14 0
928 -159 0
-748 759 0
-187 0
898 -461 0
-776 0
-531 598 0
96 -135 0
415 -361 0
-609 0
129 -595 0
-966 0
-302 0
-213 0
-832 -55 0
-813 0
-510 0
-272 692 0
-139 0
-520 -811 0
-804 0
-449 0
410 -761 0
-853 0
-903 0
-327 -902 0
-864 391 0
-904 -644 0
-429 0
-968 -585 0
-119 93 0
-572 0
-960 -755 0
746 -860 0
-946 0
-488 0
386 -633 0
-706 0
960 -310 0
206 -617 0
898 -226 0
-350 -323 0
-178 0
-946 0
-183 0
857 -763 0
-871 0
-814 0
403 -587 0
-917 517 0
459 -937 0
-373 0
-269 0
-526 0
-786 0
-382 -665 0
872 -888 0
-564 0
-21 644 0
-653 -370 0
-648 970 0
-584 0
-821 0
-475 0
-372 0
-412 0
-229 0
-910 -117 0
-264 -839 0
692 -723 0
411 -266 0
-864 -26 0
-638 -790 0
-487 0
986 -18 0
-326 -811 0
-677 -298 0
-415 -628 0
-235 0
-520 0
-842 -929 0
-393 0
24 -342 0
-811 0
-787 367 0
-558 378 0
-788 0
-709 0
-895 -563 0
-26 0
-636 357 0
851 -117 0
-413 0
585 -185 0
-586 0
273 -37 0
-289 0
-603 174 0
-569 0
-361 0
-471 414 0
-342 -421 0
-159 0
-51 0
570 -788 0
-995 0
522 -641 0
371 -217 0
-591 0
-658 982 0
-675 0
-768 -364 0
-854 -161 0
-67 686 0
908 -907 0
-691 -641 0
-30 -188 0
-568 0
-95 61 0
-467 0
-450 583 0
-139 0
-902 0
-933 0
-489 0
177 -301 0
-447 674 0
-55 0
123 -377 0
-611 0
-260 0
-470 0
-87 399 0
-292 0
-20 0
-48 -958 0
-227 0
-288 0
-435 -482 0
-428 0
-413 374 0
-465 0
-883 -65 0
-622 0
-836 0
-447 629 0
953 -701 0
-110 77 0
-726 557 0
41 -977 0
850 -737 0
-58 -1 0
-861 -813 0
520 -283 0
-892 0
904 -966 0
-207 0
-552 -687 0
-893 0
-685 -787 0
-336 858 0
761 -465 0
-112 0
-524 21 0
-222 -493 0
-201 0
-809 0
-238 0
296 -117 0
-869 0
227 -452 0
-368 0
-702 94 0
417 -859 0
-897 0
-222 950 0
-931 -11 0
-464 -948 0
-486 0
-325 335 0
-32 0
-316 0
-702 -969 0
976 -441 0
-936 661 0
-866 0
-314 -537 0
-713 0
414 -353 0
-564 -666 0
737 -553 0
125 -241 0
-124 0
-787 0
-365 0
-432 -69 0
-64 927 0
-856 230 0
-716 0
-215 0
-468 0
48 -57 0
809 -90 0
-215 -321 0
36 -777 0
-961 0
-403 0
-464 660 0
-533 0
-94 0
-654 0
-830 -115 0
-607 714 0
510 -697 0
994 -196 0
724 -267 0
-552 972 0
-23 0
384 -964 0
-690 -522 0
-10 -649 0
-518 -142 0
237 -163 0
-619 710 0
-633 487 0
-992 -455 0
-797 0
-216 -826 0
-641 423 0
-421 295 0
264 -182 0
384 -770 0
-317 0
276 -891 0
-462 -630 0
-895 -284 0
-832 0
-450 0
-345 0
-970 0
374 -505 0
-124 0
-825 0
-37 0
-712 550 0
520 -150 0
-231 0
-366 0
-766 0
-880 -497 0
-458 0
317 -179 0
-296 -287 0
-568 998 0
-470 340 0
-222 0
-779 0
-326 0
-847 0
-493 0
-235 951 0
-168 251 0
422 -18 0
-406 0
-855 377 0
-748 365 0
-963 -266 0
-635 0
-127 0
-872 -787 0
-504 838 0
-758 -633 0
-358 0
-388 0
-567 0
-838 693 0
-884 0
-192 82 0
-872 -385 0
-176 0
-337 0
-501 -915 0
120 -22 0
952 -590 0
-360 0
-888 -927 0
-183 335 0
-149 0
-410 -529 0
-414 -388 0
-238 884 0
169 -676 0
-238 -852 0
-419 0
256 -952 0
-382 362 0
-439 711 0
793 -971 0
-488 -296 0
118 -345 0
89 -389 0
-994 0
-432 0
-987 183 0
-826 743 0
-323 0
153 -452 0
-3 0
-651 0
-171 0
-757 117 0
-9 0
-545 0
-139 -811 0
-189 0
-99 0
449 -570 0
-800 255 0
-350 459 0
328 -323 0
-468 -330 0
554 -217 0
-500 0
731 -980 0
-909 0
-750 0
544 -97 0
-335 629 0
-334 -226 0
-861 0
-31 61 0
-973 0
-100 0
9 -23 0
-402 0
957 -370 0
-440 0
589 -737 0
888 -688 0
480 -425 0
-952 0
-953 0
-103 0
-591 -316 0
346 -732 0
-245 19 0
289 -766 0
-980 0
336 -402 0
466 -602 0
-136 0
854 -993 0
67 -994 0
-293 0
-627 -123 0
-132 0
121 -379 0
788 -451 0
-510 -507 0
-46 567 0
-798 695 0
30 -625 0
-349 0
-352 -134 0
-886 45 0
-183 -212 0
769 -211 0
-970 0
-233 0
145 -380 0
-769 0
-520 467 0
-302 -18 0
-519 -230 0
754 -316 0
-616 -341 0
-353 0
-222 814 0
-519 0
-786 0
-462 22 0
-582 -925 0
-860 0
-512 -935 0
-217 0
-439 0
-7 756 0
-268 38 0
-981 0
-920 -445 0
-151 307 0
-804 -985 0
409 -109 0
-319 -571 0
-310 782 0
-623 0
924 -964 0
290 -361 0
-472 0
-956 0
-989 -507 0
-77 -731 0
-582 -901 0
-615 821 0
-925 -939 0
-92 572 0
-536 0
-581 965 0
-816 578 0
-877 0
803 -202 0
-504 0
-182 -917 0
-612 0
-406 0
-910 0
-414 -108 0
-890 -930 0
-683 246 0
345 -780 0
-903 158 0
-730 0
-574 -941 0
-661 0
-475 0
-599 0
-304 532 0
-334 515 0
-676 0
-157 0
-688 0
-377 0
-992 -863 0
-922 55 0
-752 -913 0
-488 0
-663 182 0
-59 0
-582 -945 0
-956 0
-599 -316 0
-534 0
-690 0
722 -684 0
-520 0
-679 0
-575 775 0
-328 145 0
-108 567 0
530 -686 0
-846 331 0
-39 588 0
293 -138 0
-958 703 0
-127 879 0
281 -470 0
-59 0
-691 950 0
-703 0
275 -227 0
-1000 0
-655 -114 0
-798 147 0
81 -246 0
-385 0
-730 0
-665 0
-359 0
140 -171 0
-605 0
-919 0
-570 0
946 -762 0
-351 0
164 -145 0
669 -18 0
-701 0
-151 0
-40 498 0
-886 0
-757 495 0
267 -34 0
-656 631 0
-552 0
-876 -874 0
-300 0
-60 12 0
-668 -570 0
-951 0
-702 710 0
-714 0
-557 0
-400 0
-373 -546 0
-672 0
387 -147 0
784 -39 0
-971 0
-543 0
-935 228 0
73 -121 0
-771 0
-700 0
-632 -161 0
-326 0
-320 602 0
294 -722 0
-372 -748 0
-276 0
897 -591 0
49 -834 0
-295 265 0
851 -801 0
-253 0
46 -746 0
-109 -122 0
-656 642 0
-205 0
-171 0
-104 909 0
-63 58 0
-329 0
-55 419 0
-58 -497 0
-740 -706 0
-960 0
170 -162 0
-690 0
-376 397 0
920 -489 0
301 -883 0
-28 0
-778 -729 0
-45 -1 0
-627 0
-614 0
-546 0
-751 842 0
-381 0
150 -1 0
-88 731 0
-982 0
-79 842 0
-654 -501 0
-304 659 0
-878 659 0
459 -675 0
-248 -924 0
-262 68 0
72 -475 0
421 -83 0
-147 0
506 -837 0
-864 27 0
-343 685 0
-683 -755 0
-127 606 0
-167 989 0
-807 994 0
-445 -386 0
467 -44 0
746 -402 0
-188 751 0
-540 -483 0
-760 -969 0
-867 0
195 -291 0
961 -549 0
-894 0
-639 -225 0
-577 -585 0
-340 0
-93 110 0
-767 -507 0
-450 0
-674 -81 0
-266 0
-939 0
808 -526 0
787 -885 0
-437 0
621 -761 0
-262 0
-222 516 0
3 -42 0
-470 0
265 -772 0
-473 0
561 -615 0
-702 -131 0
-212 557 0
-174 0
-700 -204 0
-408 -499 0
587 -290 0
-45 0
-169 0
540 -970 0
-967 -634 0
-391 447 0
-995 0
-632 671 0
-280 0
776 -987 0
-154 -473 0
-333 0
-727 221 0
932 -403 0
929 -218 0
344 -999 0
-901 766 0
-133 0
-647 0
321 -762 0
-189 -492 0
-831 215 0
-848 0
858 -997 0
-636 0
-346 0
689 -932 0
528 -613 0
-716 0
-481 951 0
561 -862 0
-830 0
-50 0
674 -633 0
-563 0
-587 -458 0
-365 -580 0
-598 0
-567 315 0
-236 0
-15 -307 0
649 -351 0
-831 0
-366 0
-64 -11 0
-976 0
-967 -580 0
-24 -380 0
-216 0
-853 0
-160 0
677 -145 0
-464 -779 0
274 -270 0
-718 0
-332 0
720 -958 0
637 -98 0
-868 -594 0
-178 0
-775 -889 0
-349 -772 0
-547 0
913 -91 0
-691 0
-749 0
-903 210 0
-45 0
465 -612 0
-815 0
318 -369 0
100 -3 0
-375 0
-18 0
800 -104 0
314 -981 0
-703 -469 0
-624 0
-631 -228 0
-31 0
-760 598 0
-781 621 0
-428 -218 0
-516 6 0
441 -746 0
-195 0
-977 0
-128 -462 0
-654 -182 0
-194 -810 0
-479 0
33 -669 0
714 -846 0
416 -272 0
-674 0
-680 204 0
-619 -331 0
-60 -569 0
-274 0
-881 167 0
-634 0
-35 189 0
-733 0
-854 279 0
-874 663 0
-248 0
372 -115 0
-824 -510 0
590 -522 0
-338 0
-708 0
-871 0
512 -847 0
-320 0
-598 -193 0
-808 0
-605 -922 0
985 -132 0
905 -667 0
449 -351 0
-934 0
-973 -93 0
-209 0
-424 585 0
-272 0
-322 -537 0
-622 -21 0
-191 -527 0
-418 -202 0
929 -652 0
-155 0
-734 0
-585 0
-751 0
901 -753 0
-663 418 0
866 -669 0
554 -116 0
-772 0
-485 -603 0
651 -604 0
896 -221 0
-997 -986 0
10 -947 0
-85 924 0
-920 0
426 -741 0
-82 0
339 -580 0
-306 239 0
-233 0
-63 -109 0
-499 0
-574 0
-234 0
-359 423 0
819 -65 0
-686 -721 0
-362 0
-549 -242 0
-712 814 0
-945 0
-121 0
-300 -179 0
920 -96 0
-680 -341 0
-513 0
984 -980 0
-202 -945 0
-406 726 0
-397 -388 0
-625 0
-496 726 0
-263 -709 0
65 -29 0
-461 0
-395 0
-316 -41 0
-628 0
93 -857 0
-624 0
-550 0
-492 982 0
608 -995 0
-270 0
-828 -850 0
-714 -938 0
-519 0
793 -859 0
459 -418 0
-683 0
878 -154 0
-917 0
672 -202 0
-357 -44 0
-648 91 0
-830 -300 0
-811 0
-365 0
-118 0
-749 0
-964 0
-434 -746 0
-523 0
-965 783 0
-919 0
-769 0
-645 -813 0
-872 467 0
-520 -662 0
987 -210 0
-492 0
3 -508 0
937 -418 0
-416 -202 0
321 -554 0
-233 0
-267 0
-987 0
-124 0
330 -60 0
-964 -993 0
-994 0
-63 0
-740 0
-268 0
329 -733 0
496 -107 0
537 -812 0
554 -588 0
-999 615 0
-221 0
930 -204 0
-207 142 0
-430 -52 0
-832 -221 0
-297 0
-327 -195 0
-887 -214 0
-885 966 0
-502 0
-315 0
293 -769 0
-431 282 0
45 -161 0
-457 911 0
-382 630 0
-803 0
-400 -764 0
-380 -490 0
-670 0
-983 0
-390 0
59 -298 0
-45 -403 0
-653 0
-493 0
-180 0
573 -2 0
-749 228 0
265 -228 0
-201 0
-852 0
-43 0
-708 69 0
-387 0
-923 263 0
-952 -835 0
757 -187 0
-167 879 0
-28 68 0
-120 372 0
-838 715 0
-756 0
-384 -294 0
-862 701 0
-65 0
-895 0
-698 0
-454 772 0
986 -892 0
-584 890 0
-707 -601 0
-220 -243 0
-510 0
553 -413 0
-231 0
-106 0
-308 174 0
-573 0
793 -317 0
-335 -901 0
849 -249 0
-619 0
-710 0
-613 823 0
-423 0
-86 -458 0
961 -317 0
-54 0
-946 0
-712 55 0
-371 0
-364 965 0
-92 0
-826 0
-339 0
-509 987 0
-672 -484 0
-300 0
-773 -75 0
-687 -611 0
728 -946 0
186 -501 0
-97 0
-152 -379 0
-900 588 0
626 -748 0
635 -204 0
-622 0
-953 0
-126 -251 0
906 -637 0
-282 0
-840 -558 0
-469 711 0
-567 -805 0
-908 0
-223 0
-244 -674 0
-773 0
384 -772 0
-659 0
-626 0
-579 0
714 -9 0
-27 119 0
-504 936 0
-693 -641 0
106 -465 0
81 -964 0
-43 -730 0
761 -361 0
-222 -27 0
-611 0
-293 950 0
-470 0
-404 -33 0
-512 0
-119 0
-864 225 0
-26 0
-623 0
-471 762 0
298 -821 0
-939 0
723 -82 0
309 -377 0
-171 0
154 -229 0
-586 -689 0
-845 0
-661 -796 0
51 -557 0
-832 -249 0
-425 0
602 -59 0
304 -595 0
-920 -270 0
-415 250 0
926 -682 0
-476 0
424 -930 0
-848 0
-762 0
-102 0
-898 0
241 -924 0
-134 0
416 -171 0
-192 0
-868 310 0
-476 0
-459 0
-666 431 0
784 -417 0
-128 211 0
474 -789 0
-403 0
-357 0
243 -444 0
-144 -555 0
-230 294 0
-791 0
-160 0
-288 -946 0
-144 986 0
-548 0
14 -849 0
710 -338 0
873 -123 0
-927 -649 0
236 -338 0
-990 267 0
-930 583 0
-7 -698 0
-945 0
280 -721 0
-348 0
426 -660 0
396 -66 0
-463 0
744 -8 0
-908 983 0
-762 0
-565 0
-289 0
-345 0
-80 259 0
-207 0
723 -499 0
-759 0
-545 0
-582 -542 0
47 -705 0
-480 -541 0
-394 0
-938 0
-220 0
-110 0
-219 949 0
-260 0
-744 -407 0
-444 -347 0
-607 135 0
145 -18 0
987 -114 0
-484 615 0
610 -316 0
602 -291 0
-461 0
-812 0
885 -91 0
612 -923 0
-808 -806 0
-177 0
-988 559 0
-111 0
-229 0
-22 -429 0
-996 0
-972 0
-507 165 0
-721 0
-376 0
528 -44 0
427 -371 0
-496 833 0
-379 -194 0
778 -259 0
-126 -13 0
-129 0
-366 23 0
-995 0
-182 0
-721 0
-234 0
-738 774 0
-828 285 0
-439 -813 0
369 -879 0
516 -979 0
-555 0
-582 45 0
-300 924 0
-775 -630 0
-461 -131 0
-846 -77 0
-263 0
-972 109 0
-62 0
107 -812 0
-654 0
-862 950 0
883 -107 0
-658 982 0
168 -496 0
-760 0
-893 366 0
-721 0
-485 0
-128 -657 0
-922 -433 0
-378 0
558 -658 0
-432 177 0
-66 0
-984 -163 0
-557 758 0
-90 0
-84 -35 0
62 -145 0
152 -242 0
-208 -804 0
-686 -284 0
-637 0
-671 243 0
-115 0
-349 0
-928 0
344 -17 0
-68 436 0
-483 0
977 -891 0
878 -474 0
683 -12 0
-55 0
-359 0
-410 0
-332 -859 0
811 -275 0
442 -61 0
-951 53 0
-560 755 0
-303 0
-270 454 0
376 -427 0
-406 -620 0
-316 -876 0
-469 0
-537 0
-198 0
795 -917 0
-894 0
-513 0
112 -306 0
-708 0
-967 -294 0
-365 -114 0
-717 -155 0
-10 0
-438 327 0
-472 -494 0
-395 822 0
-313 0
499 -651 0
-552 260 0
162 -649 0
306 -691 0
-12 0
-16 593 0
864 -881 0
-937 0
-175 0
909 -714 0
-231 163 0
164 -634 0
-197 927 0
-469 179 0
-608 0
-572 0
-904 -390 0
506 -963 0
57 -417 0
-637 -649 0
720 -4 0
322 -411 0
-540 453 0
878 -106 0
-485 164 0
473 -404 0
-687 0
-80 879 0
-607 0
-967 564 0
-763 189 0
705 -675 0
-40 115 0
-632 0
-640 0
321 -683 0
-301 45 0
-157 0
-608 0
-824 114 0
-619 0
1000 -475 0
-328 723 0
-869 0
-119 0
-63 -609 0
257 -838 0
-161 0
515 -514 0
-997 0
-700 -146 0
-731 -26 0
-891 0
-786 0
-535 957 0
816 -146 0
-628 0
-427 135 0
-517 -666 0
-607 -149 0
569 -194 0
-396 334 0
-981 0
-655 0
-355 -986 0
-960 974 0
-793 0
-432 -439 0
-591 -955 0
-990 125 0
-984 -665 0
362 -532 0
-38 -173 0
-981 0
-550 -757 0
905 -74 0
-661 0
-116 583 0
846 -66 0
-415 107 0
-639 -218 0
-867 0
-706 0
-791 -309 0
-492 863 0
-214 335 0
-785 0
-128 721 0
-341 -826 0
-622 571 0
-974 293 0
-931 0
-416 285 0
588 -81 0
745 -589 0
699 -69 0
-204 -819 0
-389 815 0
-359 -758 0
101 -33 0
-409 0
-222 534 0
-82 0
-600 -725 0
-840 734 0
-271 994 0
-290 0
-748 -659 0
708 -882 0
-797 0
-806 0
-231 0
-552 509 0
-717 925 0
-32 758 0
-632 0
441 -493 0
-159 -370 0
-703 0
-95 0
-150 -386 0
-211 751 0
-603 0
-332 0
-779 0
-293 0
-120 0
-646 -193 0
-607 235 0
-439 0
774 -713 0
746 -286 0
-402 -417 0
859 -604 0
-460 966 0
-606 -273 0
-683 -515 0
-845 0
-988 0
-380 790 0
-694 0
-25 0
40 -922 0
-680 -937 0
-497 0
-850 0
201 -625 0
441 -859 0
-592 518 0
-95 -33 0
-735 853 0
-789 0
-411 0
-610 0
-327 0
-297 0
-719 0
795 -91 0
-474 0
-270 0
-802 0
-162 0
-817 0
634 -714 0
-568 -248 0
-550 815 0
-251 349 0
-104 550 0
-349 0
558 -873 0
665 -1 0
-548 0
-916 327 0
-959 0
688 -171 0
-360 0
88 -595 0
-520 837 0
-893 395 0
-193 0
-247 -812 0
-596 0
-393 0
-479 195 0
-776 -521 0
195 -28 0
-239 0
-248 -69 0
-141 -963 0
-264 46 0
-961 0
552 -75 0
-835 847 0
-283 -427 0
-183 402 0
121 -197 0
-406 0
-135 -570 0
425 -862 0
-317 639 0
64 -789 0
-678 997 0
257 -28 0
618 -453 0
-299 0
-983 422 0
648 -988 0
-978 0
456 -132 0
954 -141 0
848 -996 0
83 -180 0
-267 0
600 -661 0
-794 0
-205 0
-351 0
-190 0
240 -218 0
-335 -426 0
-621 -322 0
-389 0
-514 0
258 -651 0
-367 -531 0
-286 -459 0
-30 0
-387 0
-803 0
-864 523 0
-365 0
-791 0
-685 -827 0
771 -428 0
-758 0
363 -761 0
-942 372 0
-305 0
-1000 0
-319 -332 0
-671 0
-747 0
-486 -865 0
-736 0
-663 0
-542 362 0
600 -162 0
-327 -885 0
251 -522 0
-28 0
-582 30 0
-227 0
-111 0
-704 19 0
-475 0
-873 0
-880 385 0
-528 136 0
-47 505 0
-581 140 0
-904 0
-266 0
779 -441 0
-32 311 0
-832 -986 0
-740 565 0
-768 886 0
-396 70 0
-512 0
-613 844 0
-46 0
-51 -818 0
-40 0
-544 0
-447 166 0
-910 0
-670 0
310 -698 0
-816 0
-957 908 0
475 -609 0
-272 0
-231 0
282 -478 0
-473 -881 0
-142 -579 0
-380 -147 0
-95 78 0
641 -150 0
-777 0
-23 -798 0
-184 511 0
-127 819 0
-906 0
998 -705 0
-151 827 0
-191 0
-765 -61 0
621 -99 0
401 -86 0
-335 985 0
-662 -122 0
772 -724 0
425 -397 0
-183 0
-649 0
-448 307 0
496 -159 0
-984 0
-621 -45 0
-62 -677 0
-260 0
-69 0
232 -474 0
-792 0
-882 0
945 -548 0
-761 0
514 -621 0
-990 0
-626 0
717 -281 0
-946 0
-892 0
-198 0
-476 0
-198 0
-940 -699 0
993 -581 0
-495 -266 0
-120 249 0
-208 245 0
-750 0
385 -869 0
-603 911 0
536 -400 0
252 -106 0
900 -89 0
-710 403 0
-422 0
945 -387 0
-262 -60 0
-120 -337 0
930 -123 0
-52 61 0
-949 119 0
-236 206 0
-270 -413 0
-950 0
-402 703 0
-441 0
-950 703 0
-166 0
128 -174 0
984 -612 0
752 -441 0
-206 915 0
-623 -788 0
146 -611 0
-546 430 0
-246 -346 0
591 -977 0
-532 0
-724 0
-727 -179 0
-932 510 0
219 -625 0
-389 0
-606 -234 0
-680 -795 0
-803 0
-479 0
115 -613 0
-978 775 0
982 -473 0
-471 -62 0
993 -964 0
-723 0
722 -603 0
-439 0
-262 -357 0
-455 533 0
-44 0
-695 147 0
-620 0
550 -609 0
764 -225 0
-646 927 0
-658 0
-864 516 0
-81 0
-772 0
884 -362 0
-630 0
538 -473 0
-870 0
-558 0
-599 -587 0
404 -284 0
376 -843 0
-359 -987 0
-882 -530 0
-958 262 0
-824 0
578 -44 0
297 -14 0
-890 -649 0
-335 435 0
-621 0
-36 0
-463 0
-214 125 0
-183 0
-696 29 0
-661 0
803 -69 0
-727 0
-347 0
-53 643 0
-29 0
-614 -28 0
-672 0
-757 397 0
604 -130 0
-843 0
-168 0
81 -202 0
-352 0
-599 690 0
-739 0
-463 807 0
-576 -269 0
-651 0
-339 0
-416 -285 0
-654 -675 0
-874 0
769 -643 0
-356 0
490 -798 0
433 -654 0
27 -92 0
-43 -706 0
748 -27 0
-39 0
-925 0
-174 -819 0
-14 0
-440 0
-890 0
-354 0
-721 0
-340 0
-499 293 0
-904 -99 0
-266 0
-336 -489 0
-132 -466 0
-248 94 0
-408 -268 0
-306 0
-176 -425 0
-573 0
145 -302 0
-143 0
274 -18 0
-737 0
-167 -98 0
-204 -371 0
-855 453 0
-304 918 0
-487 0
-989 0
-847 -724 0
-937 0
-628 396 0
-494 0
-784 -629 0
-193 0
-18 679 0
315 -770 0
-817 0
-231 107 0
153 -586 0
-24 -198 0
-540 0
-88 0
-629 0
-621 0
-35 0
-272 0
-319 -228 0
-326 258 0
-118 0
-83 0
-849 0
-929 0
-185 0
-664 0
-200 149 0
-101 0
-489 983 0
-811 0
-862 0
-221 582 0
-709 28 0
-377 0
-912 -71 0
-719 645 0
-244 0
429 -762 0
-599 -634 0
-302 924 0
617 -36 0
-966 0
-14 0
-592 0
161 -714 0
-659 0
-827 0
-927 0
-157 0
-792 0
-846 -338 0
-899 0
408 -622 0
-786 -778 0
-87 0
-602 0
-231 578 0
-326 -723 0
-831 -141 0
13 -371 0
-893 0
-11 0
-529 0
-459 0
-16 0
-199 -609 0
-279 0
-348 -786 0
-932 -234 0
-81 0
-531 -833 0
-320 0
-919 74 0
-742 692 0
-557 -595 0
-666 455 0
-943 -269 0
-156 -353 0
-209 0
251 -674 0
-123 0
784 -190 0
-733 612 0
-743 -436 0
-291 0
-344 367 0
785 -907 0
-590 0
-414 0
-6 173 0
-744 0
-592 -329 0
-207 -173 0
-194 151 0
-791 0
-150 229 0
-531 0
-479 -59 0
-833 0
-18 0
-326 0
-868 0
-142 -677 0
-320 628 0
-528 0
-390 786 0
681 -403 0
-743 894 0
-382 515 0
196 -817 0
-335 0
-80 0
-336 509 0
-117 0
-847 0
-24 0
176 -372 0
-462 0
-713 0
-691 -707 0
-194 0
-48 908 0
-542 0
-495 0
968 -650 0
-656 0
-624 219 0
-975 -682 0
99 -93 0
-24 -23 0
768 -762 0
-815 0
124 -569 0
-812 0
-309 951 0
-641 0
364 -900 0
-900 0
-200 0
-701 -387 0
-841 0
-786 -937 0
-216 -88 0
-13 0
-785 0
-433 0
-416 -264 0
-968 0
-340 -260 0
-843 0
330 -148 0
-475 -170 0
-271 0
137 -738 0
-79 0
274 -596 0
995 -650 0
-586 -729 0
-376 0
-788 415 0
-978 -281 0
-104 -571 0
778 -910 0
-815 0
878 -833 0
-751 0
-138 0
-468 0
-437 0
-661 0
-291 -747 0
532 -898 0
-982 -565 0
-300 0
-985 0
-555 0
-461 -715 0
-35 -9 0
-642 0
49 -954 0
-170 0
953 -883 0
-841 0
932 -690 0
754 -674 0
-493 -91 0
-846 287 0
790 -2 0
-829 0
-345 0
-619 -618 0
-162 0
-493 219 0
-21 0
-45 -369 0
43 -963 0
594 -83 0
-713 -537 0
122 -82 0
995 -938 0
738 -417 0
-72 870 0
-162 0
193 -41 0
-440 0
180 -658 0
-367 0
-582 -372 0
266 -169 0
-637 -73 0
-900 109 0
866 -137 0
569 -771 0
31 -617 0
-401 0
-439 0
291 -618 0
-516 -217 0
-307 941 0
501 -482 0
43 -466 0
-541 0
-624 0
-270 299 0
-139 0
-320 -968 0
-574 -748 0
-576 0
-219 0
-513 0
-587 0
-146 0
612 -578 0
971 -866 0
-181 774 0
-181 -307 0
337 -233 0
-238 691 0
-734 0
-967 0
-156 0
-993 0
-605 0
-365 0
-302 610 0
554 -811 0
632 -848 0
-676 -185 0
-29 -36 0
-371 -537 0
-687 118 0
-589 967 0
-805 0
-865 0
-479 -739 0
-716 181 0
-722 -538 0
-503 -305 0
-863 -684 0
-182 -593 0
-421 836 0
-38 0
-88 0
-591 0
528 -416 0
-546 0
102 -274 0
-497 0
-922 0
-646 0
-183 0
-357 463 0
-373 0
-574 -694 0
540 -436 0
-678 221 0
-954 0
-269 190 0
-175 -875 0
-287 0
-158 -820 0
-176 916 0
-434 -17 0
768 -581 0
-153 0
-70 -276 0
-701 0
-201 0
-173 907 0
-598 0
-316 -42 0
-713 0
-595 0
-265 0
-879 -844 0
-694 0
-744 -876 0
905 -523 0
-357 317 0
-211 -761 0
-898 790 0
-972 0
69 -929 0
-238 0
104 -979 0
312 -102 0
-877 0
-64 981 0
-797 0
-533 0
384 -356 0
-647 0
-811 685 0
-367 0
-549 0
-325 0
521 -259 0
-304 747 0
-367 -543 0
-757 421 0
-616 -842 0
121 -617 0
-381 231 0
696 -195 0
-152 -693 0
-847 0
-122 0
-400 73 0
-632 -421 0
-630 -697 0
-659 0
-146 0
-767 0
-182 0
-116 -780 0
877 -345 0
940 -268 0
-972 0
-4 0
722 -609 0
-338 462 0
975 -873 0
-179 0
-171 335 0
-963 0
-58 0
-935 0
-784 -92 0
-604 -569 0
-838 -220 0
-877 949 0
-1000 -463 0
-656 -999 0
-606 550 0
-865 0
-368 546 0
-809 0
-622 932 0
-621 550 0
-871 763 0
-48 578 0
-192 0
-855 655 0
-994 0
-672 0
-571 0
-759 0
-456 -515 0
-391 -586 0
-839 0
-807 0
284 -499 0
-933 -474 0
-471 811 0
849 -9 0
-792 -210 0
-830 572 0
-773 518 0
-654 0
-208 -863 0
-104 -274 0
-85 -402 0
214 -649 0
-27 0
-64 -72 0
-916 0
-666 0
-787 0
-810 0
-814 -513 0
-316 0
-301 950 0
375 -513 0
-177 0
-776 0
-221 830 0
-713 0
-623 -548 0
-991 771 0
-449 0
-502 -285 0
898 -989 0
-693 -476 0
434 -734 0
-2 0
-71 -315 0
-501 589 0
-520 0
-270 0
50 -843 0
-185 0
-517 -885 0
206 -738 0
-190 0
-455 0
-371 255 0
-306 215 0
872 -847 0
-620 0
114 -226 0
-935 244 0
-645 -681 0
-138 0
-939 -587 0
-95 -383 0
362 -764 0
-363 0
-73 0
-514 0
-24 -83 0
-580 0
-751 0
956 -515 0
-414 0
394 -129 0
-368 0
578 -844 0
377 -779 0
-829 0
-720 0
-133 0
113 -922 0
-965 -354 0
-221 55 0
-656 -237 0
-370 -226 0
-927 175 0
-91 0
-183 925 0
-760 0
457 -54 0
-809 0
869 -699 0
-567 0
898 -291 0
-922 0
-615 675 0
-852 6 0
-575 -47 0
-838 314 0
-799 -558 0
680 -327 0
-794 0
-273 0
-743 234 0
-707 695 0
573 -418 0
-579 0
-720 -315 0
-158 876 0
-552 334 0
-574 995 0
64 -249 0
-728 0
-427 957 0
-584 719 0
411 -901 0
561 -18 0
-283 0
-294 909 0
-932 0
-252 0
-477 0
-111 -353 0
-870 0
-226 0
-68 0
872 -351 0
-505 0
78 -57 0
-370 583 0
-869 0
-775 571 0
165 -698 0
953 -637 0
-900 -393 0
-862 0
-589 -609 0
-665 0
-21 397 0
-705 0
-116 0
-788 -948 0
-432 574 0
-128 -16 0
-78 957 0
-584 -165 0
-216 0
-920 -876 0
-934 612 0
-103 -273 0
-508 0
-350 -953 0
313 -202 0
-541 0
-584 635 0
-265 0
424 -998 0
-550 0
-767 0
-162 -465 0
-546 0
464 -842 0
144 -594 0
-816 0
-359 0
-214 0
-488 -13 0
-989 0
-737 0
-232 0
-396 591 0
-725 -17 0
921 -809 0
-956 0
-109 0
-215 510 0
-178 0
-310 -281 0
-8 451 0
-631 0
-219 495 0
-469 982 0
-143 0
-168 121 0
625 -678 0
-475 0
-367 0
-940 -123 0
-921 0
-156 0
309 -322 0
-290 0
-48 -654 0
-872 -852 0
-344 -802 0
560 -245 0
-224 0
-224 0
632 -119 0
-188 0
-414 317 0
891 -794 0
-909 -660 0
-246 0
-838 122 0
-548 -956 0
-476 0
-620 0
220 -363 0
-765 139 0
944 -882 0
-752 859 0
-406 0
-937 0
-279 -487 0
-887 0
-150 -300 0
954 -805 0
-975 0
-601 0
-445 -531 0
-437 0
-887 -922 0
-183 0
-504 813 0
-790 -754 0
-425 0
-938 -385 0
-376 -238 0
-188 -434 0
-819 239 0
-29 -322 0
-495 0
-662 567 0
-718 0
-375 27 0
-356 0
-263 -969 0
-232 0
-784 251 0
-27 918 0
-872 -989 0
-958 133 0
513 -805 0
-319 -958 0
-234 0
88 -630 0
-547 -817 0
-555 0
-6 38 0
-954 0
-591 -873 0
-327 0
-160 0
581 -819 0
851 -683 0
-548 0
-962 -841 0
-56 0
209 -332 0
-672 0
-910 333 0
-208 0
-449 0
-723 182 0
-552 0
-350 -982 0
-105 0
-734 399 0
-554 0
-222 0
-558 557 0
670 -201 0
-414 994 0
536 -859 0
-847 902 0
-544 0
-496 0
-531 -401 0
-517 726 0
-525 -109 0
208 -322 0
441 -124 0
-783 0
-912 0
-539 0
-724 487 0
-141 -234 0
299 -939 0
32 -430 0
136 -281 0
465 -932 0
-536 -308 0
-871 294 0
-568 798 0
-247 0
-237 0
-598 0
-799 0
-767 188 0
-7 -291 0
587 -357 0
-455 438 0
-742 -317 0
-558 0
-446 -300 0
-7 0
-205 0
-467 0
-697 0
-319 0
457 -898 0
632 -619 0
-937 0
-561 0
-359 0
584 -643 0
372 -219 0
573 -649 0
-4 206 0
338 -277 0
-704 -91 0
-577 0
26 -883 0
-381 0
-334 0
247 -689 0
-364 902 0
76 -403 0
-329 0
-945 0
-239 876 0
-770 167 0
-831 0
-625 0
-749 555 0
-576 -154 0
-422 211 0
-885 -185 0
-160 -66 0
-530 519 0
362 -281 0
-904 92 0
-175 0
-174 0
48 -785 0
-275 0
-600 -191 0
713 -598 0
-544 402 0
353 -149 0
-554 0
-748 0
-488 -262 0
202 -50 0
-686 492 0
-967 0
-428 -658 0
-621 0
-724 0
657 -2 0
-623 -989 0
-498 0
-508 0
-832 -507 0
-801 0
-196 0
490 -980 0
818 -532 0
-32 -185 0
-932 885 0
-398 -733 0
-374 -909 0
-873 0
-621 0
-542 0
-832 -958 0
-82 0
442 -397 0
-951 0
431 -609 0
-946 0
-396 0
728 -959 0
-399 586 0
-549 0
-828 159 0
-24 91 0
-811 0
-140 0
122 -153 0
445 -353 0
888 -670 0
89 -373 0
-260 0
417 -710 0
-39 427 0
-785 0
-328 -961 0
-966 -910 0
-532 285 0
772 -426 0
-690 0
336 -987 0
-608 0
-78 -274 0
-468 517 0
-280 -276 0
-34 903 0
-624 67 0
-984 0
-208 0
-26 0
28 -945 0
-417 0
-219 -937 0
-904 279 0
810 -555 0
792 -61 0
-933 0
-569 0
-424 0
-573 -10 0
380 -114 0
-497 0
-709 0
-648 0
-769 0
-377 0
571 -908 0
-898 -26 0
-186 766 0
377 -249 0
589 -98 0
913 -147 0
-179 0
-381 0
801 -465 0
-239 0
-44 0
-12 0
379 -309 0
-37 0
-577 0
730 -933 0
-908 -882 0
-599 -350 0
-999 330 0
-551 638 0
-379 0
-611 0
529 -763 0
-963 0
-304 0
-584 -716 0
-247 0
-658 0
-996 0
-854 0
-432 0
73 -487 0
-606 -532 0
-733 0
-598 23 0
-72 972 0
-1 0
729 -675 0
-894 0
-760 -409 0
-761 0
-384 629 0
-625 0
-250 0
-823 255 0
-570 0
356 -28 0
-170 -361 0
-56 212 0
-944 475 0
413 -58 0
-6 0
-539 390 0
-494 -939 0
-462 -436 0
-828 0
-54 -898 0
92 -587 0
-112 0
4 -394 0
-253 -329 0
177 -910 0
-57 0
-608 212 0
-712 463 0
-315 -921 0
-458 0
-182 0
584 -935 0
-446 -901 0
-611 0
-342 0
856 -974 0
-436 -249 0
991 -129 0
-648 891 0
848 -4 0
626 -68 0
-400 -139 0
-408 67 0
361 -870 0
-576 0
-474 0
-990 0
-594 0
-766 -189 0
-677 -265 0
-536 321 0
-838 -481 0
-136 -33 0
-329 0
-678 0
-535 0
-915 -115 0
17 -277 0
-953 0
-656 539 0
44 -706 0
-855 0
251 -396 0
-139 0
-796 262 0
733 -169 0
-122 0
893 -835 0
-570 0
-989 0
-252 0
-294 -780 0
-16 0
-603 0
-942 -363 0
-834 383 0
-650 0
923 -595 0
522 -953 0
-231 -791 0
-530 0
-990 0
498 -932 0
-518 0
-648 0
-24 493 0
396 -234 0
-227 0
-551 -188 0
-900 0
636 -185 0
-619 0
979 -172 0
912 -185 0
732 -289 0
-623 423 0
-407 442 0
-713 0
-316 0
-770 423 0
-21 0
-165 0
-128 -332 0
-38 -41 0
-250 0
618 -701 0
-189 966 0
-325 0
363 -981 0
-704 0
-87 -147 0
-133 -325 0
352 -263 0
-477 -51 0
-839 -359 0
-576 -735 0
-91 543 0
-834 0
-808 0
-784 0
-335 657 0
-835 655 0
532 -305 0
-83 0
28 -426 0
-383 0
-963 0
-879 998 0
948 -428 0
-605 30 0
-973 955 0
71 -449 0
-678 669 0
-645 454 0
359 -889 0
-407 247 0
-755 207 0
357 -73 0
-991 -351 0
-864 -486 0
-616 -609 0
-655 -404 0
-950 0
-467 0
-16 738 0
-838 0
-510 0
-95 332 0
-268 0
-791 0
-423 692 0
-631 435 0
-591 382 0
-458 -425 0
-796 -370 0
845 -786 0
321 -365 0
-736 0
329 -226 0
-842 855 0
-541 0
-813 -212 0
-744 -827 0
858 -894 0
-681 0
-588 0
-939 -457 0
-313 -937 0
115 -82 0
-599 -555 0
-689 0
-976 634 0
-932 0
-401 0
-166 351 0
-968 0
200 -815 0
-279 0
909 -746 0
-155 390 0
-642 0
-197 31 0
-460 0
984 -489 0
232 -445 0
588 -420 0
-450 0
160 -797 0
-259 941 0
-776 0
-982 0
-672 904 0
-580 0
292 -731 0
-218 0
-775 -500 0
-13 0
-273 0
-741 0
-389 5 0
-938 0
-936 0
-40 0
-299 0
-159 -745 0
-101 -290 0
-424 -392 0
-231 0
-891 0
-341 -627 0
-254 222 0
-956 0
-474 0
-711 0
-472 -60 0
550 -497 0
-161 0
-890 246 0
936 -438 0
-975 442 0
248 -682 0
632 -510 0
-765 -561 0
-717 -18 0
-604 -484 0
-127 -678 0
-532 0
48 -31 0
-127 0
-119 0
240 -564 0
-838 0
-756 981 0
-540 0
-112 -628 0
-681 0
-836 -377 0
-588 0
-284 -683 0
-576 -451 0
-400 -237 0
-612 0
178 -236 0
-774 -979 0
-165 0
176 -960 0
748 -907 0
555 -667 0
-270 315 0
-953 0
-233 0
-903 0
-903 -882 0
-371 0
610 -729 0
-543 -202 0
-82 0
-143 954 0
-835 -418 0
-487 -895 0
-332 0
-255 -764 0
762 -763 0
-555 0
-723 783 0
-845 0
-141 0
-310 -117 0
-832 -316 0
-381 0
3 -741 0
-806 0
818 -141 0
-384 -331 0
-339 0
308 -67 0
-860 0
-431 0
-351 533 0
-346 0
-23 -37 0
138 -947 0
-655 276 0
-132 -948 0
-424 -190 0
81 -915 0
88 -198 0
57 -894 0
-826 0
986 -780 0
-423 57 0
-100 420 0
-272 753 0
-647 0
-409 0
-533 599 0
-670 0
945 -193 0
-247 -924 0
842 -931 0
-152 -85 0
40 -373 0
-178 0
-552 -332 0
67 -186 0
-565 0
-637 0
-923 494 0
-343 0
-859 -306 0
832 -422 0
-334 -417 0
-240 -816 0
-882 0
-850 0
-451 -162 0
-239 0
-288 319 0
665 -479 0
-607 0
-704 252 0
965 -481 0
-88 0
-892 -746 0
-728 731 0
-540 0
-358 -573 0
-483 -795 0
-554 -529 0
-103 316 0
-206 0
569 -691 0
83 -845 0
-119 0
1000 -125 0
-122 0
-322 0
-583 0
-222 780 0
-853 0
-832 -710 0
-205 0
-277 0
-196 0
-385 0
384 -105 0
-510 -563 0
-680 293 0
-16 60 0
-228 0
-281 0
562 -554 0
-140 0
594 -221 0
-722 0
841 -199 0
-504 0
-467 0
-152 773 0
-191 658 0
-401 0
-322 0
-624 223 0
909 -930 0
-937 0
-116 -212 0
-400 -507 0
460 -355 0
-468 -353 0
-289 0
337 -53 0
-197 -43 0
-211 183 0
-108 0
-858 0
-835 0
-661 -195 0
539 -442 0
-622 822 0
-759 0
-627 934 0
-576 401 0
-938 0
-173 687 0
-924 -681 0
-625 0
193 -524 0
-790 375 0
-223 -987 0
-17 0
-332 749 0
-179 0
-909 78 0
-117 0
-802 0
-271 0
235 -345 0
-332 447 0
-424 -657 0
-488 292 0
36 -651 0
-450 0
-671 0
-395 -898 0
18 -933 0
-855 -89 0
720 -574 0
404 -249 0
-250 615 0
-617 0
433 -923 0
-986 -441 0
-21 31 0
-488 0
-95 422 0
-926 0
-298 0
180 -329 0
-912 -793 0
528 -354 0
-724 0
91 -85 0
137 -145 0
-525 -937 0
-70 0
-477 -393 0
-257 0
-508 0
-564 367 0
-125 0
248 -264 0
-194 0
-57 0
-255 258 0
-743 652 0
-781 -451 0
-234 -897 0
-872 0
-595 543 0
-796 0
-309 0
-528 0
-592 307 0
-125 0
-187 0
-934 -325 0
-296 0
-240 0
-418 0
283 -251 0
-238 540 0
-1000 -393 0
-6 0
-24 0
-548 0
995 -916 0
-24 -137 0
-788 0
-39 -627 0
484 -658 0
721 -874 0
-340 36 0
-247 875 0
388 -780 0
737 -637 0
-562 0
-108 0
-737 0
-469 117 0
-456 0
-702 0
-928 0
-895 0
-634 -314 0
-663 0
-878 0
577 -813 0
-764 487 0
-336 0
-173 -145 0
-166 0
-650 0
-875 0
-780 -137 0
-428 -57 0
-162 0
-510 163 0
680 -196 0
-210 0
-435 -834 0
-582 143 0
-748 0
-530 639 0
-279 0
-324 -314 0
-455 -834 0
-718 702 0
-297 0
-557 0
939 -882 0
828 -738 0
-907 0
-302 0
-328 -833 0
-810 0
-409 0
-235 0
-120 -487 0
593 -273 0
-221 -178 0
-104 0
-316 0
-78 0
854 -129 0
-794 0
-669 -530 0
-218 0
-435 0
-56 803 0
-878 -237 0
-496 871 0
-391 505 0
-150 -611 0
-216 0
-190 0
-897 0
-223 0
-568 0
-653 0
-417 0
-12 0
-654 0
-567 -100 0
-778 0
-628 -569 0
-949 -979 0
316 -498 0
345 -39 0
200 -75 0
-318 0
-117 0
-352 274 0
-389 0
42 -771 0
516 -425 0
626 -153 0
547 -89 0
-857 0
-44 0
-631 483 0
-800 0
786 -594 0
-962 471 0
-718 -449 0
-751 54 0
-117 246 0
-441 0
-963 -123 0
-318 -348 0
-410 767 0
-136 965 0
186 -363 0
-141 0
445 -202 0
569 -173 0
546 -250 0
-375 0
-473 -465 0
-964 765 0
-174 117 0
-534 52 0
-598 -563 0
-616 -487 0
-23 0
-86 668 0
-69 0
-822 0
-200 217 0
-254 0
-695 -51 0
-583 0
-181 -963 0
-967 0
-805 0
-71 301 0
-14 -66 0
-637 0
-898 639 0
-381 -898 0
-218 0
-473 -385 0
360 -167 0
-906 199 0
-626 0
-892 0
-395 -265 0
-4 -233 0
-500 359 0
952 -284 0
-40 -377 0
385 -356 0
-516 629 0
264 -35 0
-3 0
-791 0
-673 0
-149 -252 0
304 -656 0
-710 0
-524 0
-348 31 0
-720 869 0
9 -677 0
-339 791 0
-852 0
-191 436 0
-107 -834 0
-400 -275 0
339 -27 0
-861 -763 0
-414 0
-323 -737 0
916 -482 0
-132 0
-920 0
347 -818 0
-79 0
-887 0
-655 -396 0
-512 0
-955 0
394 -12 0
370 -929 0
-787 0
-220 -218 0
-676 -466 0
-564 101 0
-358 158 0
-661 0
-388 0
-456 -591 0
-792 116 0
788 -466 0
-959 -658 0
-224 454 0
-971 0
-809 0
-400 59 0
200 -682 0
-320 0
-731 0
-44 0
-704 354 0
-279 925 0
-502 -33 0
591 -89 0
-316 397 0
260 -940 0
-667 0
-328 -879 0
-672 0
93 -379 0
-681 0
-487 0
-517 -572 0
574 -762 0
180 -803 0
-131 0
-646 0
-134 69 0
-940 0
-43 0
-391 409 0
-864 0
-455 0
-325 125 0
-912 -216 0
-656 0
195 -668 0
-197 0
-926 685 0
-877 -324 0
-793 0
-446 901 0
-314 0
-182 -457 0
-87 143 0
-264 -567 0
-81 0
-334 845 0
-35 0
-935 270 0
-380 0
-306 -761 0
-320 -464 0
-816 0
-138 0
-440 0
496 -841 0
-516 0
-107 -962 0
-723 -337 0
-26 0
-342 0
-803 0
872 -837 0
-888 -594 0
-477 0
28 -666 0
816 -342 0
-703 289 0
-394 583 0
999 -609 0
-480 354 0
-655 -425 0
557 -867 0
851 -59 0
257 -217 0
-704 0
-583 0
-291 0
19 -954 0
480 -937 0
-466 -666 0
-600 -894 0
726 -242 0
-437 0
-211 -873 0
-292 581 0
-753 0
-425 0
-687 0
-920 0
-637 0
-71 -914 0
-209 0
-479 0
-699 790 0
481 -363 0
-7 0
324 -649 0
-641 0
-737 0
-863 537 0
-863 -50 0
-309 -339 0
-804 0
-434 967 0
-152 -28 0
-832 0
-98 543 0
-842 -937 0
412 -570 0
-940 0
-481 0
-148 0
-127 196 0
-759 212 0
-219 0
318 -945 0
-103 934 0
-983 0
-501 -697 0
-755 -506 0
-194 0
-176 269 0
-824 0
-536 0
-194 230 0
-379 -193 0
-403 0
-208 0
-828 0
-832 -643 0
898 -427 0
-17 0
-400 35 0
204 -113 0
-331 790 0
514 -684 0
-134 0
-56 -309 0
-579 0
-303 803 0
-820 -491 0
-384 -175 0
-120 -274 0
-73 0
-867 0
-774 0
-465 0
-685 -300 0
-253 0
-55 0
-979 0
893 -578 0
-255 0
-684 0
-939 0
-671 225 0
-822 -652 0
-343 -474 0
-590 883 0
-62 -346 0
-954 0
128 -645 0
-493 124 0
304 -450 0
-522 0
82 -116 0
-571 -266 0
-20 0
-269 172 0
564 -218 0
-568 175 0
-191 689 0
969 -858 0
-998 -85 0
-610 0
-326 0
-160 0
-448 -258 0
830 -937 0
-648 174 0
-776 0
-382 0
417 -30 0
-869 55 0
164 -372 0
-414 -754 0
-632 0
-592 28 0
-459 -209 0
-544 902 0
-362 0
-807 0
-938 0
-459 0
-183 890 0
-35 0
136 -258 0
-558 421 0
-921 0
-14 0
-406 0
-511 0
-788 0
-709 0
-357 910 0
553 -773 0
-627 -137 0
688 -633 0
-947 0
-217 0
-331 -370 0
-843 0
-125 0
-158 0
-989 0
-654 235 0
-520 0
-872 509 0
464 -580 0
-469 0
-367 434 0
-520 0
-884 0
-603 0
48 -887 0
-709 0
-637 0
-327 0
-68 0
-58 511 0
-821 0
-848 846 0
-299 -793 0
-172 0
-28 -897 0
-100 950 0
-406 0
-636 -131 0
-353 0
-469 0
225 -179 0
-464 287 0
-312 -926 0
-305 0
-280 0
-652 0
-403 551 0
-894 -821 0
-656 405 0
-184 0
-310 -49 0
281 -317 0
-176 316 0
772 -411 0
-572 0
-49 0
-856 -754 0
918 -681 0
-738 0
-432 -190 0
-119 -1 0
954 -866 0
-875 0
905 -115 0
245 -921 0
491 -465 0
-447 433 0
-995 559 0
-519 0
-416 -847 0
-753 0
-675 -377 0
-214 748 0
-403 0
-837 -514 0
-183 -758 0
-382 211 0
-687 -819 0
-542 0
-5 831 0
584 -447 0
-801 0
-51 0
-246 0
-535 0
-688 816 0
-480 0
17 -67 0
-338 0
-153 0
-446 965 0
-208 -364 0
-977 0
538 -100 0
-644 0
685 -859 0
665 -554 0
-141 -625 0
-16 0
-14 741 0
282 -308 0
-916 -860 0
227 -306 0
-520 637 0
-744 0
-439 -806 0
-664 0
-748 0
-445 949 0
-179 319 0
-91 0
-574 -889 0
-419 0
570 -373 0
-579 0
-232 -325 0
724 -385 0
-240 0
-858 0
-581 -929 0
-536 -747 0
-438 0
-843 0
-107 0
872 -242 0
-424 -19 0
-978 0
-694 -666 0
-429 0
-404 -948 0
-683 0
-887 -43 0
-472 -660 0
464 -3 0
-717 0
-75 -130 0
-260 0
-119 0
-229 0
-291 0
696 -689 0
-30 645 0
-457 0
-340 21 0
-609 0
-676 0
-70 0
-802 966 0
-944 0
-372 493 0
-880 -349 0
-332 933 0
-751 0
-928 -883 0
-472 80 0
-983 67 0
445 -337 0
-189 -913 0
785 -346 0
-965 0
-1000 -34 0
219 -673 0
-551 0
611 -331 0
-842 0
-343 422 0
344 -398 0
793 -141 0
-475 446 0
-958 0
-746 0
-954 -418 0
-66 359 0
-94 118 0
-527 0
-234 0
-150 372 0
-704 945 0
-803 0
-65 0
-92 0
-838 0
-653 -843 0
-456 0
-5 375 0
-262 669 0
651 -450 0
-584 0
245 -987 0
-565 0
-271 -2 0
-101 0
-10 0
-142 965 0
-344 0
-215 0
-671 -435 0
-141 -241 0
-437 0
-910 284 0
-672 -802 0
-591 0
-73 0
-348 0
-10 0
-666 -449 0
955 -700 0
-536 585 0
-894 0
-186 599 0
-298 0
-96 -991 0
-614 0
-608 -619 0
219 -396 0
-248 -987 0
-583 391 0
-363 0
-444 0
744 -642 0
-470 325 0
-560 -355 0
-925 372 0
-206 487 0
161 -466 0
-384 0
-985 0
-125 0
-784 245 0
-317 -787 0
-891 0
-525 0
-986 0
706 -420 0
-95 0
-341 0
-645 0
-83 -665 0
563 -812 0
-575 0
-862 0
-280 -70 0
-51 0
-176 -646 0
-93 -769 0
-887 0
332 -338 0
-919 -409 0
-169 943 0
658 -682 0
-911 537 0
-735 0
-197 0
-741 -169 0
-625 0
-373 -724 0
-233 0
-196 0
548 -204 0
-936 808 0
-32 351 0
-574 -709 0
-123 790 0
-562 0
-342 0
-975 -643 0
722 -891 0
-863 0
-324 0
769 -638 0
-579 486 0
-135 -988 0
-32 0
-738 0
-599 -89 0
-408 350 0
-308 806 0
-768 -239 0
-68 0
684 -154 0
-647 0
-763 -313 0
-301 -932 0
-949 854 0
-355 0
-830 0
-701 0
-971 0
-943 0
-447 -577 0
994 -844 0
-552 -735 0
-912 733 0
-711 0
-992 0
128 -177 0
-597 -234 0
-621 0
48 -918 0
-639 0
-878 455 0
-381 -859 0
-256 0
-335 -946 0
456 -185 0
202 -220 0
-933 -524 0
-848 235 0
427 -523 0
-263 0
-744 0
131 -373 0
-758 188 0
-263 727 0
-480 0
-189 158 0
-336 901 0
-691 815 0
-308 -539 0
179 -645 0
-808 295 0
-335 -740 0
-968 0
25 -650 0
-41 0
-504 0
-671 -554 0
-547 375 0
-852 508 0
-61 0
968 -447 0
-464 416 0
-703 0
-989 0
-820 -428 0
-498 0
-589 0
136 -496 0
-902 469 0
-614 0
-391 403 0
-216 0
-501 0
-784 -947 0
-235 0
344 -565 0
-316 -811 0
-143 -229 0
-543 0
80 -556 0
-613 0
-301 0
-130 -921 0
-547 0
-263 -262 0
825 -347 0
-106 -545 0
-781 0
-727 0
-567 677 0
-667 0
-735 0
-519 0
-293 0
-319 -422 0
-371 189 0
-164 0
-972 -961 0
164 -178 0
-450 0
-278 421 0
-712 0
908 -203 0
-147 0
-634 151 0
-95 0
611 -483 0
-778 0
32 -150 0
-54 786 0
-610 0
-657 0
316 -770 0
-150 -610 0
-834 -649 0
-780 0
843 -81 0
-156 327 0
-990 31 0
588 -155 0
-498 0
281 -499 0
-654 0
-270 0
-647 662 0
-175 306 0
-501 620 0
-164 0
-344 415 0
-767 0
-888 953 0
-967 0
6 -809 0
-742 0
-600 -860 0
-455 -199 0
-988 0
348 -273 0
-553 0
-832 -113 0
-640 575 0
-838 988 0
1000 -76 0
-985 0
17 -239 0
-842 0
353 -358 0
-718 142 0
-81 0
-218 0
-764 0
-545 0
582 -73 0
-848 0
-413 0
-983 0
-369 0
-956 0
-888 0
851 -210 0
74 -485 0
-208 0
-801 0
-935 0
-336 72 0
217 -190 0
-242 727 0
-975 0
-978 0
837 -266 0
-276 0
-376 178 0
-797 0
-283 623 0
-344 0
928 -34 0
656 -932 0
104 -262 0
-369 0
784 -3 0
-928 0
-258 0
-845 798 0
718 -930 0
27 -658 0
-731 0
-126 -818 0
-88 260 0
-207 945 0
-993 0
-558 682 0
63 -225 0
-890 0
-464 -381 0
-14 0
509 -825 0
-860 0
-308 0
-455 0
-617 -385 0
-314 374 0
-93 0
-595 0
-1000 -207 0
538 -291 0
878 -738 0
-932 0
-597 0
-134 0
-39 -404 0
-582 0
-973 -604 0
-262 -281 0
-565 -569 0
-255 644 0
680 -424 0
-976 -809 0
-48 317 0
752 -491 0
-888 846 0
-167 930 0
-639 -422 0
-749 0
-66 0
426 -932 0
-833 0
-120 0
-860 0
-336 131 0
-635 623 0
-684 0
-148 695 0
893 -393 0
-936 751 0
692 -2 0
-175 -767 0
-408 0
-166 -412 0
-838 55 0
-768 -746 0
-987 0
-896 0
-240 646 0
-238 0
-446 0
488 -986 0
544 -57 0
-941 372 0
-540 -796 0
-610 0
696 -149 0
-640 0
-93 0
856 -415 0
-614 142 0
-338 0
-568 0
-402 -185 0
-791 0
-420 228 0
960 -383 0
-861 0
647 -905 0
-4 0
-351 -922 0
-829 0
832 -269 0
-44 -337 0
-147 0
-753 0
-604 0
-973 998 0
-70 0
-200 -825 0
-265 0
179 -157 0
-339 0
-484 645 0
-337 0
-453 0
-630 0
-902 0
353 -682 0
-560 431 0
-928 63 0
-737 0
-639 0
346 -901 0
-169 655 0
-304 0
-346 -353 0
-935 63 0
-702 -986 0
-275 517 0
-21 -425 0
-176 0
-631 -372 0
-952 567 0
-396 0
-287 0
-452 0
-218 -538 0
-551 -349 0
-358 591 0
-570 -770 0
496 -663 0
-294 365 0
-109 0
-543 764 0
-776 0
-288 0
-800 363 0
-111 677 0
-891 334 0
-181 0
-274 0
464 -396 0
672 -244 0
746 -820 0
-236 0
800 -643 0
-519 588 0
-749 444 0
-256 -607 0
-48 0
-113 0
-486 733 0
-540 0
-463 -980 0
-785 0
-111 -577 0
-462 0
-943 -914 0
-181 0
-357 0
-319 0
-824 886 0
8 -566 0
-383 724 0
611 -465 0
-449 0
337 -529 0
-870 0
-452 0
-822 483 0
-151 332 0
-288 438 0
-150 -204 0
-701 0
-760 0
-903 2 0
-918 0
177 -294 0
-763 -441 0
-942 564 0
908 -284 0
-90 0
-928 514 0
-895 619 0
43 -522 0
208 -887 0
-188 0
-911 -811 0
-716 -625 0
-302 -419 0
192 -66 0
386 -925 0
-403 0
-992 700 0
-432 0
-729 0
-47 247 0
-646 174 0
-552 0
-342 -789 0
-722 0
-191 251 0
517 -970 0
-47 0
-319 14 0
-568 275 0
-693 0
-967 -67 0
388 -131 0
-198 -954 0
-998 52 0
329 -295 0
864 -97 0
-520 306 0
-31 -715 0
-586 -321 0
-470 -770 0
-852 -337 0
-811 0
-824 0
-807 0
-808 0
460 -659 0
-507 407 0
187 -339 0
-375 0
-694 542 0
-383 0
-856 0
897 -573 0
-318 -66 0
-311 77 0
-846 -750 0
-435 -586 0
-710 375 0
-317 756 0
354 -857 0
-931 0
316 -425 0
64 -380 0
-204 0
474 -916 0
486 -937 0
-808 884 0
-166 597 0
-308 0
373 -866 0
-344 -718 0
-150 0
-453 0
-869 990 0
-752 0
-936 -94 0
545 -901 0
-364 -433 0
-791 277 0
-408 -42 0
-892 0
-596 0
-478 0
-25 0
-945 0
-534 0
-460 0
-552 -140 0
-616 827 0
-672 827 0
-345 0
-797 36 0
656 -362 0
-717 678 0
-721 0
-54 -845 0
-292 445 0
-929 0
-32 -949 0
-663 532 0
-29 540 0
29 -347 0
-480 0
-554 0
-89 0
-535 0
-163 0
-620 0
-674 0
-532 0
-720 789 0
-393 967 0
-643 630 0
-16 -451 0
-432 0
-16 -486 0
-846 -553 0
-398 0
155 -330 0
-436 0
-780 0
-23 -911 0
436 -882 0
664 -156 0
-963 0
-295 -709 0
-126 0
-104 -415 0
-270 0
-547 0
556 -698 0
-693 0
-960 866 0
-672 0
-399 0
-572 893 0
-915 430 0
-959 290 0
833 -694 0
-412 0
-384 -292 0
-867 0
-584 -566 0
-172 0
-869 0
-907 295 0
862 -281 0
-112 0
-14 484 0
424 -268 0
708 -508 0
642 -433 0
128 -252 0
-107 437 0
-717 -162 0
-648 0
464 -876 0
930 -994 0
-704 -718 0
-570 0
-262 0
-7 0
-262 -189 0
-976 0
-509 0
11 -491 0
-242 671 0
458 -589 0
-863 391 0
-426 798 0
-229 -564 0
-640 426 0
-740 470 0
-583 54 0
-799 0
-982 253 0
-184 -861 0
478 -90 0
-197 -677 0
-911 -605 0
713 -109 0
-496 461 0
-213 0
-3 910 0
-140 0
728 -863 0
625 -746 0
314 -620 0
827 -349 0
568 -758 0
-800 0
-920 361 0
98 -173 0
120 -556 0
777 -268 0
928 -649 0
-487 0
-760 -533 0
-764 0
176 -283 0
-571 0
-72 747 0
939 -746 0
-830 0
-94 0
-165 0
-67 -825 0
-941 -690 0
-330 0
-49 0
-817 0
761 -749 0
-8 0
-216 596 0
-93 -449 0
-879 0
40 -681 0
-412 0
-285 868 0
851 -356 0
-770 0
-32 0
456 -758 0
-203 0
-647 0
-502 0
-518 -82 0
-102 596 0
-247 0
-375 679 0
-880 745 0
664 -629 0
243 -82 0
-120 930 0
-685 701 0
-756 0
-807 -747 0
-510 -658 0
-761 0
-327 -598 0
417 -740 0
444 -4 0
-800 0
-29 0
-595 -721 0
-441 431 0
-834 0
-439 0
-780 0
-491 0
-607 0
-706 -969 0
-311 0
-687 -767 0
100 -803 0
-823 0
922 -401 0
548 -707 0
563 -36 0
-422 0
-993 0
-736 -779 0
-949 0
-494 0
-296 502 0
-154 0
-501 -185 0
-950 247 0
362 -379 0
-886 -148 0
-586 0
-687 0
-804 991 0
-571 0
-419 0
-652 247 0
-951 455 0
-806 -347 0
-986 0
-995 -666 0
-262 124 0
-445 0
-654 893 0
-863 365 0
399 -361 0
-791 0
-900 0
-925 -436 0
-439 -709 0
-68 0
-689 0
-193 0
-206 -765 0
-801 0
-982 154 0
-200 147 0
657 -839 0
-911 0
-272 47 0
-496 146 0
-636 0
265 -825 0
-956 0
-177 0
659 -90 0
-871 0
-779 -978 0
-797 -899 0
-165 -21 0
-706 0
-943 0
-284 0
753 -292 0
-358 70 0
-286 709 0
-815 517 0
-519 -185 0
-626 0
-967 898 0
809 -391 0
-784 122 0
609 -790 0
-590 370 0
-674 0
-333 126 0
-911 397 0
-414 0
-315 0
-474 0
-594 0
-821 191 0
475 -346 0
308 -97 0
182 -121 0
-670 0
-880 849 0
-185 0
-556 180 0
-472 26 0
-233 0
-600 669 0
-712 0
-828 0
-629 0
-493 0
-941 -235 0
-451 0
-734 0
-270 695 0
-982 597 0
-106 0
152 -255 0
762 -19 0
-834 0
-686 0
496 -194 0
-247 0
868 -627 0
730 -252 0
-639 0
-982 733 0
-663 0
-502 0
-195 151 0
-453 381 0
-202 0
376 -726 0
-782 734 0
-723 -658 0
40 -542 0
-263 0
-951 0
330 -622 0
-577 0
537 -985 0
-981 0
-629 325 0
-742 942 0
-40 0
-140 -708 0
-23 643 0
-678 915 0
584 -165 0
694 -201 0
-615 0
-462 -381 0
-398 -267 0
-126 47 0
-502 -595 0
-32 978 0
475 -60 0
-681 0
-591 -227 0
-638 0
315 -706 0
81 -207 0
-148 431 0
937 -303 0
-742 0
-661 0
-990 -923 0
857 -9 0
-360 -331 0
-468 0
-919 0
-454 -186 0
-79 417 0
-237 837 0
-761 0
-712 0
-915 0
-119 0
-782 802 0
-672 976 0
-947 0
-942 0
-369 0
-500 0
-514 -705 0
-775 -518 0
-132 591 0
475 -772 0
-920 66 0
-130 0
-728 0
-812 0
-684 214 0
-926 382 0
-7 0
784 -167 0
-775 910 0
962 -161 0
664 -979 0
-996 -99 0
-606 -581 0
-852 -627 0
122 -282 0
-455 786 0
428 -788 0
-871 0
924 -122 0
-814 165 0
332 -217 0
-620 0
-151 355 0
-508 0
896 -945 0
45 -33 0
-512 0
-773 749 0
272 -302 0
-416 0
-316 -412 0
-415 0
-325 726 0
-120 0
-77 0
-203 895 0
-454 661 0
-174 0
-806 119 0
-605 -209 0
-275 62 0
-383 -106 0
-732 -113 0
-221 678 0
-102 0
860 -721 0
-623 -898 0
-600 -191 0
-162 0
250 -227 0
-344 540 0
-448 388 0
-779 0
-648 0
-440 -36 0
128 -473 0
183 -577 0
-240 0
-821 0
-852 774 0
-324 36 0
-654 -163 0
-301 172 0
-959 -986 0
-247 -29 0
-360 0
708 -689 0
-931 0
-99 0
668 -441 0
-679 0
-823 0
-55 -294 0
-736 0
-853 0
-739 0
-644 0
-862 422 0
-515 343 0
776 -595 0
196 -929 0
-532 0
-986 0
-89 0
-634 0
-495 0
-983 271 0
426 -630 0
-305 0
-815 519 0
344 -666 0
-732 0
-848 -26 0
-894 357 0
-823 -857 0
-752 0
-587 0
-886 0
-368 -585 0
-918 -484 0
-719 0
-574 -2 0
-668 0
-259 135 0
-55 0
-703 466 0
-828 661 0
-320 0
-647 -236 0
-830 0
-126 0
-556 -378 0
-786 0
-499 -665 0
-64 0
-799 154 0
498 -729 0
-238 14 0
-96 -412 0
-89 0
-541 134 0
5 -115 0
-828 -915 0
-671 -362 0
995 -187 0
-23 0
-657 0
505 -366 0
770 -681 0
-832 320 0
473 -180 0
-472 905 0
-114 0
-145 0
-312 845 0
442 -163 0
-418 0
-741 660 0
605 -265 0
-168 591 0
-400 378 0
-143 -284 0
-349 111 0
-628 205 0
777 -569 0
-909 0
-171 -450 0
-876 446 0
-373 -217 0
346 -137 0
-544 0
-773 0
-663 0
-973 0
843 -797 0
-560 0
-343 483 0
777 -660 0
-701 525 0
-17 991 0
-116 0
-837 -465 0
-403 0
-436 0
-221 0
-427 0
-562 0
-465 0
-136 0
-645 -473 0
784 -698 0
-928 -428 0
-917 -225 0
-134 -915 0
455 -577 0
-309 0
-566 -787 0
-855 828 0
-840 0
-993 0
-756 199 0
545 -916 0
-382 0
-155 0
109 -129 0
-539 -283 0
-974 -51 0
-258 0
-545 0
594 -340 0
950 -137 0
-815 0
-607 186 0
-612 0
816 -571 0
8 -518 0
-859 0
216 -533 0
-761 0
-587 0
-471 0
-219 -897 0
-600 0
-969 0
-917 -753 0
-318 708 0
-517 0
-354 0
185 -967 0
-496 0
-758 -442 0
672 -508 0
145 -738 0
-174 0
-683 0
-223 -25 0
-808 0
-301 390 0
-563 782 0
246 -681 0
-474 0
-45 -27 0
660 -371 0
-492 0
-479 0
398 -417 0
-972 110 0
-658 951 0
-723 0
-496 243 0
-22 -970 0
-334 0
-590 0
-880 -559 0
132 -426 0
-218 0
64 -659 0
-189 0
-502 63 0
-876 0
-837 622 0
-336 97 0
712 -513 0
-804 38 0
-201 0
-48 -814 0
-848 -816 0
-959 -170 0
-295 0
-870 0
17 -594 0
-827 0
762 -740 0
-310 -753 0
-437 791 0
-342 262 0
-880 858 0
197 -154 0
-336 627 0
-355 0
-691 0
-832 -139 0
-21 0
-256 0
-560 0
-205 0
-579 0
-747 0
-793 0
-396 -260 0
-789 773 0
-593 0
-228 366 0
-854 0
521 -854 0
-950 919 0
-945 0
-79 357 0
-205 0
-670 -436 0
-732 0
-566 -969 0
-176 184 0
458 -506 0
-278 -926 0
-400 318 0
220 -761 0
-671 26 0
153 -370 0
-104 709 0
-938 0
-717 0
-148 47 0
-280 -467 0
-637 -18 0
994 -229 0
-325 0
-885 0
-388 0
-817 0
808 -12 0
-344 -781 0
-77 0
597 -579 0
-550 903 0
-845 0
-134 -710 0
-847 0
-624 189 0
-713 0
-508 0
705 -457 0
-160 -229 0
-414 -546 0
-440 -800 0
-869 0
-493 -866 0
309 -690 0
776 -294 0
-736 0
578 -981 0
-364 -849 0
-210 -401 0
-103 -225 0
-678 0
-690 0
-470 0
-446 -225 0
496 -377 0
600 -630 0
248 -443 0
670 -897 0
-306 0
547 -282 0
-263 -646 0
-773 0
537 -161 0
-554 118 0
974 -90 0
387 -250 0
-625 0
-408 806 0
-751 0
-871 151 0
-429 0
545 -139 0
-383 -577 0
-814 -852 0
-472 969 0
-234 0
-479 -436 0
-167 0
-827 0
-594 254 0
-159 0
-1000 -975 0
-848 171 0
-718 0
-70 0
-579 0
-343 0
-684 0
-559 0
-399 918 0
-535 0
-904 -702 0
-995 982 0
-960 -348 0
-93 407 0
-583 -745 0
-821 748 0
-136 -847 0
-815 162 0
-487 -636 0
-37 -971 0
-88 -215 0
-536 -683 0
-123 0
-521 0
70 -922 0
-543 -705 0
-861 439 0
-877 0
525 -489 0
-851 0
-879 -476 0
-357 0
-877 69 0
-262 0
-403 -889 0
-897 0
-5 0
-59 -34 0
-53 125 0
-163 14 0
-70 -881 0
-782 0
-103 0
-509 0
-489 0
-827 0
-465 0
-569 0
-542 0
-263 -889 0
-964 0
-333 -635 0
-198 0
-928 0
-672 -647 0
-728 -628 0
-6 0
-89 0
-688 -453 0
787 -788 0
-776 -103 0
980 -721 0
298 -494 0
-166 0
-931 191 0
-87 0
-723 0
750 -665 0
-486 -226 0
-878 -313 0
-683 0
-175 217 0
-644 0
-911 709 0
-972 0
-806 22 0
-870 0
-80 65 0
666 -57 0
260 -482 0
-245 717 0
-218 -585 0
-16 -535 0
-221 -754 0
756 -746 0
-411 0
-333 0
-215 -939 0
112 -906 0
-910 -732 0
-520 -208 0
-976 124 0
-344 333 0
-763 0
-813 0
-128 -188 0
-619 0
945 -886 0
-253 0
969 -148 0
885 -355 0
-244 518 0
-253 163 0
602 -435 0
-835 0
-359 0
155 -985 0
-339 0
-524 381 0
-574 0
578 -243 0
361 -422 0
-517 0
-568 0
-729 0
-914 -178 0
-101 0
-728 -958 0
-46 -705 0
-733 -753 0
-665 -209 0
420 -897 0
-18 0
-220 0
-876 0
-972 -305 0
-191 0
-415 -522 0
-403 -649 0
-718 0
-136 0
-435 0
-748 0
-279 853 0
488 -707 0
-142 -602 0
874 -684 0
-429 -73 0
-606 0
-652 -801 0
-575 0
-146 0
-820 0
564 -585 0
-794 0
-527 295 0
808 -15 0
-366 -377 0
-608 673 0
-616 -99 0
-712 451 0
-32 -147 0
-151 290 0
56 -75 0
-84 -947 0
-699 -538 0
-871 -777 0
-951 -970 0
-639 0
-483 0
-279 0
-575 -793 0
-387 -610 0
609 -962 0
-736 -204 0
645 -9 0
-324 821 0
-488 571 0
-126 399 0
-871 -164 0
-375 -861 0
-260 -331 0
-397 502 0
-217 0
-765 0
-599 0
-557 948 0
-874 631 0
-155 534 0
-45 0
-486 860 0
-261 636 0
928 -881 0
-899 0
-568 -866 0
-198 -29 0
-232 0
-957 692 0
-372 999 0
451 -252 0
-167 -398 0
-278 139 0
-148 406 0
-502 461 0
-141 0
-374 196 0
-754 0
-109 0
-612 0
304 -734 0
-424 0
-480 254 0
-216 624 0
-478 -932 0
-990 0
-423 -970 0
588 -338 0
-803 0
-999 0
-910 -124 0
-334 430 0
-571 -659 0
-611 127 0
-4 -394 0
-863 0
-87 -868 0
-578 0
-935 0
-756 0
-313 0
168 -188 0
-278 -923 0
-451 0
-317 4 0
-360 -414 0
-319 263 0
-647 -673 0
-325 -523 0
-479 831 0
784 -361 0
899 -273 0
-99 0
-632 -404 0
-814 638 0
-832 570 0
-926 0
-57 0
-424 -460 0
-595 0
-656 0
-762 0
-20 -802 0
-989 0
-465 0
-833 0
-286 430 0
184 -402 0
-498 0
-335 0
821 -169 0
-230 203 0
-527 0
888 -930 0
-747 0
-859 -769 0
404 -729 0
-243 0
616 -472 0
-395 0
-626 0
-156 0
-311 -780 0
-652 877 0
-236 -891 0
-72 -790 0
-519 -327 0
-277 0
763 -731 0
1000 -529 0
-622 131 0
284 -450 0
-682 0
-647 50 0
136 -46 0
797 -67 0
-256 -798 0
264 -637 0
-901 -257 0
-720 -114 0
51 -811 0
-831 0
152 -800 0
-298 919 0
-747 935 0
-878 -246 0
-261 559 0
-384 903 0
-808 643 0
502 -617 0
-460 0
-106 -497 0
-431 -53 0
634 -946 0
-951 -817 0
-837 -705 0
-73 0
547 -93 0
-25 0
-159 0
-345 0
378 -508 0
-855 -637 0
-973 0
-861 0
-675 0
-893 0
-568 0
-543 -931 0
-686 707 0
-181 -178 0
-927 0
528 -952 0
-37 383 0
-801 0
-942 619 0
-31 230 0
-930 0
-767 0
-962 -265 0
-838 0
-535 -722 0
-66 0
892 -498 0
-533 -625 0
-908 0
-643 0
742 -809 0
-312 -27 0
-896 0
-781 0
-984 0
-573 662 0
-710 0
-194 0
445 -698 0
-546 0
-949 0
-996 0
-344 999 0
-389 828 0
-418 0
-808 639 0
-401 0
-128 -372 0
916 -250 0
-717 0
2 -43 0
-851 0
808 -782 0
-294 0
-670 0
-572 639 0
824 -948 0
546 -835 0
-222 340 0
-75 -169 0
703 -369 0
-70 0
689 -804 0
754 -757 0
-826 -818 0
-493 0
-350 255 0
-222 0
409 -397 0
801 -291 0
-881 0
-290 0
-732 0
-632 -810 0
-584 -198 0
405 -626 0
56 -293 0
753 -317 0
-430 0
-85 678 0
-992 953 0
-992 -564 0
-496 208 0
-162 0
-397 150 0
-468 0
8 -762 0
-161 0
-287 -506 0
-378 463 0
-688 -1 0
-446 -202 0
-318 0
-579 0
-503 -506 0
699 -676 0
-940 343 0
-206 0
-152 0
-24 538 0
-558 0
-844 -690 0
-523 479 0
74 -985 0
-533 0
-480 583 0
-31 0
-619 405 0
-911 451 0
-109 -881 0
-343 -198 0
-536 -666 0
-348 719 0
986 -181 0
-933 -987 0
-859 0
406 -522 0
-171 31 0
-82 0
-954 0
-84 -618 0
436 -306 0
-555 0
-460 0
33 -725 0
464 -746 0
-22 -476 0
-501 643 0
499 -330 0
-196 422 0
-5 -745 0
-93 -450 0
-222 -53 0
317 -778 0
106 -339 0
-962 0
-934 227 0
-49 0
792 -668 0
-385 -513 0
465 -636 0
195 -705 0
-407 415 0
-642 0
-63 0
-927 13 0
-171 0
-631 300 0
-314 238 0
-55 0
-631 -113 0
394 -701 0
-640 -383 0
-775 0
-950 983 0
-840 315 0
-121 239 0
-262 103 0
-421 0
777 -445 0
-763 0
438 -305 0
-975 31 0
-92 494 0
618 -285 0
-364 951 0
-529 0
-687 -579 0
-552 0
42 -819 0
858 -902 0
-548 0
17 -657 0
-42 207 0
-455 941 0
281 -597 0
-734 -481 0
435 -691 0
-847 212 0
-809 0
-916 0
-105 0
766 -841 0
9 -819 0
643 -380 0
-432 -385 0
-431 404 0
-299 0
-328 0
-728 0
-188 0
-64 -376 0
682 -252 0
61 -499 0
-987 0
-239 0
-605 0
-281 0
-589 0
-137 0
881 -979 0
962 -875 0
-436 0
-325 0
-288 0
770 -146 0
-493 -530 0
229 -251 0
-867 -314 0
946 -770 0
-4 413 0
-95 0
-147 0
-6 -484 0
-354 0
491 -977 0
532 -97 0
-967 922 0
-499 -114 0
-373 -899 0
-496 -79 0
-121 0
-141 -692 0
-609 0
487 -513 0
-799 -542 0
-21 -564 0
-148 199 0
-540 831 0
-920 0
563 -861 0
-81 0
-349 -818 0
-793 0
-832 874 0
-760 822 0
896 -441 0
-446 0
-644 981 0
17 -714 0
40 -689 0
-961 0
-115 0
-786 423 0
-631 473 0
-571 0
864 -810 0
57 -170 0
-735 -291 0
641 -917 0
-888 0
-246 0
-160 -122 0
-72 484 0
966 -329 0
-531 567 0
-187 0
-586 0
-584 -818 0
531 -972 0
477 -994 0
-903 954 0
-751 0
-880 70 0
-152 0
-514 -777 0
-596 836 0
-592 400 0
-72 -132 0
-379 -769 0
-821 0
-174 0
-333 423 0
484 -178 0
-359 0
-752 439 0
-741 -929 0
370 -889 0
-429 893 0
-914 0
704 -571 0
-790 623 0
-747 0
-559 -473 0
-142 571 0
571 -137 0
280 -66 0
-456 0
-733 565 0
638 -146 0
793 -429 0
720 -370 0
-17 0
-360 684 0
-664 381 0
-499 374 0
5 -265 0
-209 0
-491 0
-111 -76 0
-712 0
446 -417 0
-472 -199 0
-685 231 0
532 -106 0
-583 -966 0
-477 0
-243 0
-663 990 0
-838 -989 0
-293 493 0
-927 -145 0
-616 0
704 -702 0
816 -881 0
657 -13 0
378 -413 0
-21 -514 0
-415 -595 0
-367 6 0
18 -493 0
-439 0
-31 -435 0
-303 689 0
-682 0
-392 -596 0
-628 0
-205 -170 0
-736 0
147 -906 0
-799 -524 0
-751 630 0
-542 347 0
-858 0
515 -450 0
-556 -81 0
834 -917 0
-175 -63 0
-476 -51 0
-188 0
-350 583 0
-576 396 0
-511 0
-521 0
-72 0
-146 0
-296 266 0
300 -346 0
-950 0
-908 0
67 -500 0
-688 0
-384 -578 0
-574 7 0
-669 0
-605 0
-121 0
-892 0
-375 427 0
-667 0
-766 0
-495 -310 0
-772 0
409 -356 0
-724 0
-653 0
-432 82 0
-542 0
-846 362 0
-607 602 0
-176 -620 0
-628 854 0
-400 -811 0
-487 0
-388 -25 0
-847 -714 0
555 -147 0
-719 118 0
-234 0
-175 825 0
-952 -302 0
-528 0
-296 971 0
-623 -468 0
-511 0
781 -578 0
-660 -217 0
-887 0
253 -779 0
-905 0
-530 0
-368 -887 0
-158 -629 0
592 -831 0
19 -913 0
224 -433 0
-617 0
454 -242 0
-288 920 0
-113 0
-634 -882 0
-651 0
-199 0
-416 -929 0
-559 -932 0
-983 0
-667 -402 0
-698 0
-87 -454 0
-673 0
-391 0
520 -346 0
136 -267 0
-957 0
-301 0
-800 0
-724 0
-676 0
208 -881 0
-659 0
-863 0
-232 0
-918 -627 0
52 -18 0
-788 -602 0
-299 -993 0
-939 0
578 -867 0
-737 0
985 -610 0
-16 929 0
-816 990 0
98 -482 0
-135 0
-527 293 0
-732 0
-629 863 0
997 -339 0
-872 259 0
-232 0
-732 13 0
-206 -733 0
-61 0
-209 0
-227 0
-250 0
-491 0
-607 0
-126 0
-624 914 0
-668 0
-132 221 0
-219 0
761 -937 0
-136 0
-599 0
-769 0
-870 0
-384 -529 0
-359 -603 0
737 -46 0
-298 -265 0
-125 0
-766 188 0
-528 373 0
-262 -770 0
396 -498 0
-814 -949 0
219 -21 0
177 -28 0
-191 0
832 -552 0
-763 0
-300 -539 0
-774 0
-812 854 0
-79 0
-297 0
-155 710 0
-87 963 0
-541 0
-517 0
-447 565 0
-481 0
-339 0
-70 -252 0
-398 0
-141 -444 0
-730 0
-414 662 0
-676 0
-117 0
-598 323 0
-22 -508 0
-14 0
961 -451 0
-880 0
-14 957 0
-559 -948 0
-91 -570 0
-150 0
-100 95 0
-943 0
427 -84 0
-919 -996 0
-926 743 0
-590 0
-384 410 0
-705 0
-239 0
-688 787 0
14 -217 0
-894 931 0
-690 0
-94 0
-885 351 0
-258 -505 0
-220 0
-635 -105 0
-926 -281 0
-759 -921 0
-60 29 0
-691 39 0
467 -730 0
-915 0
-253 0
-385 0
676 -483 0
483 -906 0
-206 868 0
393 -18 0
659 -585 0
48 -605 0
336 -975 0
-164 493 0
988 -883 0
808 -147 0
-502 -174 0
-517 0
264 -905 0
514 -617 0
-976 0
-564 -825 0
-229 0
-846 0
-414 -313 0
-303 0
-640 -595 0
-209 0
-762 0
-643 -99 0
656 -204 0
-540 0
362 -499 0
-768 -401 0
-948 0
540 -1 0
-302 0
-739 87 0
-845 -428 0
-670 -739 0
-807 0
-253 -732 0
-671 535 0
-496 579 0
-566 621 0
-129 0
-766 -526 0
-470 341 0
-872 0
-948 0
-133 998 0
956 -825 0
-500 0
-535 0
-632 560 0
785 -222 0
-111 455 0
-967 0
-389 0
-911 0
83 -829 0
505 -485 0
-398 0
-356 0
443 -124 0
-233 0
384 -156 0
-714 0
-120 0
-64 999 0
-728 338 0
-152 0
-284 0
-336 -466 0
-292 268 0
-435 0
-336 534 0
-753 0
-704 -623 0
-851 351 0
218 -597 0
-351 0
1 -979 0
-888 910 0
612 -961 0
-471 827 0
-183 0
411 -43 0
-798 0
-776 854 0
-144 0
-895 -529 0
-601 0
-700 95 0
-44 0
466 -365 0
-463 -75 0
-235 0
-911 795 0
-261 0
-48 771 0
41 -954 0
-444 0
489 -140 0
-890 151 0
-194 -65 0
-549 317 0
-385 0
-884 861 0
-567 574 0
-899 0
-266 0
-180 0
-526 0
-301 443 0
-152 319 0
-480 -415 0
-898 0
-411 765 0
32 -909 0
-637 0
-879 0
27 -428 0
-645 725 0
-250 0
-865 895 0
908 -724 0
-622 -374 0
856 -884 0
-615 -477 0
-246 -195 0
-267 0
-627 0
182 -610 0
-688 0
-360 89 0
-215 0
-431 -747 0
-638 226 0
195 -476 0
-887 566 0
600 -397 0
-976 0
-461 0
-826 -570 0
-178 0
-468 -330 0
392 -755 0
305 -618 0
-244 0
-727 0
-466 0
-376 682 0
-826 0
-465 0
-235 0
-542 -282 0
-264 0
-159 0
-264 0
-582 -678 0
-110 0
-965 -25 0
359 -777 0
-15 666 0
-152 0
-643 135 0
-645 519 0
-573 439 0
459 -564 0
-545 0
769 -926 0
-22 -990 0
571 -113 0
-227 0
-780 182 0
-102 -73 0
-113 0
101 -425 0
-387 0
617 -993 0
-96 0
485 -729 0
-25 0
-150 -276 0
-765 0
453 -514 0
-510 0
-997 0
-245 0
-38 -323 0
-898 0
978 -161 0
-287 -551 0
-720 523 0
168 -224 0
-954 0
-728 -257 0
-352 228 0
171 -665 0
-164 0
186 -693 0
-8 -580 0
713 -521 0
-387 -689 0
-453 0
-432 0
-272 -482 0
-57 0
547 -261 0
-527 -589 0
-279 883 0
-525 0
881 -561 0
771 -596 0
-965 0
-286 -605 0
-732 0
754 -388 0
-468 0
234 -555 0
-381 0
25 -267 0
-190 0
-904 0
86 -569 0
-596 471 0
-321 -913 0
-740 -443 0
-959 0
-171 0
-581 0
541 -722 0
-21 0
-401 0
-944 -932 0
-520 953 0
-480 0
-879 0
-517 431 0
-219 0
-875 0
-894 0
849 -399 0
-676 7 0
-254 -837 0
826 -205 0
-684 -867 0
-532 445 0
-871 -837 0
-376 -185 0
49 -500 0
-630 0
-31 0
-535 0
-27 -537 0
-329 0
-175 -699 0
-336 95 0
-875 0
725 -579 0
-865 0
-127 559 0
-939 -49 0
-191 397 0
-364 -737 0
-648 -969 0
960 -235 0
-846 -242 0
-797 -156 0
-597 901 0
811 -697 0
-11 0
-580 0
-69 0
-638 0
-110 141 0
-918 0
-327 610 0
462 -753 0
940 -610 0
-322 0
830 -337 0
-301 0
-152 627 0
-712 773 0
491 -611 0
-253 670 0
179 -586 0
-246 0
-402 0
-206 0
584 -495 0
81 -367 0
-164 0
-755 69 0
-963 0
-512 0
-829 -649 0
-880 678 0
-646 0
-394 0
-196 0
-448 637 0
894 -282 0
554 -500 0
-141 -66 0
179 -347 0
49 -358 0
-765 0
-748 0
29 -242 0
-691 0
-909 0
416 -986 0
-506 0
-306 0
973 -401 0
-792 -750 0
793 -382 0
-848 191 0
827 -843 0
-901 0
34 -60 0
-829 0
-699 0
546 -738 0
-853 0
-224 -160 0
690 -817 0
891 -618 0
-208 -30 0
-335 246 0
-91 0
520 -930 0
-871 0
772 -913 0
-42 0
-380 0
238 -977 0
-122 782 0
-94 0
-277 0
-29 0
-202 0
-895 -611 0
-835 0
-837 0
-425 0
832 -590 0
-574 564 0
-109 463 0
274 -91 0
-855 961 0
-682 190 0
-313 0
-132 45 0
-167 0
-5 0
-727 -45 0
129 -689 0
-191 -244 0
33 -719 0
-31 372 0
-683 -642 0
-755 886 0
-763 629 0
-74 0
810 -385 0
-942 511 0
-637 -106 0
-78 0
444 -363 0
-653 411 0
-811 -10 0
-444 -4 0
-586 0
-213 0
-354 0
-349 556 0
624 -808 0
-918 -353 0
-968 -747 0
-520 -368 0
-488 428 0
681 -797 0
-618 -41 0
-767 -101 0
-70 76 0
-788 0
-229 221 0
-227 429 0
-711 -14 0
-42 0
-615 0
-862 0
-549 0
-32 0
-274 0
-363 -810 0
-64 560 0
360 -666 0
-351 -849 0
-997 0
-563 0
-465 0
-532 0
-597 0
-998 -299 0
290 -778 0
-741 -275 0
-576 -881 0
-759 -842 0
445 -41 0
578 -131 0
-463 0
-254 0
553 -693 0
-474 718 0
884 -921 0
-530 591 0
105 -371 0
165 -961 0
595 -26 0
309 -371 0
-652 0
-311 0
-507 0
-34 0
-802 0
-418 0
-921 0
-831 397 0
281 -524 0
-348 0
-424 770 0
-934 0
-509 0
625 -578 0
625 -365 0
-663 -753 0
-581 0
-502 -171 0
-751 0
-760 -666 0
-414 650 0
-24 -192 0
249 -37 0
-65 0
563 -3 0
-787 0
-116 44 0
-459 0
340 -898 0
628 -74 0
797 -699 0
425 -286 0
-59 -105 0
-6 0
939 -323 0
-991 -29 0
-300 0
-603 0
-191 -285 0
-486 477 0
-807 0
-680 729 0
-70 -837 0
-719 0
-560 227 0
289 -747 0
-391 -466 0
-490 0
-293 0
-259 662 0
-795 0
-760 0
-855 -393 0
-403 783 0
-480 910 0
-838 0
-613 0
-450 0
250 -518 0
-489 791 0
-674 0
-851 0
-23 330 0
-715 -699 0
-262 644 0
-211 0
941 -441 0
-22 -453 0
-747 0
-964 918 0
564 -442 0
-166 -381 0
-600 -721 0
-687 -2 0
-742 0
-894 -619 0
500 -481 0
-890 0
-411 0
-891 0
676 -338 0
-885 0
-26 0
-161 0
602 -981 0
-125 452 0
-440 -460 0
-74 0
-952 438 0
-896 0
-651 0
-346 0
-424 -290 0
-637 92 0
-179 0
-512 227 0
148 -123 0
-232 0
-588 0
-629 0
-685 0
178 -763 0
-712 220 0
-376 0
-392 412 0
-217 -105 0
-917 -484 0
-497 0
-437 460 0
-354 0
-577 0
-391 556 0
-327 0
-418 903 0
-813 0
-179 0
-342 0
-911 182 0
-349 0
-764 -705 0
-40 0
-549 0
-749 -125 0
-131 0
-559 660 0
-319 0
-343 -659 0
-935 0
-252 567 0
-511 0
-760 0
-125 0
-88 -565 0
-106 0
-705 -65 0
-5 0
-708 0
-243 -266 0
-997 -994 0
680 -946 0
-294 -86 0
-864 394 0
688 -169 0
-103 0
-733 0
102 -273 0
-572 -577 0
67 -780 0
-546 0
-16 0
-542 30 0
-329 0
-397 0
-427 0
-471 0
-310 0
-968 761 0
173 -729 0
-215 434 0
-420 189 0
-720 567 0
-696 199 0
-552 550 0
-434 582 0
825 -250 0
-379 270 0
-522 0
-592 0
531 -125 0
-957 0
-480 0
-307 -257 0
-524 -833 0
-144 0
284 -634 0
-199 -921 0
-331 0
-173 0
-368 0
-327 -861 0
-431 -883 0
114 -363 0
-96 -330 0
-188 -650 0
-552 0
-853 -788 0
499 -770 0
-915 -82 0
-539 967 0
-46 -164 0
-575 90 0
-612 0
174 -785 0
-686 0
-213 667 0
619 -803 0
-102 471 0
-327 604 0
875 -932 0
757 -201 0
-315 0
-281 0
721 -876 0
-830 0
-688 0
909 -930 0
-45 724 0
-858 0
32 -451 0
-306 0
-740 -970 0
-974 -469 0
994 -725 0
-614 -742 0
507 -811 0
-927 898 0
441 -890 0
-191 0
-151 -587 0
802 -724 0
-424 645 0
-349 -524 0
-179 493 0
1000 -170 0
-579 0
-456 0
-583 0
-998 -837 0
-973 -596 0
-682 0
-445 156 0
593 -397 0
-995 -403 0
-472 0
-775 -780 0
272 -823 0
-332 749 0
-607 43 0
-964 382 0
-229 -580 0
-32 0
-832 0
-38 0
676 -699 0
130 -468 0
-234 -490 0
-927 0
66 -825 0
-750 0
-967 652 0
-573 0
-391 -714 0
-842 911 0
-756 0
-736 6 0
-302 -356 0
-992 0
-327 820 0
536 -573 0
-839 495 0
147 -993 0
-960 0
-844 0
-494 0
716 -969 0
-870 838 0
-40 670 0
-356 -426 0
-348 973 0
-1 0
-279 0
-239 671 0
-40 233 0
-240 0
-420 0
-456 -618 0
-102 -818 0
42 -516 0
-186 0
-879 -42 0
-883 0
576 -187 0
-315 -121 0
-474 0
-661 885 0
-693 -491 0
-69 0
-783 -882 0
-688 -64 0
-342 0
-408 679 0
-352 0
-626 0
268 -236 0
-237 61 0
-207 -126 0
-923 0
-725 0
513 -658 0
-251 0
-621 0
-442 0
-149 0
-800 96 0
-252 0
-176 919 0
482 -380 0
-382 0
-175 0
-300 0
178 -556 0
746 -635 0
130 -817 0
-834 0
-599 0
-981 -644 0
-595 0
-604 116 0
-957 -139 0
-589 862 0
-951 0
-724 0
-724 0
-424 0
977 -412 0
-536 -913 0
-947 -770 0
856 -995 0
-807 0
-8 623 0
-98 0
-278 0
-207 0
299 -825 0
-542 -433 0
-447 106 0
-577 0
-512 0
-900 820 0
-246 -53 0
-590 0
-662 910 0
-863 52 0
-108 0
-513 0
475 -417 0
-39 -663 0
146 -387 0
-199 258 0
-404 191 0
-686 -122 0
-368 -223 0
-416 0
512 -804 0
-133 348 0
578 -162 0
-771 0
-449 0
-727 0
-156 0
91 -845 0
-570 0
-605 60 0
-687 -794 0
-425 0
-891 0
-15 -399 0
-655 843 0
-149 -371 0
-355 -377 0
-525 -797 0
760 -995 0
827 -685 0
-391 0
-319 156 0
-796 0
-777 0
-844 -987 0
707 -628 0
-416 -560 0
704 -163 0
-223 946 0
488 -554 0
-310 -842 0
-552 -781 0
-458 0
-119 0
-130 0
-72 629 0
-285 -994 0
-310 710 0
-884 0
380 -881 0
-460 0
-905 0
-372 500 0
-627 -346 0
-342 -803 0
767 -745 0
-184 0
-64 745 0
187 -548 0
-892 -260 0
636 -444 0
-663 0
-158 -293 0
-886 127 0
578 -844 0
-379 0
-943 -262 0
-926 0
-81 0
-181 0
649 -434 0
-175 0
298 -740 0
-867 -521 0
-890 823 0
-726 0
-5 -156 0
-774 0
-902 0
64 -173 0
-44 453 0
-588 0
-724 0
-295 -243 0
225 -540 0
-185 0
-212 566 0
-326 0
-177 0
980 -122 0
-21 0
-115 0
609 -498 0
-728 0
-145 0
-474 -497 0
-434 0
-807 0
-208 -250 0
-55 -364 0
-36 0
-841 0
-915 0
-638 508 0
-112 880 0
-208 -126 0
-440 0
-112 572 0
-618 0
-967 -562 0
-774 -230 0
-295 -103 0
-223 -109 0
-693 0
-664 -221 0
-631 7 0
-841 151 0
-398 0
779 -973 0
-368 0
952 -258 0
-506 0
-771 -226 0
-325 839 0
-512 772 0
-155 293 0
-143 0
-948 -386 0
-7 -386 0
-753 0
-272 711 0
-48 334 0
-603 38 0
-399 0
-821 0
-910 0
-400 -783 0
-687 0
-79 117 0
620 -609 0
-317 0
-144 -998 0
-614 0
-415 0
-400 0
-474 0
-563 886 0
-733 0
-127 -260 0
-861 0
848 -673 0
113 -781 0
-124 85 0
-922 0
314 -657 0
312 -47 0
-95 0
-584 684 0
-415 0
-385 -233 0
-839 87 0
458 -516 0
810 -169 0
-136 0
-804 791 0
-714 0
-309 -618 0
-558 -917 0
-642 0
-406 939 0
764 -465 0
397 -42 0
568 -969 0
-310 0
-919 0
-488 0
-136 40 0
-776 435 0
-443 -178 0
554 -917 0
-775 -670 0
-205 782 0
-480 0
-840 989 0
-886 53 0
-355 0
-109 0
-415 -898 0
-438 -140 0
40 -356 0
-729 0
-434 0
-869 -146 0
-155 -883 0
-888 0
-535 0
-165 0
-162 0
-247 0
320 -915 0
-69 -691 0
-261 0
-643 789 0
-633 0
-353 0
-417 0
-255 0
378 -857 0
-440 93 0
-107 -74 0
-184 0
-940 -42 0
-125 0
-806 -625 0
-140 0
-858 0
-888 -155 0
-365 0
-240 691 0
995 -538 0
-535 -851 0
402 -124 0
-77 0
865 -570 0
-364 0
304 -329 0
452 -355 0
641 -305 0
-427 398 0
320 -66 0
-749 0
-765 -613 0
-367 -81 0
-376 0
-62 0
-56 -178 0
-311 180 0
-698 479 0
-633 0
-62 0
-216 -495 0
-411 0
-462 0
799 -441 0
478 -625 0
278 -145 0
-451 -690 0
-456 -413 0
-910 -337 0
-952 -254 0
-962 0
-821 931 0
-639 0
-568 -941 0
121 -153 0
-415 657 0
-90 -962 0
-358 -220 0
-974 -949 0
-575 0
-561 0
-249 0
-367 0
-431 -818 0
-415 -726 0
-656 -135 0
-293 0
-483 863 0
-447 -826 0
-984 0
-620 -348 0
-475 310 0
-189 52 0
760 -647 0
-807 0
-427 0
-877 -161 0
-97 0
-840 -447 0
-790 -450 0
-689 0
387 -36 0
-828 0
-801 0
-943 -357 0
626 -74 0
-839 0
-621 0
-912 0
-988 0
-531 0
-991 0
-487 0
568 -280 0
137 -270 0
497 -485 0
-999 895 0
-591 -857 0
-721 0
560 -112 0
-48 -287 0
-94 130 0
-879 0
-631 0
-688 0
-49 0
-884 0
-413 0
-20 0
104 -401 0
-90 0
596 -233 0
-36 -387 0
-818 0
-894 716 0
-422 0
-33 0
-404 -34 0
-65 0
-119 0
752 -807 0
-214 182 0
-351 0
-268 615 0
209 -501 0
-539 0
-522 -9 0
-522 0
-675 0
753 -3 0
-392 0
-541 301 0
-488 -51 0
-709 0
115 -707 0
-783 532 0
200 -202 0
-826 0
-29 158 0
-425 0
646 -57 0
-669 -794 0
811 -697 0
90 -545 0
-67 0
729 -4 0
-524 -531 0
-772 463 0
-133 0
171 -594 0
-171 -851 0
-425 0
-419 0
252 -905 0
923 -300 0
-527 -549 0
744 -761 0
-928 -753 0
594 -220 0
-631 -193 0
-8 30 0
-900 444 0
-570 0
-342 495 0
-141 0
-88 0
-204 22 0
-570 0
-423 987 0
-30 0
-184 532 0
-478 942 0
-728 693 0
-151 0
-702 0
-25 -169 0
-413 878 0
-590 258 0
165 -337 0
-968 0
-770 0
-302 655 0
-699 -410 0
-150 -779 0
-360 0
-176 -267 0
-534 -413 0
-794 0
-565 -325 0
-887 -561 0
73 -942 0
-229 175 0
-976 0
-737 0
403 -98 0
-947 183 0
-461 606 0
-623 0
-981 0
-460 151 0
-703 964 0
993 -35 0
-857 0
689 -454 0
540 -282 0
491 -890 0
-116 -34 0
101 -1 0
-808 0
-695 -409 0
-419 0
169 -546 0
-85 -596 0
-279 355 0
-556 0
-285 0
-7 0
-808 -28 0
-832 55 0
-151 0
-208 74 0
-496 -754 0
-267 0
-952 0
-565 0
507 -321 0
-72 0
-476 0
-597 0
-922 0
-308 0
128 -367 0
249 -811 0
480 -468 0
-77 148 0
474 -780 0
-229 0
-256 -939 0
-598 0
-301 -145 0
-520 -967 0
-710 765 0
-785 0
571 -692 0
-932 -996 0
-912 203 0
-29 -131 0
109 -618 0
-624 970 0
-144 308 0
108 -156 0
-433 0
-484 0
-378 0
-470 0
-810 0
-603 0
-143 0
-747 -369 0
-359 -4 0
-661 188 0
-814 94 0
-808 0
-802 0
-663 0
-855 805 0
470 -729 0
-826 0
-310 -492 0
-190 -858 0
-984 0
-375 663 0
-239 846 0
10 -134 0
-80 915 0
-828 678 0
-291 0
-47 -554 0
-393 0
113 -571 0
-620 501 0
62 -281 0
77 -786 0
-523 0
-270 595 0
-710 756 0
-988 -244 0
-237 0
-237 0
-253 0
-163 0
-132 0
-486 543 0
-119 0
-743 964 0
-176 -916 0
-384 527 0
85 -617 0
-756 0
-581 -41 0
-388 0
365 -315 0
857 -457 0
-181 -425 0
-760 0
24 -209 0
456 -148 0
-926 900 0
-404 0
-359 589 0
588 -594 0
-277 0
-997 0
-148 0
-225 0
404 -155 0
-532 -738 0
-440 -159 0
-287 655 0
-333 0
-237 926 0
-323 0
689 -533 0
353 -587 0
544 -436 0
-823 0
-293 973 0
-774 851 0
969 -977 0
-952 -755 0
-733 -673 0
-279 -802 0
-23 0
-198 0
786 -790 0
-812 0
-580 63 0
244 -289 0
-219 -883 0
-198 -868 0
784 -567 0
-476 -9 0
913 -786 0
256 -964 0
-789 614 0
179 -260 0
-72 0
861 -417 0
-944 -180 0
705 -868 0
-872 -501 0
-839 742 0
-170 782 0
-975 0
-83 0
-322 0
433 -730 0
-240 591 0
-660 445 0
-260 0
-476 0
432 -564 0
-282 0
-288 0
-457 0
-32 0
595 -730 0
-800 569 0
-220 0
-868 581 0
-637 0
-799 525 0
-104 -559 0
-655 0
-807 611 0
-790 670 0
-438 0
-133 0
-661 828 0
208 -264 0
-915 -370 0
282 -691 0
35 -617 0
-140 391 0
-800 0
-468 -289 0
-398 484 0
-88 561 0
-300 0
-801 0
-324 0
-92 383 0
-829 606 0
-745 0
-407 -236 0
-208 -244 0
-946 0
-873 0
-666 0
-301 925 0
393 -346 0
-208 -97 0
-527 186 0
-31 0
-573 -98 0
-722 526 0
-694 -195 0
-165 -627 0
948 -354 0
-46 11 0
-862 220 0
-159 -665 0
368 -964 0
-659 695 0
-638 -730 0
-495 0
922 -577 0
725 -794 0
-765 190 0
899 -258 0
-264 967 0
-268 0
-957 0
-560 0
-623 39 0
-134 0
-312 147 0
-167 -523 0
-949 -593 0
134 -9 0
-80 0
139 -276 0
-966 246 0
-125 0
274 -196 0
956 -530 0
-252 0
155 -889 0
-283 0
-188 862 0
-224 653 0
-879 0
-138 0
-29 964 0
-793 0
-70 0
-725 0
-658 -825 0
-838 814 0
-273 0
978 -233 0
852 -17 0
-64 0
-633 0
-72 0
-32 0
841 -835 0
-676 0
-582 366 0
-762 0
-233 0
-414 -244 0
-888 79 0
-351 -906 0
-978 0
-955 0
-541 -137 0
536 -180 0
-987 0
585 -865 0
785 -118 0
-555 -450 0
-678 0
216 -591 0
-411 0
-825 0
-620 975 0
-807 0
-733 0
581 -242 0
-931 942 0
-328 0
-832 0
-840 869 0
296 -298 0
417 -714 0
-759 0
802 -153 0
-518 -413 0
-56 0
-102 0
-511 -273 0
-371 0
-717 0
-205 0
-974 -645 0
-767 0
-537 0
-715 0
-897 0
-699 246 0
-184 -520 0
-811 0
-621 -955 0
-304 -722 0
-897 0
-791 43 0
-215 -562 0
-811 901 0
244 -201 0
-766 0
-261 0
-812 -298 0
-471 27 0
-567 0
-513 0
-821 0
-248 0
-421 100 0
-72 0
-22 431 0
-402 0
-780 0
-280 966 0
798 -249 0
-545 0
-596 -378 0
-203 878 0
-27 615 0
-494 0
-507 71 0
-943 0
-127 117 0
-935 698 0
-860 22 0
-219 -793 0
-483 335 0
-48 655 0
-907 0
-599 0
-365 0
-784 534 0
-431 0
280 -778 0
-75 0
408 -870 0
-71 0
-96 -812 0
-312 532 0
-527 0
-170 0
-912 0
-45 0
-850 -89 0
-838 589 0
-842 0
992 -47 0
-656 -963 0
-645 854 0
634 -346 0
-556 0
-611 895 0
387 -788 0
-14 0
-175 0
-437 0
-787 0
-120 0
266 -733 0
426 -258 0
-238 519 0
-943 -689 0
-245 -849 0
-140 -258 0
491 -723 0
-631 618 0
-901 421 0
-448 -774 0
-953 -385 0
-850 0
-433 0
-501 989 0
-868 -18 0
99 -138 0
-118 287 0
-352 908 0
-143 -289 0
428 -284 0
-894 -402 0
-681 0
-583 -610 0
-143 599 0
394 -130 0
-152 0
-678 846 0
-920 -874 0
-349 325 0
-283 0
-598 0
835 -418 0
521 -940 0
-351 0
776 -232 0
-570 0
-287 999 0
-737 0
687 -913 0
-584 0
485 -185 0
321 -748 0
-644 -938 0
-872 0
-653 0
-524 0
59 -925 0
784 -915 0
-511 -222 0
124 -65 0
-394 -17 0
-228 805 0
-187 0
-436 0
-544 -511 0
-305 -209 0
-104 0
-127 998 0
-430 0
-187 -506 0
-901 629 0
-287 -425 0
-791 -619 0
-188 0
737 -348 0
-342 0
-78 380 0
-412 582 0
-776 183 0
-671 0
-606 0
-988 0
-678 795 0
-192 -542 0
-743 -146 0
-917 0
-253 301 0
-296 781 0
-963 0
-662 -617 0
-336 0
-511 135 0
-367 0
-693 -377 0
868 -740 0
-876 0
-165 -995 0
-249 0
-541 -123 0
-446 0
208 -223 0
-820 0
-483 0
-810 983 0
-955 0
289 -802 0
-979 0
688 -754 0
-396 -258 0
-956 0
-324 0
-914 0
17 -476 0
75 -834 0
664 -501 0
-995 0
-679 -249 0
-219 0
-181 -484 0
-56 226 0
-520 0
-801 0
-951 0
-12 -227 0
-302 0
-548 655 0
874 -100 0
-800 583 0
-9 0
-969 263 0
-965 0
-662 772 0
-685 846 0
-287 0
-103 -761 0
179 -234 0
-738 0
-686 980 0
-431 0
6 -25 0
856 -515 0
162 -706 0
-181 0
116 -522 0
-932 0
-311 0
-804 0
-864 -657 0
-502 0
-744 -170 0
576 -342 0
-503 397 0
1 -981 0
-590 739 0
-238 -89 0
-490 0
41 -278 0
768 -27 0
242 -853 0
-691 0
-983 0
-920 0
-126 518 0
-224 130 0
-557 0
-979 645 0
-954 326 0
-733 0
-726 602 0
-713 0
-579 0
-876 326 0
-654 0
860 -881 0
-438 0
-237 0
995 -785 0
501 -777 0
-465 0
-755 0
-298 0
801 -775 0
-689 0
-639 -982 0
-144 0
-942 406 0
-718 0
-829 0
-263 -541 0
-278 0
-194 0
545 -228 0
-112 -338 0
-167 278 0
-293 0
-306 0
490 -803 0
450 -854 0
-82 0
488 -946 0
-720 -91 0
-575 77 0
-944 0
-447 -287 0
-33 0
-803 0
-686 811 0
890 -418 0
-341 -930 0
797 -794 0
-291 0
-957 71 0
-124 764 0
-768 26 0
539 -490 0
-543 0
485 -363 0
-244 -162 0
-104 -167 0
-704 0
-235 0
-414 -276 0
-120 0
-237 -298 0
-832 0
-214 -797 0
633 -916 0
-203 0
-636 0
-1 0
844 -825 0
833 -874 0
-648 974 0
-598 -907 0
-363 0
-656 -690 0
-396 0
82 -690 0
-142 -844 0
-207 659 0
10 -409 0
-424 0
267 -714 0
-202 0
-670 0
-886 -139 0
-449 0
-576 43 0
57 -963 0
-47 290 0
-512 -978 0
-38 630 0
-349 375 0
-504 0
-232 415 0
994 -797 0
-981 0
-528 -520 0
-811 0
-943 0
-487 -903 0
468 -444 0
-640 91 0
-392 0
-570 0
-532 0
-96 -370 0
-752 -163 0
-615 -205 0
-679 533 0
-438 756 0
-769 0
-322 0
-912 0
-551 0
104 -780 0
250 -190 0
-818 0
-605 0
222 -610 0
-827 295 0
-195 399 0
-269 0
-415 324 0
-563 0
-959 -157 0
-591 0
-678 341 0
-216 342 0
-519 0
-583 -645 0
937 -35 0
401 -497 0
-967 -659 0
-655 -578 0
-391 0
-21 0
-592 547 0
-992 -921 0
363 -533 0
-133 0
-596 0
-11 622 0
-848 -849 0
-734 -868 0
-942 -625 0
-815 -487 0
491 -476 0
-173 -259 0
-108 0
1 -314 0
-968 325 0
-437 28 0
-967 729 0
-977 0
-614 522 0
-80 -553 0
-475 0
-960 0
-176 291 0
-624 0
-306 -609 0
420 -601 0
-816 156 0
280 -564 0
636 -617 0
482 -161 0
-836 0
-909 820 0
-174 0
-469 0
-608 175 0
-248 0
-729 0
232 -558 0
-534 43 0
-807 0
232 -187 0
-405 340 0
477 -658 0
-364 0
-140 -420 0
-604 -698 0
-439 0
-151 730 0
-981 0
-439 0
-327 -569 0
-463 0
-620 748 0
-631 0
-153 0
-633 0
-53 0
66 -779 0
-118 0
421 -242 0
-59 117 0
-70 716 0
-436 5 0
-951 0
508 -217 0
-922 0
-567 0
546 -170 0
978 -258 0
10 -91 0
872 -456 0
-716 0
-712 601 0
424 -358 0
883 -674 0
-904 -429 0
-560 0
-887 0
-653 0
-780 829 0
-102 422 0
386 -84 0
377 -287 0
872 -662 0
-750 0
833 -17 0
-439 727 0
-132 0
-887 -338 0
-361 55 0
-659 910 0
-247 -212 0
459 -26 0
-848 703 0
-422 147 0
-131 0
-490 0
-403 0
259 -213 0
980 -699 0
258 -133 0
-979 0
-588 0
-198 -301 0
-787 566 0
-261 0
-5 -266 0
-907 926 0
-422 0
-648 -159 0
-435 374 0
-122 0
-588 0
705 -854 0
-280 -510 0
-255 0
-605 364 0
-611 0
-903 -710 0
-629 0
-280 0
-94 0
282 -441 0
-742 0
-837 0
434 -217 0
-832 -813 0
-579 0
-611 0
-410 0
-505 0
-733 582 0
-483 0
-986 -953 0
994 -285 0
-653 0
-176 0
-552 430 0
-992 821 0
-732 285 0
-422 771 0
-371 0
721 -805 0
641 -674 0
105 -370 0
-612 0
-454 0
-394 639 0
668 -362 0
-27 0
-444 -241 0
779 -765 0
-896 380 0
-375 -462 0
-550 0
-462 0
182 -801 0
-216 564 0
-350 0
-846 414 0
-759 831 0
-374 0
-540 0
-823 316 0
-141 -964 0
859 -459 0
744 -65 0
546 -701 0
468 -476 0
-27 0
-437 -617 0
-529 0
234 -755 0
-771 0
-56 785 0
-70 -182 0
51 -841 0
-418 -129 0
-155 311 0
-467 -386 0
-65 0
-512 -436 0
-678 0
-490 270 0
-214 0
963 -99 0
-993 0
553 -59 0
579 -410 0
-261 715 0
-680 441 0
806 -618 0
-912 0
-140 407 0
674 -531 0
-575 0
-981 0
-615 0
-323 0
-923 0
-725 0
-839 0
-576 0
-654 0
-844 0
-880 578 0
-440 -750 0
258 -891 0
-198 0
-292 0
-23 -438 0
-902 -785 0
761 -394 0
-949 -410 0
-322 887 0
-639 215 0
-549 0
-229 0
-175 -186 0
-555 -723 0
-591 -78 0
-656 747 0
65 -354 0
-525 -729 0
-768 0
945 -269 0
-892 -913 0
-268 -851 0
-95 0
-831 0
813 -1 0
-644 -985 0
817 -306 0
-832 658 0
-281 0
-933 468 0
-828 0
-443 0
-343 0
-400 423 0
-816 -819 0
-63 671 0
-461 -203 0
-771 189 0
-46 -469 0
-712 -324 0
-924 662 0
-852 366 0
-292 -923 0
-160 733 0
-1000 0
472 -925 0
-74 0
-387 0
-715 0
-362 0
-21 0
-245 -323 0
-974 0
-771 0
-266 0
412 -674 0
-328 -625 0
-501 -458 0
-801 0
-558 535 0
-392 -766 0
-336 0
-718 0
-125 -595 0
-835 -889 0
-121 0
-542 0
-892 -387 0
-151 0
-696 855 0
-241 0
-684 375 0
-618 0
-638 0
-455 171 0
-422 -949 0
-233 0
859 -173 0
555 -267 0
-717 -139 0
-883 303 0
-959 -782 0
-790 671 0
480 -787 0
-409 0
-662 -155 0
-181 -275 0
-885 0
388 -545 0
-640 0
968 -346 0
-644 0
-367 -882 0
-277 -682 0
-784 0
-218 -242 0
-729 0
-112 0
-843 0
-47 0
-733 -297 0
-620 127 0
912 -828 0
-878 -685 0
-949 0
-785 0
-429 693 0
617 -570 0
-318 60 0
796 -762 0
-935 842 0
-135 0
-17 0
-237 451 0
-323 0
162 -683 0
-880 996 0
-690 0
979 -417 0
-461 492 0
-980 0
-584 0
-624 0
-904 774 0
-447 -973 0
-312 809 0
487 -393 0
-192 0
869 -561 0
-800 -78 0
-158 0
-439 -780 0
-48 0
-207 0
235 -451 0
889 -108 0
-659 190 0
-779 0
-86 0
-474 0
-965 -869 0
-734 -354 0
194 -97 0
24 -643 0
80 -270 0
-213 471 0
30 -530 0
-661 0
-226 0
-515 0
-556 503 0
-223 0
-612 -292 0
-687 0
-309 0
-538 0
-559 0
-30 -315 0
-798 -702 0
371 -452 0
-954 23 0
824 -52 0
-976 -355 0
220 -379 0
-719 0
-21 0
-149 0
-717 557 0
-130 0
-54 0
526 -129 0
-332 788 0
-219 0
-772 0
705 -633 0
-374 436 0
739 -324 0
-502 0
-245 0
-839 185 0
-87 537 0
-269 247 0
162 -90 0
-299 0
-168 713 0
394 -234 0
-942 -508 0
-404 837 0
800 -165 0
-437 613 0
-792 -782 0
-822 -394 0
368 -644 0
843 -913 0
-77 246 0
-838 -643 0
-270 164 0
-830 -577 0
-392 389 0
-666 0
512 -853 0
-144 420 0
-416 -492 0
-95 0
-283 0
-563 0
-749 935 0
-904 808 0
-664 -82 0
-449 319 0
-468 0
-396 0
-165 -881 0
-808 -525 0
-869 876 0
-810 0
-277 286 0
-499 -355 0
-696 315 0
-534 0
-821 893 0
-874 0
-134 0
708 -268 0
-323 -529 0
-624 -331 0
-365 0
-563 0
-352 275 0
-941 891 0
-596 0
-639 -173 0
-519 0
-492 -386 0
-747 0
658 -636 0
-956 885 0
-830 -308 0
-218 0
-719 -999 0
-510 -926 0
-874 0
-473 0
-89 0
-771 0
-437 -179 0
-121 0
272 -794 0
-593 0
-933 0
-477 783 0
-760 -150 0
-703 953 0
-895 0
-120 0
-22 0
-774 -348 0
-644 0
544 -575 0
-70 0
273 -243 0
-343 0
-685 0
-453 0
-710 0
-502 723 0
144 -219 0
579 -685 0
-724 -739 0
-178 0
-774 -957 0
-710 0
-800 122 0
-330 0
-485 0
-935 438 0
-819 479 0
402 -668 0
-815 -210 0
-680 0
-712 0
409 -756 0
-961 0
-822 0
-100 0
-870 164 0
972 -835 0
-82 0
-586 871 0
-461 0
-77 -521 0
360 -53 0
697 -783 0
-420 671 0
810 -913 0
-648 -43 0
-537 -209 0
344 -68 0
-943 0
-827 0
-439 -881 0
697 -489 0
-637 0
-390 12 0
-483 269 0
936 -845 0
-846 -667 0
-411 -905 0
-60 -739 0
-253 0
-286 0
-159 -411 0
-404 20 0
-24 447 0
-262 -313 0
-389 -265 0
-932 0
671 -705 0
395 -977 0
-840 0
518 -801 0
-121 0
-464 -823 0
-943 0
-361 0
-159 0
-620 0
-451 0
-519 710 0
-309 -419 0
-241 0
-881 0
-359 0
-163 0
-94 0
-267 0
-776 0
-398 855 0
-103 0
-225 0
-858 0
-501 0
-505 0
-910 550 0
-377 0
-811 0
-9 0
-766 0
979 -244 0
-496 639 0
-262 562 0
538 -596 0
-795 0
-35 0
92 -516 0
-737 0
265 -501 0
330 -827 0
-591 -707 0
-635 0
-720 0
-312 433 0
-910 -465 0
-405 -905 0
-640 0
801 -375 0
541 -363 0
-114 0
-389 0
-733 -643 0
-509 0
299 -924 0
-214 0
-992 -242 0
-473 0
-756 0
-727 -34 0
-149 0
-279 -634 0
-204 0
-992 -35 0
-755 519 0
-484 0
-104 0
-491 -385 0
-114 0
457 -890 0
-630 -117 0
-145 0
-592 -663 0
-971 830 0
152 -604 0
-538 0
-337 463 0
-186 0
-63 0
587 -141 0
-88 -177 0
-95 0
-266 0
-711 725 0
-464 0
-895 -562 0
-768 14 0
-299 0
-690 0
-680 700 0
-44 0
620 -370 0
-920 0
843 -963 0
-642 959 0
-741 0
-989 0
864 -779 0
-1000 0
-174 156 0
-584 -649 0
-860 -113 0
-834 823 0
105 -309 0
-408 19 0
-165 -122 0
-783 294 0
872 -618 0
288 -350 0
848 -86 0
-612 207 0
918 -330 0
394 -460 0
-38 -314 0
283 -44 0
-876 780 0
-578 0
330 -137 0
973 -906 0
-846 -845 0
-118 0
235 -316 0
-104 871 0
-446 -748 0
564 -546 0
-112 0
-15 0
635 -643 0
-494 117 0
-373 0
-472 0
592 -847 0
-227 534 0
-206 0
-115 0
-581 573 0
-196 0
-391 659 0
-902 0
-955 0
-490 0
-360 0
-357 0
-120 0
-118 221 0
690 -867 0
234 -132 0
-948 -899 0
-205 318 0
-47 -177 0
-879 780 0
-547 0
-585 0
-124 -444 0
-106 0
-478 742 0
-957 295 0
-662 228 0
-58 0
-140 717 0
-306 -289 0
842 -610 0
-148 -625 0
481 -450 0
-534 -962 0
-636 -154 0
-922 798 0
939 -546 0
-615 955 0
-468 -593 0
-868 252 0
-288 -386 0
857 -393 0
-466 22 0
-720 -302 0
-80 0
-278 -380 0
-903 -524 0
-687 0
-477 -780 0
666 -381 0
-335 595 0
-222 543 0
-28 0
436 -441 0
-397 0
816 -290 0
-478 30 0
-95 -55 0
-880 438 0
148 -249 0
-989 709 0
-141 0
-214 455 0
690 -845 0
-624 0
933 -714 0
64 -815 0
45 -947 0
213 -987 0
-132 -851 0
-921 0
-414 -170 0
-608 -947 0
-950 0
-907 0
-295 -98 0
234 -892 0
-626 0
-850 0
-555 831 0
-302 0
-525 -812 0
-57 0
-827 -521 0
-782 -900 0
-624 -563 0
405 -297 0
-42 142 0
270 -505 0
-173 -57 0
952 -875 0
-196 0
-623 -885 0
-601 0
-402 0
-381 -881 0
-989 0
-135 575 0
-497 -489 0
-14 0
-697 0
-144 762 0
-752 -746 0
-719 0
-40 0
-964 422 0
-650 0
404 -489 0
-4 0
-184 -159 0
-547 0
-771 0
-88 -902 0
-964 0
-944 138 0
-123 14 0
369 -410 0
-305 0
995 -572 0
-828 -489 0
-7 0
-598 -180 0
306 -130 0
-776 547 0
499 -89 0
-836 0
-175 -901 0
-312 354 0
-349 947 0
226 -907 0
-847 762 0
496 -950 0
604 -12 0
-804 0
-485 435 0
-632 0
729 -154 0
-469 92 0
-456 -76 0
201 -409 0
-204 -930 0
-252 47 0
-952 -168 0
-122 0
361 -205 0
-302 0
-687 -79 0
-823 0
-566 -805 0
-659 583 0
-564 0
-708 -690 0
-21 0
-374 0
-751 884 0
899 -684 0
-224 -575 0
-451 950 0
-455 -492 0
-541 581 0
520 -129 0
-599 -986 0
-200 -533 0
-939 0
-429 0
-911 -724 0
-97 -569 0
-981 271 0
-741 -67 0
-880 908 0
-855 0
-669 679 0
730 -517 0
-17 0
241 -694 0
-74 0
-567 868 0
-693 -732 0
-744 -325 0
-105 0
-444 110 0
-263 0
405 -626 0
-301 -683 0
-613 39 0
-510 827 0
-192 -626 0
-423 30 0
808 -834 0
-96 0
-790 0
846 -241 0
180 -921 0
-856 -802 0
-753 0
-925 -794 0
-168 -563 0
-856 0
-566 -570 0
616 -671 0
-136 0
-537 0
-544 298 0
-97 0
-593 0
339 -522 0
124 -122 0
-453 0
-413 567 0
-292 -755 0
-544 0
-772 0
-7 -916 0
337 -615 0
-832 0
-424 -702 0
-64 707 0
-422 -988 0
-347 0
909 -26 0
324 -803 0
-864 0
-412 0
-446 -438 0
857 -15 0
-141 0
-821 766 0
-664 0
-232 834 0
-201 0
368 -663 0
-658 463 0
-514 286 0
-437 827 0
-326 0
-667 0
-294 934 0
-861 0
-316 0
-893 0
448 -317 0
-815 0
-839 789 0
-717 0
-526 0
-456 0
323 -507 0
-651 0
-858 975 0
-244 471 0
590 -41 0
234 -475 0
-558 487 0
195 -492 0
-429 660 0
-756 846 0
-832 883 0
-899 0
-215 179 0
894 -10 0
-961 -873 0
364 -426 0
-406 -997 0
-856 -512 0
-543 -604 0
-735 0
-818 0
-198 0
-819 294 0
-339 0
706 -980 0
92 -594 0
394 -780 0
-983 -148 0
-741 0
-62 -801 0
-137 0
-826 0
-470 0
128 -610 0
-419 0
-107 0
-279 637 0
438 -226 0
-477 -707 0
-508 0
77 -971 0
-163 0
-376 0
-502 260 0
-864 0
-682 0
-85 0
-447 450 0
-21 0
449 -421 0
57 -970 0
-437 -29 0
476 -801 0
-571 0
-677 63 0
-895 0
-423 0
-888 734 0
-246 0
-754 262 0
-164 0
-844 0
-619 0
-111 -364 0
-968 9 0
-883 134 0
-372 -723 0
834 -434 0
-706 0
-12 0
-711 -465 0
972 -249 0
-668 0
-101 335 0
-48 926 0
442 -244 0
-797 0
-371 -577 0
-799 0
-21 0
-428 166 0
-605 0
-989 732 0
-55 534 0
-125 -418 0
384 -35 0
410 -217 0
-162 -145 0
-770 0
-822 0
-401 -417 0
-962 0
455 -9 0
-321 0
-46 -965 0
951 -753 0
-111 -692 0
-860 -148 0
-599 0
-396 -515 0
-348 52 0
-918 0
-283 175 0
-639 43 0
-687 0
472 -217 0
-407 0
704 -598 0
-901 999 0
696 -770 0
-229 -476 0
-639 966 0
-583 0
-723 0
-988 0
501 -361 0
-179 0
-203 0
-579 -762 0
-968 744 0
-906 -890 0
-417 0
-471 366 0
857 -110 0
250 -869 0
-1 0
-899 -537 0
257 -190 0
-231 -41 0
-579 0
-848 0
-602 0
3 -244 0
-356 0
-890 -401 0
-477 677 0
-390 -340 0
-264 279 0
-895 -30 0
-46 0
-198 0
-136 814 0
58 -973 0
-616 662 0
578 -732 0
-2 0
-21 -657 0
-923 -297 0
-44 -361 0
944 -70 0
-470 951 0
541 -833 0
-371 0
169 -396 0
-125 0
103 -457 0
-271 0
-969 0
-253 853 0
-975 -9 0
-24 0
-458 0
-678 -473 0
107 -898 0
-879 0
-184 -494 0
400 -217 0
-301 0
-565 0
-434 614 0
-518 0
-172 0
-879 0
-192 0
297 -850 0
-957 0
337 -291 0
-803 85 0
963 -563 0
-437 0
-650 0
-37 -843 0
-479 441 0
-911 0
-833 0
-405 -834 0
211 -683 0
-167 0
-496 0
904 -999 0
-394 0
-704 104 0
-799 619 0
-759 -180 0
-173 0
-437 -845 0
-704 0
-826 0
-960 0
-732 0
-488 0
-976 -374 0
-934 0
-927 0
-477 0
-671 660 0
-191 315 0
-408 0
-669 0
-63 817 0
-381 227 0
-240 0
-194 0
65 -996 0
-46 0
-539 0
313 -217 0
696 -889 0
-702 0
-985 431 0
-895 -755 0
-576 -488 0
-591 0
-16 8 0
-648 -265 0
939 -923 0
889 -715 0
-734 0
-399 0
-859 0
-495 -301 0
-27 0
-781 0
-167 0
787 -738 0
-485 0
-348 0
-711 -327 0
-61 -643 0
-466 0
-738 0
-455 -403 0
-222 431 0
716 -146 0
424 -450 0
-24 0
-118 855 0
770 -116 0
-326 0
-372 0
-235 -681 0
-260 0
-132 0
-555 0
-462 -676 0
-235 0
-997 -621 0
554 -541 0
-224 0
-572 0
-228 -740 0
-831 0
-439 -839 0
-732 -970 0
148 -113 0
-349 0
-117 606 0
-389 494 0
-696 21 0
-176 -777 0
-412 0
896 -845 0
-32 -829 0
-79 0
62 -233 0
-984 0
-856 210 0
-928 0
-459 0
97 -684 0
-331 0
-303 0
-559 -630 0
-973 28 0
-588 -756 0
-215 0
264 -897 0
-462 482 0
-688 -283 0
-228 207 0
-701 -873 0
-33 23 0
-572 -739 0
-305 0
-270 0
818 -963 0
896 -866 0
-693 0
-591 0
-854 -574 0
-567 -490 0
-267 0
-789 -314 0
-422 0
-710 0
452 -228 0
-898 0
-666 0
-740 -114 0
-290 0
144 -2 0
-798 0
642 -769 0
-718 0
-359 546 0
-512 0
-708 0
-737 0
-467 487 0
-649 0
-119 0
-687 0
405 -217 0
419 -530 0
-924 0
-851 0
-36 0
941 -2 0
-303 -77 0
-782 0
-71 702 0
-387 0
-413 973 0
-616 0
-578 -322 0
989 -522 0
-831 0
694 -457 0
-705 0
-303 540 0
560 -668 0
-180 -873 0
-383 0
-600 -646 0
-192 0
-783 0
-952 0
290 -604 0
-369 0
472 -128 0
830 -641 0
-603 -73 0
-187 -785 0
-64 -716 0
-602 0
-453 0
228 -841 0
-561 0
-186 0
-588 701 0
251 -547 0
777 -565 0
-970 0
-732 0
-375 -74 0
-580 0
170 -866 0
446 -513 0
-324 0
-27 -602 0
16 -467 0
-807 14 0
-887 -283 0
-184 -900 0
-230 -27 0
-716 -850 0
-342 0
889 -147 0
-573 -828 0
-72 0
-458 583 0
-224 -155 0
-233 0
-168 0
292 -90 0
510 -649 0
-269 103 0
-232 -101 0
-252 0
-736 92 0
267 -866 0
-400 0
496 -194 0
-434 -777 0
-832 0
-706 0
-648 -913 0
-14 166 0
-445 463 0
-540 -497 0
799 -417 0
-543 238 0
-835 -481 0
531 -893 0
-588 -2 0
-131 0
90 -533 0
-300 741 0
558 -769 0
-899 -115 0
606 -585 0
600 -148 0
307 -946 0
-660 0
-874 0
-475 0
-940 727 0
848 -391 0
-915 894 0
-319 0
-608 -828 0
331 -546 0
25 -425 0
-482 0
-871 -321 0
-313 0
724 -684 0
890 -517 0
-832 0
-911 -553 0
113 -774 0
628 -177 0
-499 941 0
-610 0
-270 0
-301 0
476 -492 0
459 -362 0
128 -528 0
-249 0
-36 0
-99 0
-182 0
-118 0
-136 0
336 -882 0
-315 0
-539 0
-220 0
-36 0
-19 0
-157 436 0
-182 -418 0
481 -370 0
-796 -699 0
-961 0
-236 -698 0
-656 0
-599 889 0
-144 -428 0
-296 0
-191 0
859 -485 0
-128 642 0
-140 0
560 -281 0
-294 0
-215 0
-296 -164 0
-145 0
-7 173 0
-544 0
-891 654 0
-300 0
-888 -360 0
-85 286 0
-776 0
-952 -371 0
-583 0
-229 0
-313 0
512 -929 0
-200 -64 0
-656 436 0
-975 0
-895 394 0
123 -349 0
-910 -665 0
-38 629 0
514 -482 0
-181 596 0
-864 0
-648 0
-808 316 0
-467 0
-181 0
-786 766 0
-942 0
832 -967 0
-136 0
329 -135 0
-38 0
-518 0
-329 951 0
176 -195 0
-373 -906 0
-534 0
-925 477 0
834 -626 0
-831 867 0
-987 894 0
-13 0
289 -967 0
-58 0
-702 -314 0
-919 -593 0
345 -169 0
-959 694 0
-447 959 0
786 -314 0
-280 763 0
-3 -331 0
-418 -513 0
-712 -243 0
-470 -389 0
-804 -513 0
120 -584 0
-569 0
-905 0
-196 829 0
-808 -783 0
-283 0
577 -739 0
-326 -860 0
-136 0
330 -68 0
-338 0
-484 0
234 -805 0
-500 -516 0
-128 960 0
-584 0
-565 0
-992 0
-528 -828 0
-926 -370 0
-304 0
-296 0
-655 868 0
-892 863 0
-511 867 0
-438 0
801 -270 0
-571 -595 0
-888 -691 0
-321 0
-656 341 0
580 -931 0
-828 70 0
-26 0
-715 46 0
-124 0
-712 0
-169 0
961 -779 0
-88 437 0
-1 0
808 -52 0
-940 773 0
-701 0
-229 270 0
-224 0
-296 73 0
347 -2 0
-415 -657 0
-591 0
-837 467 0
-874 0
-548 0
-852 -155 0
-819 0
-546 886 0
777 -874 0
-607 -868 0
-31 -198 0
200 -752 0
-524 0
584 -399 0
-672 0
-792 -897 0
-739 253 0
-179 983 0
-664 -825 0
-324 -732 0
-287 0
-297 0
-79 0
-920 956 0
368 -147 0
422 -266 0
-538 0
-882 -473 0
81 -602 0
-703 605 0
297 -30 0
506 -249 0
44 -323 0
-289 0
853 -521 0
-56 -377 0
-726 0
-174 -555 0
-212 0
603 -923 0
-439 915 0
937 -542 0
-615 203 0
-812 0
-142 0
131 -12 0
-774 0
-354 0
-644 -475 0
348 -738 0
729 -593 0
961 -811 0
453 -825 0
-746 0
282 -409 0
-981 0
-874 0
-590 -438 0
-404 421 0
-830 0
-863 0
-504 81 0
-196 284 0
-741 0
-589 163 0
160 -385 0
-861 815 0
-931 0
634 -406 0
-211 94 0
-110 932 0
-213 -377 0
-775 0
-892 0
-85 0
396 -945 0
-527 -795 0
-790 0
-116 0
-75 -666 0
708 -577 0
-850 0
-859 46 0
-392 598 0
-480 -918 0
-149 0
-78 -627 0
388 -890 0
-702 -27 0
-976 497 0
-428 447 0
-549 -490 0
-736 0
-16 0
-51 0
691 -796 0
-742 851 0
611 -649 0
-230 0
94 -809 0
184 -83 0
-814 -442 0
-96 -962 0
-704 379 0
117 -289 0
-701 -267 0
208 -781 0
-120 0
-359 -589 0
800 -966 0
856 -316 0
-326 667 0
-430 0
-483 0
-937 0
733 -850 0
-686 291 0
-244 157 0
-811 0
-694 -891 0
-247 761 0
-454 346 0
-573 92 0
-203 0
-838 -965 0
-886 381 0
-591 0
-342 0
418 -914 0
-992 0
-941 0
548 -59 0
-951 -234 0
-325 277 0
-967 919 0
-789 0
-443 0
43 -162 0
-119 -282 0
-526 -796 0
-187 -185 0
-728 769 0
-646 261 0
-829 -689 0
45 -194 0
-774 0
-744 -391 0
-856 0
-203 0
-20 0
-196 821 0
-935 690 0
-552 372 0
-915 741 0
285 -378 0
-733 0
-532 654 0
-358 559 0
344 -270 0
-678 -563 0
243 -836 0
-945 0
611 -113 0
-794 -641 0
-308 0
-693 -113 0
363 -858 0
-149 -476 0
-362 -25 0
922 -107 0
-247 945 0
-680 0
-318 0
608 -876 0
-501 0
-127 434 0
-644 0
-611 726 0
-837 550 0
-138 -81 0
-330 -274 0
-990 0
-997 -98 0
-207 0
-684 0
-372 -474 0
-851 0
-500 0
58 -569 0
-36 0
-600 -555 0
177 -996 0
-179 0
-678 0
-943 0
-490 215 0
-435 0
-336 762 0
-846 291 0
-356 -489 0
-928 93 0
-911 0
-626 0
-77 -441 0
-157 0
-157 -457 0
241 -660 0
-682 0
482 -441 0
-107 0
-903 -985 0
-897 0
-39 0
-470 883 0
-421 991 0
-506 0
-888 -374 0
304 -947 0
-381 750 0
569 -995 0
-240 0
-482 0
713 -814 0
-50 -426 0
-696 812 0
634 -177 0
-797 -187 0
-982 670 0
-185 0
-263 399 0
-557 796 0
-148 -67 0
-527 0
-704 543 0
-110 0
-536 0
-136 827 0
-726 675 0
249 -271 0
-406 0
-433 0
745 -665 0
-385 0
-962 0
-820 55 0
-94 -388 0
32 -285 0
-80 -423 0
180 -619 0
-593 0
-196 0
-432 0
-494 0
-69 253 0
-392 0
-359 0
-868 -20 0
-124 0
-51 0
-899 223 0
-788 0
-683 -713 0
-241 119 0
-627 0
-25 0
-962 -945 0
-500 0
-249 0
-852 -938 0
-650 0
-924 140 0
-572 -803 0
322 -458 0
-455 0
-920 0
-592 -230 0
69 -842 0
-512 0
-663 938 0
-550 894 0
322 -474 0
-601 0
-432 -578 0
-984 -679 0
-263 0
-928 0
-494 0
-390 0
-742 917 0
-207 153 0
-72 -389 0
-273 0
-807 0
-765 0
-560 -764 0
-965 -881 0
-556 0
-34 0
-916 0
-864 -642 0
-456 -527 0
-953 0
-187 0
-583 -547 0
504 -951 0
-575 0
858 -990 0
-1000 254 0
611 -201 0
-430 994 0
537 -204 0
-167 0
-679 -643 0
-572 -12 0
516 -475 0
-405 0
129 -758 0
180 -515 0
-504 0
-560 195 0
592 -733 0
-592 0
748 -835 0
-606 0
-691 0
-541 -747 0
301 -177 0
454 -610 0
-882 238 0
-431 -404 0
-123 0
-60 998 0
-455 0
-956 -370 0
377 -172 0
652 -51 0
301 -889 0
-732 647 0
-450 0
-695 0
-125 149 0
826 -850 0
-989 0
-86 531 0
-538 0
489 -164 0
-187 0
-364 365 0
-989 -74 0
-729 0
451 -633 0
-240 685 0
5 -11 0
248 -145 0
530 -507 0
-269 0
-838 935 0
-269 0
-4 302 0
-116 0
-158 -242 0
-768 163 0
-32 -67 0
-706 0
-139 0
836 -4 0
-109 0
-668 359 0
-850 0
-16 0
490 -858 0
-193 0
218 -214 0
-254 -921 0
-251 0
42 -539 0
-255 902 0
-485 206 0
-592 181 0
-344 0
140 -907 0
-67 0
-435 0
-54 435 0
-610 0
785 -987 0
696 -645 0
-320 569 0
-138 0
-879 156 0
-605 0
745 -353 0
-118 -705 0
-855 0
-958 -813 0
-38 0
-296 0
-392 0
-639 -17 0
-381 943 0
-394 0
-615 0
-893 0
-53 0
-381 767 0
803 -217 0
473 -142 0
304 -604 0
-427 0
-677 -273 0
-552 533 0
-101 0
-595 0
-796 0
-397 0
-98 0
-403 0
-52 0
-504 -884 0
640 -180 0
256 -250 0
633 -883 0
-702 0
-638 0
-208 862 0
-429 -906 0
-395 0
-913 0
-136 0
-313 0
-866 414 0
-688 0
-155 -794 0
-176 -472 0
763 -387 0
-950 53 0
-879 647 0
125 -417 0
-257 0
-804 -35 0
-823 0
392 -300 0
-983 307 0
-782 428 0
-765 0
-680 -505 0
-325 0
-332 0
-636 0
-800 451 0
-255 -594 0
-403 791 0
-614 0
-976 -749 0
-681 0
-816 0
-488 -86 0
-409 0
-93 0
-406 0
-393 0
-566 -466 0
-938 0
-489 0
-919 -347 0
739 -533 0
-713 0
-527 0
-825 0
-783 708 0
-730 0
-749 0
442 -290 0
-434 0
-951 0
-660 0
178 -134 0
-901 0
-72 157 0
-906 0
-481 -617 0
-60 -505 0
-32 -303 0
-541 0
-539 406 0
-159 -89 0
113 -305 0
-332 -697 0
-684 -611 0
896 -363 0
-141 0
48 -286 0
512 -811 0
297 -553 0
-622 -172 0
-567 810 0
-279 140 0
-98 0
-184 -68 0
218 -553 0
-245 0
796 -475 0
-894 -675 0
-780 0
-949 987 0
408 -463 0
496 -386 0
-5 0
-510 -162 0
-927 0
-56 -121 0
-917 0
200 -306 0
-445 0
-218 0
850 -276 0
-120 -137 0
-152 0
-773 0
-764 0
-152 0
-912 0
-792 958 0
-719 563 0
-799 -538 0
-96 0
616 -561 0
453 -177 0
-987 0
-278 165 0
-360 0
769 -876 0
-392 -475 0
-732 111 0
932 -428 0
-423 -537 0
229 -201 0
-999 468 0
-572 0
-148 -226 0
-397 0
729 -47 0
-472 0
-16 397 0
-334 238 0
-701 -426 0
-716 -346 0
-243 6 0
-443 0
-536 0
764 -338 0
-22 0
505 -940 0
92 -825 0
872 -598 0
-86 743 0
-77 0
-747 0
-829 853 0
57 -235 0
805 -578 0
-974 645 0
-469 -875 0
-219 0
-83 895 0
-782 -994 0
-621 0
-123 -33 0
-20 0
-436 0
-472 0
50 -139 0
-776 -359 0
-103 0
-408 0
-400 171 0
520 -737 0
181 -498 0
-279 371 0
-727 -340 0
316 -145 0
-718 -545 0
-655 909 0
-933 -460 0
-121 959 0
817 -665 0
-296 0
-567 965 0
-850 446 0
-788 0
-444 -105 0
-678 0
-600 438 0
-610 0
-296 951 0
224 -346 0
-46 0
-23 0
-312 0
-553 0
-38 0
-712 -792 0
-794 0
424 -947 0
-149 0
-326 0
-537 0
-279 -458 0
331 -796 0
-491 0
-183 0
-513 919 0
-751 -764 0
184 -876 0
-367 716 0
745 -890 0
-357 -571 0
-140 0
-199 0
-573 955 0
658 -700 0
-112 475 0
-466 0
-480 -597 0
-717 0
-344 533 0
-128 861 0
-932 718 0
-802 158 0
-805 -148 0
-999 0
432 -452 0
-47 866 0
-726 -947 0
-358 0
-948 0
-351 0
-648 799 0
-834 0
-555 742 0
-175 194 0
-296 893 0
-901 -707 0
-871 0
587 -353 0
-432 0
-261 0
-262 647 0
-283 0
-752 -29 0
837 -385 0
968 -116 0
-846 0
402 -553 0
-482 0
881 -201 0
465 -803 0
-6 0
-165 670 0
-955 -226 0
-941 -916 0
-420 -570 0
676 -954 0
-977 0
-136 -310 0
321 -179 0
689 -961 0
-572 -163 0
-198 0
-963 0
-456 0
-484 965 0
-518 31 0
368 -479 0
-847 -106 0
-821 -306 0
-215 -44 0
761 -468 0
-422 -268 0
139 -890 0
-836 -865 0
-627 0
-652 0
-788 0
12 -235 0
-253 -129 0
-301 0
-527 0
-567 0
-442 0
-342 0
-639 14 0
-690 0
-296 311 0
-382 0
-528 -794 0
-351 0
-969 0
-526 -949 0
-335 0
-159 0
-761 0
955 -628 0
-861 0
964 -379 0
-636 -850 0
-356 -788 0
-49 0
-519 -22 0
-855 823 0
115 -52 0
-257 0
-16 0
-908 0
-755 0
-119 -302 0
-93 0
-779 213 0
-808 -567 0
-365 0
-407 0
-710 -228 0
414 -401 0
-250 783 0
-661 -11 0
-964 0
-562 655 0
-804 21 0
584 -501 0
352 -428 0
-601 0
898 -161 0
-176 0
-312 -696 0
967 -849 0
-187 0
209 -222 0
-367 0
352 -148 0
-316 0
-820 0
488 -823 0
-888 0
-645 0
-465 0
-813 0
-1000 0
-87 -785 0
-164 -763 0
-220 0
-185 719 0
-736 250 0
-261 0
-240 127 0
-388 0
984 -451 0
794 -758 0
-606 814 0
-208 475 0
-302 0
-876 0
-390 -604 0
377 -163 0
-999 303 0
-702 0
-935 7 0
-250 0
-446 -949 0
-684 0
-663 0
-944 -27 0
-801 0
-862 740 0
852 -305 0
547 -164 0
-282 0
-189 0
275 -917 0
385 -449 0
-394 0
-678 0
-149 427 0
-39 0
969 -115 0
187 -737 0
-653 -625 0
-954 0
800 -655 0
977 -517 0
-343 0
521 -498 0
321 -444 0
743 -17 0
-423 -381 0
312 -431 0
-617 0
-261 295 0
-348 0
-626 0
-16 -987 0
-972 773 0
-928 242 0
-99 366 0
810 -667 0
-583 -828 0
-437 0
818 -485 0
-77 0
562 -28 0
224 -43 0
409 -323 0
-261 766 0
-401 0
-831 0
36 -139 0
-47 0
-718 582 0
585 -617 0
-399 20 0
-621 0
-40 61 0
-821 228 0
-272 -582 0
-404 0
-696 -891 0
-772 0
-5 0
-108 0
796 -195 0
-382 683 0
-713 0
-54 0
-365 0
-256 0
-246 0
-366 0
616 -734 0
-348 686 0
-654 851 0
581 -122 0
-167 0
-196 0
-453 438 0
-889 0
808 -587 0
-766 0
861 -498 0
-219 0
1000 -112 0
401 -751 0
562 -427 0
-869 0
865 -709 0
776 -383 0
-495 185 0
-459 0
-494 695 0
-386 0
-300 0
-263 -580 0
-91 0
-21 0
-553 0
-635 0
-769 0
-981 534 0
-955 0
-127 -762 0
176 -598 0
-928 0
-60 0
-744 0
-133 159 0
-496 0
313 -514 0
264 -250 0
-782 0
-961 0
-251 0
-371 615 0
651 -893 0
-702 933 0
-695 982 0
-232 873 0
-949 439 0
730 -57 0
-884 0
-29 -508 0
502 -817 0
-416 693 0
-980 0
-511 26 0
-762 191 0
-325 0
-536 0
-477 0
-43 0
731 -59 0
916 -697 0
-857 0
-470 0
825 -235 0
-274 0
-359 994 0
-603 0
975 -881 0
-383 0
-607 0
-737 0
-702 0
-47 -348 0
945 -589 0
-118 0
385 -510 0
-239 292 0
752 -911 0
-730 0
-616 254 0
-128 940 0
-396 462 0
914 -420 0
-905 151 0
-619 0
-359 0
-447 621 0
754 -444 0
-157 -436 0
-733 0
-678 956 0
-102 -491 0
-829 0
-535 0
-182 -146 0
-269 -796 0
-877 791 0
-247 -572 0
-181 -241 0
10 -141 0
472 -306 0
-423 277 0
-305 0
-966 -683 0
-416 548 0
104 -50 0
-728 833 0
-471 0
856 -65 0
-174 42 0
-719 -770 0
-954 0
-489 -361 0
-807 0
96 -625 0
-335 290 0
-224 0
-716 93 0
-488 -222 0
-744 -158 0
-23 -77 0
-537 -649 0
-313 0
-559 716 0
-878 319 0
320 -778 0
-167 -485 0
-964 287 0
514 -707 0
-801 0
-544 247 0
-931 445 0
-215 509 0
-72 0
-439 -651 0
332 -234 0
-43 0
-831 675 0
60 -66 0
-350 -694 0
-182 0
-229 70 0
-551 -524 0
-773 0
346 -716 0
-499 429 0
-870 -765 0
-70 806 0
-784 -25 0
-392 0
-214 0
416 -279 0
-675 0
-616 -511 0
216 -879 0
-476 230 0
-264 -851 0
-801 0
-115 0
508 -713 0
-64 -177 0
-455 -316 0
-752 0
325 -618 0
-259 0
-448 0
-838 -627 0
-551 -685 0
-183 -122 0
706 -470 0
-927 295 0
-216 23 0
868 -882 0
-420 0
718 -66 0
-896 0
-181 591 0
-335 -446 0
-620 479 0
380 -282 0
-77 0
843 -333 0
-277 0
-887 0
-85 0
-256 750 0
-740 0
-224 0
-755 910 0
593 -655 0
971 -100 0
-968 271 0
-59 22 0
-465 0
955 -658 0
-824 0
-729 0
248 -475 0
825 -165 0
-69 0
-830 -682 0
-286 0
-406 0
-720 0
-717 14 0
-314 935 0
364 -722 0
-663 602 0
-784 -611 0
-634 -617 0
-165 -277 0
-276 0
-832 -822 0
29 -714 0
396 -849 0
-941 0
-236 0
800 -914 0
-399 348 0
-129 0
467 -684 0
-484 0
540 -274 0
738 -977 0
-836 0
-947 -593 0
83 -284 0
-525 -100 0
45 -595 0
-905 0
-705 0
-438 -489 0
-815 55 0
-19 -105 0
-615 94 0
-815 -380 0
-537 0
-405 613 0
51 -653 0
-270 323 0
-292 0
-742 -945 0
-755 0
-709 0
-377 0
896 -559 0
-299 0
-584 -679 0
-653 341 0
-115 350 0
-783 380 0
-254 0
-798 439 0
-927 266 0
56 -704 0
-800 0
-925 -601 0
-8 0
-644 0
-253 -818 0
-439 -209 0
-726 0
-725 908 0
-434 0
-494 0
-213 -349 0
-487 0
186 -868 0
-659 823 0
-800 -420 0
-37 0
-36 0
-246 79 0
571 -804 0
-396 -772 0
-746 239 0
-946 -785 0
-710 0
-816 0
-795 0
-510 639 0
-760 307 0
-159 0
-439 509 0
601 -686 0
-786 0
-4 0
-464 372 0
-488 -430 0
-251 0
-816 -176 0
398 -777 0
-453 420 0
-681 319 0
-544 0
-383 0
-504 865 0
-659 0
-911 -562 0
-622 325 0
-710 0
-752 0
-66 0
-59 -850 0
-357 0
-935 444 0
-476 -347 0
-519 -663 0
188 -236 0
757 -97 0
-1000 0
-707 0
-76 0
-826 0
-178 0
-902 275 0
-768 0
-510 -506 0
-826 847 0
-630 -497 0
-316 0
-704 111 0
-691 0
-389 0
-468 756 0
-933 -873 0
-426 167 0
-928 523 0
336 -669 0
32 -833 0
580 -204 0
-403 159 0
-814 0
-928 0
-127 0
-342 0
-111 811 0
-518 -659 0
898 -857 0
-80 0
-852 543 0
-719 -660 0
-175 0
913 -61 0
-269 853 0
-542 0
-620 0
-284 0
-318 0
-266 0
-327 546 0
-547 -298 0
-470 644 0
-29 159 0
-677 -994 0
-967 -614 0
-578 0
-19 0
-470 0
-902 0
-184 601 0
-247 767 0
-805 -195 0
-96 0
-340 0
-516 0
-200 514 0
-336 631 0
-848 669 0
-151 118 0
-582 0
-76 -268 0
-768 -475 0
-704 0
-328 -977 0
-974 -533 0
72 -257 0
-525 -596 0
-232 -283 0
-286 886 0
-907 -737 0
-187 0
-862 -393 0
-914 0
464 -758 0
-356 0
-580 815 0
-153 0
657 -617 0
-98 -833 0
-608 876 0
-167 279 0
-835 0
-864 0
-314 0
-344 0
-767 671 0
265 -948 0
290 -219 0
-526 -508 0
-672 829 0
-940 0
-411 -842 0
-207 797 0
-640 0
-798 -197 0
-788 0
-236 0
-730 0
-245 870 0
146 -514 0
-494 326 0
-27 0
-436 0
-520 0
-838 -357 0
-110 -329 0
-905 0
-951 0
-55 0
-853 -691 0
-58 0
-390 0
66 -366 0
-700 0
-598 223 0
-877 0
-64 -489 0
-820 -737 0
-670 -210 0
-950 0
-851 0
-199 0
-792 -845 0
-636 -483 0
-710 203 0
-264 -1000 0
-429 -908 0
-53 0
-136 113 0
-867 0
-464 -251 0
844 -228 0
-815 -613 0
728 -469 0
-703 499 0
-182 0
-117 711 0
300 -161 0
-199 0
-68 588 0
-903 0
-885 0
-758 0
-94 0
-636 0
-944 0
-578 -345 0
-422 555 0
200 -861 0
-166 828 0
-646 942 0
-776 -329 0
-575 681 0
-15 -237 0
-940 254 0
-790 -461 0
-263 0
-690 0
-295 -377 0
-637 0
-918 -418 0
-840 -662 0
793 -718 0
-431 -637 0
-605 117 0
-12 0
882 -746 0
249 -23 0
284 -283 0
-296 0
-40 0
-79 20 0
-236 0
179 -491 0
-74 0
916 -633 0
-515 0
-437 -211 0
-303 0
56 -59 0
-451 -202 0
-147 0
-771 0
274 -148 0
-672 987 0
-293 -420 0
-1000 0
-187 -458 0
-415 218 0
633 -747 0
-54 318 0
-752 338 0
-487 -701 0
-994 735 0
873 -515 0
-266 0
762 -309 0
-902 0
-524 -780 0
-616 -629 0
297 -561 0
-455 460 0
-141 29 0
785 -603 0
-808 575 0
-442 0
-852 0
-348 0
-588 526 0
-158 877 0
818 -837 0
-472 0
201 -61 0
586 -65 0
173 -658 0
-58 0
-339 0
-208 686 0
24 -230 0
-189 748 0
-193 47 0
-531 0
-324 182 0
-44 0
-730 0
572 -593 0
-634 0
-239 0
-97 0
-310 268 0
414 -153 0
-384 0
-666 0
-436 0
-904 777 0
-359 0
-864 0
-555 0
-778 0
-426 -458 0
-106 0
-552 -519 0
-8 0
-736 0
-580 740 0
-652 0
-755 0
-462 654 0
-185 0
-2 0
-502 563 0
-436 0
-147 0
-888 0
-164 0
-288 501 0
706 -690 0
312 -810 0
-342 0
-965 -322 0
-1000 -707 0
-302 0
-597 -299 0
458 -492 0
-268 181 0
-604 0
-977 0
-829 0
-471 533 0
-582 -603 0
-317 0
-196 0
-37 -186 0
-705 0
-976 -394 0
-368 -734 0
-556 -476 0
-230 0
-915 926 0
-518 181 0
-730 0
258 -429 0
948 -122 0
-592 -486 0
160 -685 0
-14 247 0
-16 109 0
-784 453 0
-869 0
-249 0
-928 -796 0
-784 -577 0
-129 0
-924 14 0
-284 213 0
724 -11 0
-938 0
-716 0
558 -961 0
-613 255 0
-867 0
-149 639 0
-307 262 0
-277 724 0
416 -229 0
-177 0
-567 774 0
-216 -876 0
-560 0
-319 0
153 -637 0
-134 0
462 -82 0
-287 -598 0
-815 -91 0
443 -890 0
-722 0
-317 861 0
-82 975 0
-588 0
-697 0
-539 119 0
264 -343 0
640 -412 0
-500 0
-785 0
489 -756 0
-442 0
56 -959 0
-771 0
-624 0
-766 0
-329 0
-800 352 0
-607 -276 0
-335 0
-517 0
-520 -529 0
425 -458 0
908 -340 0
-125 -396 0
338 -148 0
-666 0
-930 0
49 -638 0
128 -285 0
-199 0
-737 0
-304 0
-870 0
991 -105 0
-525 0
-203 -937 0
-175 0
65 -523 0
-847 0
-867 0
-88 0
-443 0
51 -269 0
-981 -19 0
782 -521 0
-39 0
425 -27 0
-38 0
828 -131 0
-424 -31 0
-496 -799 0
-254 195 0
-98 0
-989 487 0
-949 0
-895 698 0
-710 915 0
-574 0
-452 -170 0
-736 -449 0
-72 -143 0
-976 0
-458 -753 0
-980 -268 0
-136 0
-538 0
-146 0
-877 -403 0
944 -182 0
-352 0
-510 0
-816 427 0
122 -715 0
-423 0
741 -826 0
-271 -845 0
-581 765 0
-264 0
-193 0
-829 901 0
242 -609 0
856 -610 0
664 -722 0
-533 -581 0
-758 0
-211 0
-944 -401 0
-751 0
-91 0
337 -356 0
822 -737 0
-23 974 0
-431 178 0
-656 0
958 -329 0
-987 0
-849 0
-484 0
41 -18 0
-824 -868 0
-194 0
-391 0
473 -963 0
581 -194 0
-970 0
-668 -594 0
723 -977 0
-646 0
-109 -236 0
-556 0
-400 -206 0
-432 0
-894 0
-360 -1 0
851 -250 0
-59 0
-175 -449 0
-327 711 0
-759 -854 0
-795 0
-888 -999 0
209 -226 0
-77 396 0
555 -385 0
-199 204 0
736 -519 0
-660 0
603 -461 0
-222 156 0
-726 -225 0
-183 380 0
-430 342 0
-125 0
-330 -65 0
-79 45 0
109 -945 0
-330 542 0
-53 -122 0
-230 499 0
-108 0
-295 0
-136 427 0
-906 0
-712 0
872 -501 0
-127 -411 0
232 -161 0
-605 566 0
547 -313 0
985 -70 0
-656 0
-365 -274 0
-432 969 0
65 -110 0
834 -651 0
-788 0
-574 -222 0
-567 -97 0
200 -523 0
81 -299 0
-520 772 0
681 -222 0
-262 0
598 -545 0
84 -746 0
-808 -950 0
72 -307 0
-359 554 0
-765 0
-384 0
-960 0
-477 0
-414 0
873 -377 0
-518 -908 0
-188 422 0
-911 -546 0
-408 -689 0
-623 757 0
-737 -481 0
762 -389 0
-677 678 0
-759 -413 0
-270 869 0
146 -934 0
-47 -403 0
-908 -354 0
-492 0
794 -771 0
43 -193 0
-43 0
658 -69 0
-193 0
-263 -146 0
960 -666 0
-350 0
-694 -357 0
-902 836 0
-15 0
-443 0
-203 839 0
-966 3 0
692 -699 0
-492 0
-708 -362 0
-581 -642 0
-948 -955 0
-366 -265 0
-752 470 0
540 -420 0
-726 0
793 -129 0
-391 0
-493 -213 0
-86 733 0
457 -350 0
571 -763 0
-564 -153 0
-570 95 0
908 -419 0
-34 0
-587 -650 0
-579 0
39 -409 0
-71 507 0
-446 679 0
426 -441 0
-711 -793 0
-381 -517 0
-821 -922 0
-615 0
-816 0
-119 -550 0
-328 -912 0
-20 541 0
-496 -137 0
-13 0
-365 -355 0
-535 -642 0
-68 276 0
-295 0
-232 113 0
-195 0
-976 0
-452 -313 0
-170 0
-437 0
-164 -948 0
-118 0
253 -594 0
632 -878 0
-214 980 0
338 -877 0
-126 565 0
-470 0
-249 0
-341 -148 0
474 -171 0
-172 0
-388 0
-594 0
-606 0
-971 0
-551 0
-72 -314 0
-580 719 0
-566 0
-452 526 0
523 -796 0
828 -851 0
-988 0
-705 -9 0
993 -78 0
936 -979 0
145 -205 0
-9 0
-424 0
-695 0
-770 0
890 -269 0
-679 234 0
-568 -998 0
-951 0
-917 0
-906 -697 0
121 -486 0
-821 0
576 -681 0
-976 846 0
-543 -732 0
-613 0
-979 343 0
-222 -498 0
-715 0
-557 -413 0
474 -730 0
233 -166 0
-767 650 0
-507 0
737 -538 0
201 -860 0
-648 -912 0
-651 0
473 -46 0
-586 0
200 -583 0
300 -609 0
-320 543 0
-680 -12 0
1000 -857 0
-968 0
-643 0
906 -206 0
-560 881 0
-257 0
-702 0
-406 -907 0
656 -275 0
-642 662 0
123 -842 0
-322 0
-358 114 0
-14 0
46 -353 0
-550 -708 0
-102 807 0
-576 -46 0
-1000 -472 0
641 -746 0
-920 966 0
-117 687 0
-674 0
-352 -242 0
-843 0
-102 0
-269 -410 0
-163 0
665 -190 0
-407 0
-969 0
-860 693 0
-215 783 0
-268 0
-720 -173 0
-198 -251 0
-708 0
-53 -490 0
138 -393 0
-917 484 0
-950 637 0
40 -752 0
-446 0
-645 0
-885 -185 0
-707 0
-870 204 0
-32 168 0
-851 0
718 -465 0
-151 842 0
-919 -993 0
-884 0
-403 0
-470 677 0
-500 207 0
-140 -963 0
-366 -410 0
-757 823 0
-475 982 0
738 -1 0
904 -744 0
-752 -982 0
-455 0
332 -780 0
-813 0
-293 -714 0
-695 -100 0
-490 534 0
-216 0
-632 118 0
-5 511 0
-568 774 0
661 -225 0
650 -748 0
-477 -153 0
-528 406 0
-241 607 0
-635 0
-342 987 0
-391 -459 0
635 -860 0
-864 149 0
-322 -297 0
284 -747 0
-429 -514 0
-182 259 0
9 -573 0
-992 -607 0
-59 0
-792 -873 0
-547 0
-326 0
-999 -884 0
445 -417 0
-300 0
-880 0
-621 -243 0
-843 0
-181 -51 0
-55 732 0
-468 0
-650 0
-910 -715 0
-27 0
-826 103 0
-713 0
-272 0
-981 0
392 -853 0
200 -323 0
-90 -953 0
665 -38 0
-501 0
-39 -517 0
-859 0
-266 0
-192 394 0
-952 0
-96 770 0
-898 0
-857 0
-828 -530 0
-86 -987 0
667 -763 0
428 -11 0
45 -931 0
700 -852 0
-568 0
-275 798 0
-673 0
-763 173 0
626 -178 0
103 -681 0
-52 0
-420 533 0
29 -363 0
149 -441 0
-468 0
866 -963 0
-47 0
-310 -82 0
299 -89 0
-411 0
-421 -925 0
-376 500 0
-67 199 0
-934 0
-716 0
-555 357 0
-191 879 0
-493 0
-927 986 0
-43 607 0
-933 0
-493 0
-183 -17 0
-669 0
424 -245 0
-289 0
-935 -610 0
384 -739 0
-848 -190 0
-615 0
-845 613 0
-851 0
-711 -405 0
-204 0
-700 0
779 -620 0
-639 -231 0
-316 -89 0
256 -18 0
-462 -443 0
-916 0
73 -724 0
-302 0
-144 0
-418 0
248 -127 0
697 -866 0
832 -576 0
851 -418 0
-268 0
-644 -315 0
352 -710 0
-132 0
-997 0
-767 0
379 -681 0
-158 463 0
-702 -890 0
-152 -262 0
-522 0
904 -523 0
957 -970 0
-527 -179 0
226 -602 0
93 -666 0
-653 0
-444 917 0
444 -92 0
-254 924 0
-775 0
-125 438 0
-584 0
402 -973 0
27 -43 0
-511 -98 0
-838 -244 0
-693 0
-867 0
-99 0
-742 0
709 -554 0
-767 423 0
514 -780 0
-72 716 0
386 -564 0
-693 -114 0
-562 679 0
-606 0
-767 836 0
-167 -130 0
121 -377 0
-856 -752 0
562 -797 0
-591 0
-247 0
-5 0
-66 -890 0
-557 0
-567 -770 0
-294 0
-511 0
83 -715 0
-496 423 0
-656 0
225 -837 0
-679 -430 0
320 -253 0
162 -954 0
-581 0
-254 -27 0
-981 0
-188 -266 0
-181 0
-330 279 0
-630 243 0
-934 -213 0
-537 0
-917 0
-224 0
-411 0
-551 786 0
963 -284 0
856 -578 0
523 -516 0
-135 746 0
-809 0
-491 405 0
-202 0
171 -82 0
-831 0
112 -58 0
-686 0
-481 0
-554 0
-903 0
-359 142 0
-375 -590 0
-844 -961 0
-486 0
-202 0
-840 0
586 -41 0
-791 0
-872 0
803 -2 0
-626 0
378 -356 0
-534 0
-940 0
-111 30 0
36 -779 0
-56 558 0
-257 -105 0
-512 -673 0
-534 678 0
-357 511 0
-576 675 0
-87 -314 0
-404 -930 0
-799 0
664 -36 0
-229 0
-761 0
659 -425 0
-104 -186 0
-76 0
-589 0
514 -978 0
-683 -58 0
-394 766 0
-216 0
-262 0
705 -850 0
-731 0
736 -689 0
-72 -943 0
-927 0
-68 0
-951 0
-467 0
-624 0
-412 0
-545 0
-960 -987 0
-175 0
-651 -250 0
-469 0
-576 579 0
-644 0
-919 -813 0
424 -692 0
-935 -669 0
-134 0
376 -756 0
506 -994 0
-221 197 0
572 -691 0
-247 -887 0
-708 0
-348 244 0
-193 0
-174 -734 0
-137 0
-366 -195 0
-701 685 0
-318 579 0
-652 0
-894 -717 0
-11 0
497 -435 0
-856 -478 0
-44 -419 0
-421 -653 0
-421 0
-208 230 0
-812 0
-344 -594 0
-941 0
611 -393 0
-158 -620 0
-676 76 0
-677 590 0
-683 245 0
-852 0
-941 733 0
-871 0
-355 -681 0
-690 0
865 -213 0
-968 -920 0
-615 -460 0
-431 0
-451 0
674 -446 0
-610 0
-738 0
-430 -588 0
-858 -170 0
-624 0
-253 0
-576 -59 0
-931 -962 0
-552 0
-425 0
-834 0
913 -899 0
-926 308 0
-916 887 0
-871 0
-335 -563 0
-632 418 0
-458 0
-657 0
10 -652 0
-668 0
-347 0
-268 0
-469 723 0
-57 0
-799 0
773 -307 0
910 -362 0
-323 -186 0
-475 0
-574 -372 0
-726 759 0
-998 -290 0
738 -44 0
-355 0
-448 657 0
-386 0
985 -607 0
-541 0
670 -625 0
-807 -582 0
-82 0
816 -971 0
-129 0
-406 941 0
-434 0
-693 -689 0
-461 -797 0
404 -994 0
393 -434 0
708 -466 0
-388 901 0
-859 470 0
-444 0
-64 10 0
-724 -51 0
596 -73 0
-491 0
-261 -602 0
-47 0
-896 336 0
563 -897 0
-612 583 0
-158 0
-72 0
-294 156 0
-608 0
-44 -891 0
356 -203 0
-39 0
-677 0
-901 167 0
-790 -413 0
-632 0
-859 -121 0
-30 0
-785 0
424 -993 0
-429 0
-703 0
-505 0
-928 0
-556 0
-445 0
-708 0
-474 0
-733 0
-924 325 0
-175 703 0
-807 -257 0
193 -438 0
-204 0
-736 -982 0
-288 102 0
-31 0
-349 0
-96 -851 0
-223 -860 0
-302 0
-537 0
-696 0
153 -419 0
-715 0
-312 -594 0
-799 236 0
-344 0
-527 0
-56 0
-714 -298 0
-333 0
-846 0
-429 0
-703 463 0
-249 0
-711 -244 0
-713 0
-562 742 0
-74 0
-665 0
130 -755 0
-508 0
-822 4 0
656 -991 0
-560 -155 0
-13 6 0
-174 -852 0
-268 -195 0
-951 332 0
906 -260 0
474 -273 0
-581 0
-799 0
-780 805 0
636 -932 0
-406 0
-864 0
-592 629 0
985 -251 0
-110 643 0
-179 0
-669 -4 0
-867 0
938 -75 0
-232 0
-307 -555 0
-245 -370 0
-946 119 0
-193 0
-826 0
-559 -787 0
-654 0
-239 0
-947 0
-653 0
-653 -961 0
-679 0
-552 949 0
-226 0
-469 -804 0
-352 -731 0
-579 54 0
-24 137 0
61 -778 0
152 -945 0
-405 983 0
-750 0
-501 -859 0
-405 0
-27 0
-610 0
-150 -899 0
-910 0
-779 0
-652 748 0
-132 0
-848 -899 0
-721 0
-639 949 0
-349 0
-960 0
-971 0
-799 -871 0
-202 0
-355 0
27 -563 0
-759 746 0
-431 -87 0
-703 819 0
28 -82 0
-368 325 0
-194 0
-34 0
-166 -521 0
538 -657 0
-411 0
-383 414 0
-533 0
-801 0
-623 978 0
-68 0
-640 501 0
-821 0
-808 331 0
629 -889 0
-407 780 0
-756 543 0
-648 -107 0
-720 0
384 -181 0
152 -751 0
-332 613 0
-102 589 0
18 -758 0
-895 706 0
-961 0
-36 996 0
243 -321 0
-273 0
-387 0
-995 0
5 -809 0
360 -90 0
-830 -197 0
-144 -651 0
-517 -963 0
-958 -556 0
665 -690 0
-378 -721 0
-723 0
-990 -514 0
-703 0
376 -326 0
-88 527 0
-326 611 0
-941 0
-974 718 0
-816 -298 0
-878 499 0
-892 -283 0
-319 -342 0
-752 774 0
-771 0
-822 786 0
-751 0
-352 -43 0
804 -738 0
136 -817 0
-824 0
-369 0
134 -217 0
-573 230 0
-637 0
-591 388 0
60 -658 0
-472 0
648 -175 0
48 -407 0
987 -90 0
-725 -841 0
-980 0
-948 0
-176 0
864 -966 0
-118 -700 0
-260 -481 0
-882 0
-968 892 0
-559 0
169 -534 0
-206 0
-1000 242 0
-971 190 0
955 -522 0
-372 0
901 -946 0
-373 -404 0
-876 -713 0
-511 -823 0
-408 -46 0
-552 0
-91 -378 0
-444 0
-301 -26 0
16 -707 0
2 -358 0
-424 -914 0
-376 820 0
-107 -642 0
128 -244 0
-23 -705 0
-278 903 0
-502 835 0
-5 0
-568 -767 0
-237 -274 0
-47 -300 0
-750 822 0
-700 -626 0
-421 548 0
-934 0
-144 -5 0
-791 906 0
-509 -978 0
-15 -830 0
-87 -415 0
368 -820 0
-51 -153 0
-89 0
-837 0
-367 183 0
736 -246 0
-795 0
-936 0
-533 0
-327 995 0
153 -682 0
-635 0
-688 0
795 -220 0
164 -275 0
-39 0
-825 0
-951 0
-448 540 0
858 -770 0
-336 -494 0
-664 0
-4 0
-312 252 0
-616 0
129 -419 0
-581 -858 0
508 -274 0
-776 0
-352 -459 0
673 -292 0
-326 -723 0
-24 -3 0
-620 206 0
-584 697 0
956 -851 0
-293 804 0
-825 0
345 -717 0
-557 -626 0
-474 0
-404 957 0
-620 0
-206 -507 0
-609 0
-682 542 0
-525 -891 0
137 -778 0
-27 0
-173 -917 0
-525 0
-983 0
-648 -629 0
-73 599 0
-701 0
-261 0
-808 -588 0
-28 0
-230 0
-704 0
-859 223 0
210 -548 0
-930 0
760 -803 0
-762 0
-688 0
-827 0
-968 70 0
-691 0
-52 0
-734 0
-625 0
-939 0
-735 -180 0
-29 0
-36 0
-797 740 0
-140 0
-38 0
-743 58 0
-432 -259 0
-733 286 0
-891 -273 0
-686 855 0
-150 237 0
-704 0
-769 0
-536 527 0
-672 0
-974 815 0
-824 -117 0
-245 863 0
-410 0
-232 -733 0
426 -371 0
-339 -778 0
-914 311 0
-302 461 0
-328 -518 0
-944 -836 0
361 -764 0
-304 0
-277 0
-548 -692 0
-485 0
-632 -359 0
-551 0
-246 -43 0
395 -26 0
-286 -379 0
-153 0
-585 0
-568 -870 0
841 -276 0
-880 0
319 -793 0
-783 -938 0
-879 0
-181 0
-332 181 0
-599 0
236 -82 0
-384 0
-267 0
-500 0
-244 589 0
-46 0
-6 -778 0
-757 -993 0
-400 0
-343 0
-141 982 0
-3 0
-832 0
-939 -562 0
-183 722 0
-846 0
-880 820 0
329 -903 0
-820 0
-35 967 0
-13 -587 0
-578 0
233 -645 0
-960 -919 0
-31 0
-964 0
-462 678 0
-944 81 0
-61 0
-249 0
-633 655 0
402 -105 0
-427 0
56 -535 0
-708 0
-841 0
-398 -685 0
4 -59 0
-432 462 0
-342 0
843 -436 0
-950 0
-292 0
-768 0
723 -337 0
390 -457 0
-230 -2 0
873 -505 0
-560 -97 0
-614 0
-723 0
-744 0
-511 0
-66 726 0
-651 0
-366 0
-792 288 0
-344 -682 0
56 -457 0
-129 0
-573 332 0
-525 911 0
881 -697 0
-544 472 0
884 -667 0
928 -157 0
-797 0
100 -970 0
-231 -803 0
-117 -300 0
101 -171 0
756 -619 0
-784 738 0
-495 0
202 -196 0
-464 0
-142 -90 0
-816 265 0
134 -137 0
-422 0
-359 0
-4 0
-421 557 0
-349 -210 0
-226 0
-633 0
-619 -89 0
241 -430 0
-127 196 0
-167 30 0
-818 0
-238 183 0
-110 754 0
-782 -498 0
-545 0
-618 0
678 -498 0
-567 -986 0
-164 413 0
-43 0
872 -81 0
500 -883 0
-814 -618 0
-794 0
-190 0
-100 -699 0
832 -75 0
-160 -439 0
-678 310 0
-2 0
-630 5 0
705 -94 0
-634 -905 0
-351 -789 0
786 -686 0
-681 -905 0
-600 -23 0
-427 -450 0
-455 458 0
-871 0
-438 -245 0
-230 0
19 -637 0
985 -998 0
-543 491 0
-399 669 0
-59 0
-976 796 0
-270 -993 0
821 -618 0
240 -971 0
924 -130 0
197 -681 0
-795 0
-782 -629 0
-709 910 0
-776 0
-248 0
-957 -988 0
-711 0
-238 0
-583 614 0
-28 0
-368 739 0
-869 0
-10 -201 0
713 -958 0
-973 0
-215 357 0
-317 140 0
819 -561 0
200 -18 0
730 -419 0
-317 187 0
-118 -603 0
909 -450 0
-118 0
547 -849 0
-403 -474 0
-789 0
-30 0
-486 -267 0
664 -225 0
-708 0
-936 -98 0
99 -981 0
-919 -538 0
-109 0
315 -745 0
-104 141 0
-197 -9 0
468 -603 0
-766 0
451 -612 0
-1 959 0
788 -410 0
-446 -701 0
-618 0
-395 0
730 -137 0
133 -26 0
833 -970 0
-826 -649 0
-397 0
-850 -521 0
-996 -314 0
-820 -177 0
-367 -597 0
-909 0
-278 487 0
-688 0
-136 0
-306 143 0
-992 829 0
-191 173 0
-831 -924 0
768 -651 0
-530 79 0
-274 0
-781 0
-704 0
-560 0
-480 0
-882 0
848 -646 0
-289 0
390 -281 0
145 -797 0
-233 0
-234 879 0
-589 -475 0
705 -235 0
-221 0
-605 86 0
816 -807 0
-540 -705 0
-583 462 0
-514 0
-715 -979 0
978 -802 0
-508 789 0
-972 0
572 -458 0
-457 0
-205 191 0
-225 -265 0
-874 0
-720 -223 0
-796 757 0
-184 743 0
-943 887 0
-731 0
-845 381 0
-295 0
-131 0
-335 -585 0
362 -65 0
-754 -497 0
640 -172 0
-904 981 0
-225 0
-823 0
-862 935 0
282 -273 0
-56 0
-511 0
-836 0
52 -987 0
-565 0
-254 0
-348 143 0
155 -61 0
200 -795 0
-911 438 0
-510 311 0
-6 0
-327 0
-952 0
474 -981 0
-509 -293 0
-198 -118 0
-857 0
-811 413 0
-711 0
-696 -530 0
-506 0
-740 0
884 -484 0
-814 0
763 -529 0
-782 0
-253 790 0
-543 -479 0
-631 0
-416 -467 0
-578 0
562 -493 0
-956 846 0
488 -637 0
-241 0
-191 0
-737 0
-333 150 0
-741 854 0
-795 0
265 -979 0
-435 0
-557 20 0
-587 0
445 -321 0
-841 0
-176 801 0
-255 -930 0
242 -508 0
121 -617 0
-952 0
-887 0
161 -509 0
-340 -266 0
-822 703 0
-551 -715 0
-535 0
184 -801 0
-616 -438 0
-845 0
-32 327 0
137 -697 0
-695 0
89 -622 0
736 -778 0
-119 0
-121 0
-216 405 0
824 -740 0
-921 0
-401 0
-87 654 0
49 -532 0
425 -914 0
412 -633 0
786 -547 0
314 -825 0
-460 0
897 -21 0
-40 -421 0
-512 0
-84 157 0
-15 0
-608 -554 0
-628 -977 0
-643 0
513 -222 0
-627 0
-754 0
-563 0
-703 -593 0
-270 405 0
-551 -697 0
468 -378 0
900 -691 0
-295 653 0
970 -307 0
565 -923 0
8 -179 0
-561 0
480 -361 0
-504 567 0
979 -771 0
-293 0
-880 0
451 -241 0
282 -268 0
948 -514 0
-562 0
-85 0
-47 907 0
-824 -418 0
-48 -818 0
-703 0
-959 292 0
-950 975 0
-701 0
-704 0
-1000 0
-386 0
-323 -489 0
-55 819 0
-929 0
-416 0
-95 142 0
445 -322 0
-171 0
-466 0
378 -138 0
407 -593 0
-87 0
-693 -517 0
-360 572 0
-662 0
-966 0
-890 0
-44 0
-873 0
-571 390 0
-76 -268 0
-286 0
-960 0
806 -505 0
-245 0
-258 0
-292 0
-162 0
-582 850 0
571 -228 0
-580 -473 0
-872 0
-879 0
-95 -982 0
605 -738 0
-274 0
761 -941 0
-448 -557 0
141 -450 0
-221 -649 0
-453 0
-368 320 0
151 -705 0
-116 0
-424 0
27 -605 0
-781 0
-263 0
-819 0
-911 -719 0
22 -913 0
-203 0
-106 0
-61 0
-142 692 0
-373 0
578 -933 0
-179 -474 0
-82 -490 0
-586 0
-21 863 0
-482 -25 0
-497 0
-453 0
627 -684 0
-144 -380 0
-796 478 0
370 -587 0
-782 -585 0
-867 0
-462 443 0
-848 0
-224 -266 0
-463 -65 0
-591 -705 0
-438 -29 0
-792 -599 0
-104 0
-60 316 0
-728 145 0
880 -381 0
-984 0
-624 156 0
-551 121 0
-747 0
259 -876 0
944 -139 0
-639 0
165 -905 0
-554 0
-717 943 0
913 -349 0
-389 -331 0
-641 0
-608 372 0
-176 -920 0
341 -650 0
798 -482 0
-296 537 0
-300 -10 0
-976 179 0
-408 796 0
-632 -321 0
-60 0
-362 0
64 -267 0
-664 0
-315 0
-3 941 0
-745 0
-661 -506 0
-261 0
-211 0
-229 221 0
-189 0
-390 -817 0
-745 0
-919 0
-902 -101 0
-221 0
-56 0
802 -705 0
-788 0
-159 0
-202 0
-118 103 0
-414 0
-951 0
66 -252 0
-406 -12 0
-862 -412 0
-502 662 0
-397 0
-908 0
-934 0
-116 0
-405 0
-33 0
-699 717 0
-400 0
849 -397 0
-767 -636 0
796 -801 0
-575 -978 0
-61 -354 0
-293 622 0
-493 0
-620 0
521 -405 0
-180 -803 0
-303 307 0
-114 0
-256 -137 0
-947 0
-148 358 0
-524 0
-1000 0
-693 0
-455 0
-403 0
194 -898 0
-989 0
-280 973 0
-562 -41 0
-222 454 0
876 -401 0
-748 0
-299 0
-254 0
-566 0
-342 -969 0
-709 -692 0
277 -441 0
853 -505 0
-140 0
-808 -752 0
-504 642 0
-354 0
-728 -690 0
-397 85 0
-765 0
-671 0
-653 0
723 -613 0
-245 -369 0
536 -302 0
291 -673 0
-611 0
-288 -477 0
-19 0
932 -691 0
-619 0
-116 0
936 -548 0
-636 -377 0
-138 0
-392 470 0
-363 -514 0
-621 0
-655 0
3 -300 0
-583 813 0
970 -579 0
-509 0
-360 0
-565 0
-144 -205 0
-840 0
-826 0
275 -433 0
578 -242 0
-776 245 0
73 -668 0
-509 -964 0
233 -147 0
-565 0
-466 0
160 -132 0
-55 909 0
-860 300 0
-814 924 0
-411 0
937 -386 0
-988 0
-174 0
-660 694 0
542 -489 0
848 -984 0
-447 821 0
280 -641 0
-740 -281 0
-413 236 0
-837 0
-378 0
-262 0
-799 0
-800 -542 0
-428 0
-318 0
-186 0
-337 0
-863 0
-861 526 0
358 -857 0
428 -332 0
316 -707 0
-991 0
-910 0
-982 0
576 -251 0
-213 -635 0
-59 0
569 -991 0
-871 0
-800 532 0
-977 919 0
635 -321 0
776 -911 0
482 -773 0
-982 323 0
-414 0
-586 182 0
-311 -4 0
-580 -500 0
-501 0
-582 0
820 -323 0
-592 855 0
489 -558 0
-837 -266 0
-484 463 0
-123 0
-380 -267 0
-882 63 0
-982 0
-672 0
-303 0
-672 0
-918 37 0
-631 0
-432 -843 0
-784 -435 0
-703 0
-124 0
-591 102 0
-6 -58 0
-854 -956 0
-447 0
264 -175 0
-109 815 0
473 -227 0
-327 0
653 -587 0
-812 0
-918 0
-550 0
-270 0
-72 674 0
-139 0
948 -458 0
-140 -731 0
-78 0
-428 279 0
-931 0
-871 0
74 -979 0
-934 964 0
-283 0
-872 443 0
-142 -843 0
-813 -460 0
-158 999 0
-390 0
-735 0
-748 0
-725 751 0
-366 0
-684 87 0
840 -141 0
-389 -610 0
-152 0
-282 0
-783 -917 0
776 -613 0
-760 225 0
-685 140 0
-115 719 0
73 -291 0
-63 -582 0
-347 0
-94 -892 0
-535 91 0
-80 0
-514 -433 0
-911 -725 0
-141 -722 0
-819 877 0
-95 -77 0
-946 0
-981 0
-872 -149 0
-700 -627 0
-797 0
-629 420 0
-146 0
-382 0
-719 0
-310 877 0
-572 0
-440 435 0
-695 0
-729 0
891 -844 0
-773 759 0
547 -442 0
-959 162 0
-153 0
-872 657 0
-456 0
-407 0
-391 495 0
-3 0
-881 0
-138 0
-295 -286 0
-510 0
-631 0
698 -97 0
-648 0
-122 0
-931 86 0
-207 0
-304 -780 0
-992 0
-535 -433 0
-974 0
309 -193 0
843 -371 0
-505 0
675 -803 0
241 -147 0
-823 0
-303 99 0
-991 -974 0
2 -254 0
-367 -482 0
-512 797 0
-177 0
-284 0
-871 652 0
-361 -705 0
231 -41 0
835 -841 0
-727 0
-275 0
-51 0
-124 0
-207 -797 0
-550 314 0
771 -202 0
-51 615 0
-972 29 0
563 -234 0
-24 0
-959 0
-597 0
-963 0
-157 0
-586 0
680 -715 0
-784 0
-853 685 0
-764 0
-360 -348 0
-223 -121 0
905 -492 0
-181 0
-735 -202 0
277 -338 0
126 -537 0
-855 -221 0
-227 -427 0
-283 0
-342 0
-34 -729 0
-278 -218 0
-269 0
-75 0
514 -299 0
-864 -679 0
-479 340 0
-592 -646 0
192 -97 0
-400 -849 0
976 -524 0
-117 -522 0
-254 0
-634 0
-92 0
-544 519 0
-866 0
-725 77 0
-524 -970 0
-726 -83 0
80 -88 0
-183 -399 0
-693 326 0
-205 341 0
-458 727 0
-195 0
-806 611 0
-495 -710 0
-33 0
433 -598 0
-451 0
-984 0
-671 0
-581 0
-343 0
-334 980 0
-790 -773 0
826 -465 0
-797 0
160 -859 0
-971 -130 0
-13 -393 0
411 -946 0
-205 0
-797 0
353 -524 0
-383 -82 0
-247 -876 0
-320 0
-440 -379 0
-152 0
-951 0
-626 0
-148 0
-128 394 0
-117 661 0
-706 0
-59 0
795 -885 0
-28 0
232 -300 0
729 -42 0
-558 -363 0
885 -729 0
-71 -201 0
-232 0
100 -91 0
-773 268 0
-706 0
-202 0
-944 -339 0
80 -839 0
497 -682 0
-917 -482 0
-69 -499 0
785 -388 0
-560 0
-591 615 0
-641 0
755 -91 0
786 -707 0
-704 271 0
42 -90 0
460 -268 0
-969 359 0
577 -881 0
-606 -139 0
-744 0
-317 -236 0
337 -371 0
613 -314 0
-584 0
-400 87 0
-430 -795 0
-624 -222 0
-41 0
-350 -164 0
217 -145 0
818 -77 0
-422 991 0
781 -73 0
-586 0
-80 242 0
-577 0
-933 -612 0
132 -578 0
-807 -461 0
-223 0
-846 -758 0
-280 0
-677 0
281 -458 0
-598 -5 0
-186 0
-985 0
-51 0
-404 0
-682 0
-384 797 0
-235 0
-349 4 0
-430 -570 0
-321 0
-800 -213 0
-823 -21 0
-787 0
722 -276 0
-734 -419 0
138 -339 0
-386 0
-971 0
-772 855 0
-110 -717 0
-238 0
-373 -28 0
-183 -366 0
-253 0
977 -533 0
-720 0
-162 0
-88 0
-761 0
-856 881 0
-791 300 0
-371 -186 0
-956 -617 0
-79 -673 0
-703 0
-584 0
-437 955 0
-976 -278 0
-791 39 0
-335 827 0
-504 726 0
-932 340 0
-5 301 0
-536 750 0
-259 0
-39 0
281 -742 0
-804 0
380 -675 0
-182 -67 0
112 -276 0
-309 147 0
-391 78 0
-863 -52 0
-400 513 0
-88 0
644 -795 0
329 -315 0
339 -529 0
-306 -145 0
-547 0
-668 0
-236 0
-883 -169 0
-646 0
561 -418 0
-349 -873 0
453 -705 0
340 -289 0
-388 0
-333 102 0
912 -414 0
209 -953 0
-744 190 0
-239 -701 0
-845 0
424 -367 0
-774 357 0
-424 -25 0
-957 0
-252 -611 0
-916 -865 0
-591 0
993 -586 0
-716 0
-529 -657 0
-731 0
-544 825 0
-343 0
992 -107 0
-754 0
-15 -138 0
-428 -28 0
-437 -772 0
-576 -12 0
921 -809 0
-607 0
803 -955 0
-575 0
-921 0
-806 -701 0
-574 0
-231 0
124 -106 0
-139 0
284 -698 0
-484 662 0
-271 0
-64 0
-307 0
629 -27 0
-493 -890 0
-728 21 0
-206 12 0
-478 533 0
-722 0
-527 898 0
-437 -795 0
-616 -141 0
-632 0
-916 94 0
-651 0
-592 0
-470 -982 0
-62 -117 0
-161 0
-494 0
-703 0
-206 0
-746 0
-635 0
-693 173 0
-448 0
-415 0
-132 879 0
-837 0
-162 0
-923 197 0
-84 0
552 -691 0
-559 0
-728 0
672 -419 0
-956 0
-897 0
-555 -442 0
713 -741 0
-973 -284 0
-168 0
-307 0
-656 127 0
-823 303 0
-164 0
-15 67 0
-623 506 0
-373 -397 0
-675 798 0
-241 0
-527 922 0
746 -313 0
774 -89 0
-614 686 0
-711 -260 0
-853 0
-115 -553 0
-989 741 0
-111 0
-584 0
-647 0
-926 0
-616 -148 0
-510 316 0
-974 647 0
-1 254 0
579 -250 0
-246 0
-449 0
-239 442 0
-507 -555 0
-485 195 0
-871 316 0
-73 0
-775 0
130 -4 0
-430 0
-471 -500 0
-849 0
-847 -228 0
-984 575 0
-780 -209 0
-239 -108 0
569 -609 0
-119 0
-245 0
-943 172 0
-309 0
258 -61 0
-500 0
-655 746 0
-486 -293 0
-397 0
633 -68 0
346 -219 0
48 -356 0
-771 -466 0
-840 -774 0
-687 -260 0
-705 0
-767 0
-629 0
-604 0
-606 -4 0
-733 -665 0
553 -166 0
-118 924 0
-236 -619 0
-133 268 0
-419 -273 0
-594 0
-577 0
653 -962 0
669 -194 0
-383 -842 0
-591 330 0
224 -73 0
-602 0
-868 0
348 -587 0
-303 514 0
-358 683 0
-970 0
-209 0
128 -373 0
-783 0
-104 234 0
-404 -465 0
-303 -83 0
660 -99 0
-701 -633 0
129 -97 0
-999 519 0
-984 460 0
522 -515 0
-268 230 0
736 -316 0
-903 675 0
-595 0
428 -10 0
760 -292 0
-860 -723 0
272 -877 0
-982 0
297 -618 0
-213 -645 0
-232 247 0
-27 0
-701 -900 0
-255 0
-501 0
-485 591 0
498 -324 0
-868 0
469 -1 0
49 -581 0
-296 267 0
-373 0
812 -234 0
-435 397 0
-782 0
616 -461 0
-919 0
186 -37 0
-748 0
-11 0
19 -825 0
-664 0
904 -150 0
-436 -379 0
770 -60 0
-70 339 0
296 -290 0
-1000 -415 0
-229 -499 0
-621 340 0
-311 0
-400 0
-122 878 0
-590 762 0
-639 -300 0
-98 0
-176 118 0
632 -996 0
353 -93 0
-693 -50 0
-172 0
914 -805 0
-495 -918 0
62 -833 0
-513 0
-152 0
-492 0
-976 0
-455 726 0
-424 -135 0
-605 574 0
-966 79 0
-422 -969 0
-337 -193 0
-331 0
-663 0
-239 327 0
-689 0
-870 0
-813 0
-285 0
-384 -675 0
-480 0
-777 0
-970 0
-551 0
-726 0
-492 0
-620 0
-53 0
29 -202 0
-447 -687 0
-259 0
-60 942 0
11 -985 0
-853 0
-821 0
251 -698 0
457 -743 0
483 -338 0
995 -467 0
-772 -89 0
-183 0
-256 0
-698 -474 0
-800 379 0
-479 -689 0
-692 0
728 -801 0
-73 0
-36 0
-135 -195 0
192 -128 0
-232 -745 0
-599 999 0
-657 0
144 -691 0
-292 -233 0
-243 0
-166 741 0
576 -789 0
-752 0
-599 0
-983 0
482 -674 0
-653 524 0
660 -449 0
-108 0
-567 -490 0
-365 -843 0
-184 -985 0
-501 0
724 -356 0
-803 0
-282 0
-248 0
-598 -844 0
764 -635 0
-929 -137 0
-483 686 0
-165 0
-399 -1 0
-171 0
-868 0
-678 0
-832 0
-275 0
585 -706 0
-768 0
-1000 0
500 -41 0
-239 -515 0
-544 221 0
-994 639 0
184 -419 0
-939 0
-110 428 0
-838 -122 0
-966 860 0
-984 625 0
-996 -299 0
-935 747 0
-613 575 0
-342 836 0
-384 231 0
-619 -154 0
-221 831 0
-304 -205 0
-648 490 0
-429 951 0
-672 -667 0
-95 710 0
-413 926 0
-148 735 0
-728 0
120 -940 0
411 -633 0
321 -578 0
-652 -108 0
-902 0
972 -459 0
-415 0
-610 0
-664 -912 0
969 -377 0
-477 390 0
56 -937 0
-807 467 0
-489 0
387 -716 0
-178 742 0
-390 -764 0
-955 0
-395 0
-722 0
-673 0
-488 362 0
710 -553 0
-679 -132 0
-184 -895 0
-301 -963 0
-319 0
-743 -357 0
826 -180 0
-925 -589 0
-991 0
513 -190 0
-94 -756 0
-846 932 0
-560 173 0
-303 -841 0
-495 0
-623 0
-476 565 0
-904 0
3 -339 0
-400 225 0
-484 101 0
-556 -682 0
-164 -851 0
-320 894 0
810 -633 0
-840 -780 0
-116 780 0
331 -219 0
-550 -154 0
-15 370 0
-398 0
-504 0
404 -130 0
508 -498 0
-270 543 0
-163 -521 0
-221 0
-813 -899 0
-984 0
-214 0
-876 0
-642 0
-944 0
-599 -23 0
-480 -851 0
752 -600 0
-812 900 0
-386 0
-871 0
-734 44 0
-539 0
-703 588 0
-373 0
-198 0
-111 -867 0
-725 0
-404 0
-346 0
308 -282 0
736 -960 0
-581 766 0
29 -915 0
-347 -306 0
-815 0
-916 0
562 -162 0
151 -689 0
667 -282 0
-469 0
-64 458 0
-468 0
-907 0
-467 0
-820 559 0
-818 0
-696 0
419 -956 0
-158 573 0
-7 0
-828 -347 0
-858 999 0
-554 0
-278 998 0
89 -853 0
-576 0
512 -31 0
-467 0
-287 0
144 -338 0
-838 -785 0
-719 -339 0
-868 0
-418 -401 0
-462 0
253 -337 0
-676 0
-45 0
-852 -705 0
-391 0
-890 0
-595 0
-135 226 0
-865 0
-128 990 0
-515 0
-16 667 0
418 -67 0
657 -247 0
-955 782 0
922 -877 0
-718 655 0
227 -924 0
794 -356 0
-5 0
-344 -314 0
-607 -180 0
-908 -729 0
-510 -881 0
331 -117 0
-997 0
-271 740 0
131 -604 0
-884 0
-171 -793 0
-727 -814 0
-53 695 0
-693 0
-756 0
-475 -193 0
408 -941 0
-662 0
-229 -796 0
-520 259 0
-111 0
-942 301 0
497 -354 0
-228 0
-955 631 0
-135 790 0
-260 -764 0
555 -241 0
-813 63 0
-699 0
-902 326 0
-477 350 0
-400 393 0
234 -837 0
746 -589 0
-182 687 0
-960 -977 0
-239 852 0
-999 0
-680 -435 0
-552 -717 0
-711 -758 0
-832 0
-477 0
-326 0
601 -167 0
-669 0
-148 470 0
-117 908 0
-155 0
251 -269 0
157 -722 0
-285 260 0
-928 0
834 -413 0
-752 32 0
712 -478 0
-104 -489 0
-600 0
954 -291 0
-519 275 0
-594 0
-822 0
-3 0
-637 0
842 -845 0
-344 -779 0
-61 0
-451 -954 0
-146 0
334 -737 0
-293 0
-296 0
-697 0
528 -587 0
720 -499 0
-901 38 0
-187 0
-995 0
-84 0
-612 942 0
521 -725 0
-324 0
-990 -275 0
-272 466 0
946 -89 0
-254 0
540 -251 0
-784 -932 0
-833 -169 0
-568 0
-792 349 0
-37 -277 0
681 -38 0
-805 0
178 -337 0
-348 0
489 -653 0
-671 0
-380 -521 0
522 -349 0
-845 0
-171 0
-777 -713 0
-916 0
-450 -81 0
-22 196 0
-572 -41 0
-295 870 0
490 -521 0
-447 359 0
-691 741 0
-74 0
-85 0
-835 0
237 -170 0
-506 0
344 -959 0
857 -974 0
-812 -619 0
-749 -69 0
-76 0
-430 0
369 -129 0
164 -523 0
-599 391 0
-175 -582 0
-399 -130 0
-247 -581 0
-28 0
-812 0
-627 0
-758 243 0
-116 0
-11 0
-320 -870 0
-516 0
-265 0
180 -716 0
-190 -397 0
-478 0
-187 469 0
-42 0
-742 -737 0
-797 0
-245 -42 0
-181 125 0
385 -244 0
-259 -226 0
-640 463 0
-562 -785 0
-272 0
-542 0
-897 -577 0
-336 444 0
-895 79 0
-989 0
-476 951 0
-571 0
-373 0
498 -355 0
-455 0
697 -249 0
-347 0
488 -508 0
-827 647 0
-156 0
-618 -313 0
56 -677 0
-364 0
-754 -26 0
459 -859 0
-370 0
-342 0
-468 0
-107 0
-629 69 0
479 -449 0
-900 0
713 -31 0
-936 -763 0
-290 0
-112 -934 0
-144 732 0
-794 0
541 -107 0
-408 665 0
-863 411 0
-204 0
-856 354 0
-416 -89 0
-535 0
-560 -373 0
-267 -323 0
-728 510 0
-63 874 0
-923 0
835 -858 0
-63 0
972 -692 0
-317 0
-68 0
432 -831 0
-202 0
279 -977 0
-307 0
-768 -742 0
-350 515 0
-183 -50 0
-38 874 0
-254 0
-427 -426 0
99 -601 0
-22 766 0
419 -76 0
-244 0
-741 0
-31 0
-396 -755 0
448 -976 0
740 -250 0
-320 -161 0
-479 0
-58 0
-82 374 0
834 -874 0
-85 0
-541 759 0
-654 0
-104 -494 0
-904 -846 0
266 -682 0
-853 -762 0
-247 806 0
-443 0
-212 0
525 -18 0
-191 0
-54 0
-416 0
747 -564 0
-270 803 0
-206 -851 0
-39 955 0
459 -658 0
-124 0
55 -161 0
929 -781 0
-184 0
-845 0
201 -549 0
-420 662 0
56 -145 0
-571 0
-77 0
-957 0
-47 0
-869 0
-688 -373 0
371 -77 0
-655 0
-428 -281 0
-40 61 0
-338 0
698 -876 0
489 -87 0
643 -788 0
-611 -273 0
-408 603 0
-848 0
-600 -67 0
-429 -723 0
-263 0
-992 0
-124 0
-580 142 0
-51 0
-565 0
-169 0
-817 855 0
-942 0
-777 0
241 -309 0
-950 0
-381 342 0
-697 0
-796 0
-943 -849 0
-394 0
-655 499 0
-15 0
-944 -411 0
-944 988 0
-605 0
-72 35 0
193 -885 0
-696 509 0
593 -549 0
-344 -998 0
301 -681 0
-347 0
-314 0
-480 0
-887 0
-723 0
-499 0
-40 435 0
-690 0
-686 0
9 -436 0
-799 971 0
484 -90 0
-649 0
848 -140 0
426 -494 0
-938 0
-950 0
-871 0
-155 -538 0
-806 955 0
-880 521 0
-236 998 0
344 -853 0
-198 -444 0
-964 0
-416 940 0
-501 284 0
-800 12 0
-824 -617 0
1 -510 0
-999 -757 0
546 -77 0
272 -46 0
-528 159 0
-619 0
-674 -209 0
-128 -876 0
-917 -333 0
-987 295 0
-198 -789 0
-754 0
-26 0
-186 0
-429 0
-526 -427 0
-714 0
-232 -775 0
-236 575 0
-390 586 0
31 -681 0
29 -867 0
-255 -705 0
-790 0
-763 0
-548 463 0
-430 518 0
-586 0
-735 -780 0
-519 863 0
-646 0
-752 -411 0
689 -377 0
-123 0
-513 -33 0
-864 -989 0
-104 -181 0
-351 0
-944 494 0
-564 101 0
-181 0
-573 -851 0
-992 0
873 -638 0
-590 0
-480 -144 0
368 -298 0
346 -116 0
-721 0
241 -161 0
489 -748 0
-444 342 0
-916 0
-810 0
-71 382 0
427 -531 0
-104 -111 0
-353 0
-43 0
51 -793 0
-358 0
-40 516 0
-179 134 0
-523 0
-493 502 0
737 -201 0
-324 622 0
16 -284 0
-964 0
-197 0
828 -161 0
291 -557 0
-283 0
-863 -715 0
-645 0
-111 0
-352 -638 0
-144 0
-634 0
-513 0
812 -609 0
-557 -937 0
-982 -673 0
633 -261 0
-460 453 0
592 -201 0
-250 0
-360 0
-303 0
-549 0
-441 0
-523 0
-894 -233 0
-295 0
213 -57 0
-342 0
-23 0
-687 59 0
-596 -553 0
-174 863 0
-331 -618 0
-1 -505 0
-618 0
-10 0
-601 0
-769 0
-913 863 0
402 -233 0
210 -60 0
-832 -829 0
-112 -612 0
-759 0
-292 0
-792 165 0
-969 0
85 -890 0
736 -735 0
-766 -618 0
-605 0
857 -795 0
-200 616 0
-373 750 0
-868 0
264 -347 0
-325 0
-700 0
-715 0
400 -601 0
-95 -828 0
-244 702 0
-851 0
-793 0
-614 0
122 -254 0
-420 0
-280 0
395 -275 0
298 -278 0
-616 261 0
717 -170 0
-995 958 0
660 -635 0
-318 0
-11 0
-172 0
-664 -967 0
-997 -797 0
-946 0
-563 943 0
-448 403 0
97 -277 0
339 -860 0
-279 0
-739 0
-199 305 0
-782 -717 0
-972 0
-591 -599 0
-852 -129 0
190 -417 0
728 -577 0
-136 -884 0
-299 0
-234 0
537 -726 0
-911 0
-759 867 0
786 -620 0
-199 -802 0
-253 -2 0
552 -228 0
-245 0
-102 0
322 -683 0
-690 0
-517 -220 0
-1 0
-311 0
388 -785 0
-796 -3 0
-560 0
-932 0
-600 784 0
460 -41 0
-363 0
-402 0
-229 -292 0
-720 -881 0
-476 0
-967 -529 0
-471 0
587 -907 0
589 -946 0
-774 0
-286 -769 0
-414 0
377 -213 0
-992 0
209 -603 0
-756 -827 0
-812 0
-14 91 0
-3 0
-978 0
-807 0
-585 0
-853 0
-124 0
644 -92 0
920 -355 0
-152 -767 0
568 -749 0
-736 0
987 -330 0
680 -221 0
-942 221 0
-880 0
-373 246 0
-204 0
-682 0
-531 0
-399 -315 0
-836 -419 0
41 -634 0
-826 -41 0
-740 0
-176 0
-770 -225 0
-789 108 0
-287 267 0
310 -1 0
-765 0
-395 414 0
-777 0
-252 -769 0
-118 0
-389 0
-380 0
-574 -830 0
-355 0
-994 0
-703 972 0
-32 769 0
155 -745 0
-616 287 0
-123 0
-400 916 0
-498 0
-239 77 0
-160 605 0
-556 332 0
440 -498 0
-823 0
-340 -106 0
-118 0
-836 0
-224 456 0
-388 -578 0
-89 0
-225 0
-772 0
-831 0
-792 -59 0
-333 0
-524 0
-41 0
-224 360 0
-686 -188 0
369 -925 0
-364 0
-397 166 0
905 -170 0
808 -717 0
-986 695 0
-611 134 0
-310 -778 0
-627 0
-143 0
-607 0
-168 0
-842 0
-144 749 0
251 -940 0
25 -949 0
-456 -483 0
-875 -698 0
888 -902 0
-960 0
-975 0
386 -834 0
809 -41 0
-340 0
-980 0
219 -785 0
-32 0
-199 900 0
-668 0
-536 44 0
-163 823 0
277 -842 0
-818 0
-702 890 0
-445 -619 0
366 -641 0
986 -558 0
-358 -252 0
744 -525 0
-704 0
-847 5 0
-924 0
-82 0
-395 0
101 -330 0
-763 189 0
-532 -386 0
-416 -326 0
-484 0
-685 -369 0
-173 845 0
-734 0
-400 591 0
-621 -228 0
856 -780 0
-797 0
227 -81 0
-999 714 0
19 -361 0
-522 0
-834 0
-942 0
-88 799 0
-830 3 0
-993 0
-718 0
-500 871 0
-388 495 0
-230 470 0
898 -588 0
-846 -611 0
-912 128 0
-79 0
-189 0
678 -561 0
-168 0
-228 0
548 -819 0
770 -323 0
-757 0
-230 0
-321 -993 0
-214 0
-866 -905 0
987 -885 0
-815 -346 0
-120 987 0
-612 -441 0
-364 -674 0
-291 -993 0
28 -524 0
-908 0
-240 -522 0
-437 29 0
-437 0
-572 -697 0
-902 0
-135 742 0
27 -765 0
-695 -716 0
-162 0
-172 0
-732 670 0
76 -218 0
-473 455 0
429 -65 0
-22 -597 0
-740 -524 0
-186 -946 0
553 -274 0
-444 0
-852 566 0
-909 0
-428 -337 0
-653 0
-223 847 0
134 -17 0
-900 111 0
132 -218 0
-794 0
-464 0
-717 -773 0
-611 0
-616 -364 0
-803 0
-368 -246 0
-608 -689 0
-319 -774 0
-568 846 0
403 -921 0
-904 222 0
-590 -20 0
-972 -377 0
673 -253 0
-899 0
774 -281 0
840 -195 0
-316 0
-342 734 0
-4 0
-95 0
-472 512 0
-268 -257 0
-638 575 0
-50 -506 0
-256 -67 0
-775 0
819 -99 0
-639 0
-582 -276 0
-402 -313 0
-91 0
-448 0
-973 0
-964 0
171 -843 0
-247 469 0
-351 0
-754 0
-145 0
644 -403 0
-432 0
-2 0
-397 0
-836 140 0
-7 -972 0
-898 894 0
-807 0
-71 0
-728 0
155 -268 0
-620 0
-717 789 0
-743 0
-822 0
864 -116 0
-409 0
-483 173 0
-992 540 0
842 -123 0
-971 0
-653 0
-730 751 0
-64 171 0
-820 175 0
-469 159 0
-195 0
-215 0
-952 277 0
748 -786 0
-333 0
-224 978 0
-207 0
-304 486 0
-223 -866 0
188 -578 0
-612 0
-672 0
-840 500 0
-68 -9 0
185 -405 0
745 -726 0
-170 0
-597 0
-64 0
-381 0
-981 0
-374 -682 0
-783 367 0
-244 828 0
-652 0
-853 -797 0
642 -629 0
-848 143 0
-61 0
-615 -753 0
-30 470 0
-255 0
-19 0
-909 0
-18 0
-290 0
-95 242 0
579 -297 0
-708 0
-986 -962 0
561 -721 0
-616 -337 0
-887 0
-959 0
539 -841 0
657 -674 0
-582 0
-464 343 0
-990 0
-797 0
-923 0
101 -442 0
-605 142 0
377 -139 0
-63 0
-866 -225 0
-915 254 0
-131 -58 0
-104 546 0
-168 -975 0
-168 0
-571 0
-640 -933 0
-826 150 0
-200 -966 0
-949 -545 0
-288 -802 0
-508 0
-230 236 0
-907 0
-892 0
933 -786 0
-410 0
-698 63 0
-941 493 0
387 -51 0
-544 0
-271 0
-407 0
-494 0
-942 0
552 -333 0
-548 0
-240 0
-643 -323 0
-590 0
-375 195 0
-759 645 0
-906 0
-992 0
-815 877 0
-751 -483 0
612 -801 0
-382 0
-202 0
-872 787 0
-173 -924 0
-48 -725 0
-420 438 0
944 -804 0
-232 0
804 -420 0
407 -113 0
-414 0
-96 -79 0
-807 0
297 -49 0
784 -500 0
-988 0
-87 737 0
-186 0
-901 -259 0
-82 0
-722 0
-288 0
-679 388 0
-601 0
441 -746 0
-315 -257 0
410 -179 0
-440 762 0
-447 0
-268 0
522 -369 0
-654 -394 0
-495 117 0
-484 0
-964 0
-448 0
-71 0
-948 775 0
-972 71 0
-656 992 0
710 -625 0
-468 821 0
193 -306 0
648 -204 0
-381 517 0
-56 0
-696 476 0
-334 796 0
-287 -461 0
-536 585 0
-152 805 0
305 -377 0
-192 -111 0
-262 -986 0
-229 0
-645 973 0
-862 0
-170 0
3 -147 0
-620 0
1000 -484 0
338 -260 0
-40 0
-750 950 0
418 -462 0
-939 727 0
-883 0
-646 -485 0
-216 0
-774 0
-637 0
-907 967 0
-145 0
-636 -385 0
-548 0
-975 -532 0
-257 0
-496 0
-87 0
-688 0
-192 286 0
-441 0
435 -329 0
-652 0
-384 981 0
-856 210 0
-8 -700 0
-519 -9 0
816 -543 0
-236 167 0
-968 0
-70 0
-39 -123 0
995 -419 0
-206 0
-392 0
873 -939 0
-898 0
189 -66 0
-644 -657 0
-441 0
-724 0
-728 0
-528 -664 0
946 -966 0
-192 219 0
-349 469 0
-688 311 0
-14 -466 0
-64 -480 0
-16 0
-120 0
-394 0
-336 0
641 -367 0
195 -473 0
-265 -569 0
-471 0
-991 0
-195 0
691 -875 0
-31 965 0
147 -450 0
787 -843 0
-123 135 0
-196 0
-412 -561 0
-837 -705 0
-299 0
-634 -722 0
9 -809 0
-486 915 0
-636 0
44 -690 0
-994 0
-901 567 0
-728 -161 0
-716 0
-105 0
-204 0
-800 0
-470 619 0
-271 0
-719 0
-238 0
-340 0
-827 -883 0
-683 0
-169 0
-648 -679 0
-351 -299 0
-574 -382 0
-398 -49 0
-182 733 0
656 -931 0
-125 116 0
-701 -250 0
130 -924 0
-397 0
-726 0
-43 0
-44 415 0
698 -729 0
-823 -99 0
-456 -392 0
-951 -285 0
-196 0
-956 406 0
-314 0
-367 0
-862 0
-696 -533 0
680 -355 0
-86 -268 0
-622 -226 0
-44 -770 0
-401 0
-248 485 0
-654 0
-59 950 0
-448 0
-391 -893 0
96 -453 0
930 -940 0
242 -317 0
-227 -913 0
-930 0
-818 0
705 -839 0
-195 0
414 -994 0
84 -129 0
-555 798 0
-160 -488 0
-622 854 0
-442 0
-81 0
952 -309 0
-964 0
-613 0
-124 0
-844 0
-880 0
-828 -105 0
-464 0
-787 0
936 -965 0
-439 919 0
-23 0
698 -163 0
-512 0
-993 0
-227 -121 0
-778 -193 0
-916 175 0
-904 593 0
-851 -361 0
-150 0
-318 -146 0
-389 231 0
-960 0
-874 0
-502 0
-492 0
-205 479 0
-310 0
-269 0
-695 0
-730 0
-838 0
-623 0
-815 580 0
342 -721 0
-431 0
88 -197 0
856 -779 0
498 -812 0
-789 245 0
-252 0
-580 686 0
-149 0
-944 0
-466 0
866 -588 0
-931 -570 0
-23 0
536 -387 0
-319 595 0
-911 909 0
-518 550 0
-352 -823 0
794 -569 0
-544 0
-485 0
720 -262 0
-926 0
-130 0
701 -369 0
492 -513 0
298 -165 0
810 -339 0
-512 0
-104 -122 0
-917 0
184 -920 0
58 -36 0
-439 -761 0
-696 -208 0
718 -897 0
555 -253 0
-140 -323 0
-189 0
-487 905 0
-721 0
-4 -315 0
-362 0
-239 0
-752 213 0
596 -835 0
-417 0
-451 0
-345 0
-736 -780 0
-936 -711 0
-15 -538 0
259 -849 0
-967 0
5 -97 0
-302 -345 0
-467 -459 0
-515 0
-128 -789 0
-978 0
-415 0
-707 -883 0
-928 579 0
-779 0
-870 957 0
-439 0
-678 -697 0
521 -337 0
-485 -313 0
-978 0
-723 949 0
-558 -787 0
-760 449 0
-683 0
120 -987 0
135 -641 0
-981 -140 0
-559 -124 0
-821 301 0
-182 0
-502 0
-96 -352 0
-961 0
-200 857 0
-576 -914 0
-194 -745 0
929 -870 0
448 -258 0
754 -158 0
-552 719 0
-441 0
-184 -973 0
-765 0
-224 -700 0
-35 0
-599 0
-535 666 0
-208 481 0
-63 0
-595 719 0
-910 0
763 -290 0
-62 0
296 -844 0
-882 678 0
264 -408 0
-941 988 0
403 -81 0
-619 -953 0
-311 0
-519 -134 0
-854 -524 0
-552 -951 0
-850 0
936 -130 0
-659 831 0
-155 -705 0
752 -40 0
-812 0
25 -723 0
-22 0
-989 774 0
-632 719 0
-696 626 0
-925 0
-757 0
-235 0
-486 0
-519 963 0
-425 0
424 -247 0
-927 317 0
128 -18 0
-904 121 0
-20 0
462 -505 0
-198 0
-815 -213 0
-408 -611 0
-302 0
-566 235 0
-642 0
-491 0
-742 0
-76 0
192 -528 0
-198 0
-277 0
-857 0
-123 246 0
-426 0
-59 0
-948 0
-215 -579 0
-370 -850 0
129 -262 0
-512 -406 0
-583 -161 0
-615 0
-172 -114 0
-700 -193 0
-775 0
-515 -961 0
-632 751 0
-167 -715 0
841 -238 0
-912 175 0
-472 0
-551 -610 0
-605 0
-321 0
688 -189 0
-562 0
416 -466 0
448 -911 0
-165 0
-709 0
-725 0
-942 0
-569 0
604 -970 0
-495 -819 0
-124 0
-325 -66 0
634 -754 0
88 -398 0
-418 -25 0
182 -33 0
-144 -906 0
-422 0
-512 0
-28 0
-702 0
-275 0
-637 0
-995 0
-485 -842 0
-810 0
-873 0
-376 -234 0
-783 -985 0
-735 0
-614 0
945 -636 0
-990 -646 0
-565 0
-464 -982 0
-308 0
475 -796 0
-232 0
833 -261 0
-484 0
891 -851 0
609 -668 0
705 -43 0
-134 907 0
-852 -827 0
-12 0
-999 -521 0
-997 359 0
-467 0
-192 244 0
-7 -194 0
-684 494 0
57 -845 0
-757 0
-18 0
-245 444 0
-466 0
-824 84 0
-554 -954 0
634 -649 0
-501 0
-202 503 0
938 -578 0
389 -969 0
-370 -297 0
4 -218 0
-699 0
884 -771 0
-377 0
-927 -747 0
-331 -714 0
-239 -937 0
505 -553 0
-697 0
-701 -665 0
-923 -642 0
-849 0
-69 0
387 -585 0
-329 0
-104 0
-360 -420 0
-66 0
-194 0
-747 -841 0
-381 -788 0
98 -922 0
-683 0
-157 -290 0
-53 0
456 -291 0
-643 925 0
-839 -126 0
-381 -956 0
-417 479 0
-576 0
576 -297 0
-574 299 0
884 -954 0
851 -802 0
-821 0
-303 0
-641 0
-775 0
-533 925 0
-239 518 0
-312 0
-687 0
11 -13 0
-161 0
-381 -836 0
-577 0
297 -850 0
308 -91 0
-990 0
-375 0
-376 -827 0
-358 0
468 -193 0
-5 -748 0
-543 0
-29 0
-39 0
-246 -306 0
84 -978 0
-816 0
-356 0
841 -268 0
-802 0
91 -157 0
-509 0
-97 0
-988 0
-974 -714 0
-864 723 0
-682 0
-469 0
996 -513 0
914 -74 0
-311 60 0
347 -453 0
-426 0
-982 507 0
-307 -394 0
-903 -961 0
-867 0
-950 0
-463 359 0
625 -694 0
866 -123 0
-72 210 0
-843 0
-472 229 0
-242 207 0
-35 622 0
-782 0
-309 519 0
-947 -498 0
-886 437 0
-158 0
-542 0
419 -770 0
653 -99 0
-673 0
945 -68 0
-78 -860 0
640 -447 0
-726 739 0
-131 -458 0
-540 957 0
-874 0
-686 -84 0
747 -428 0
-621 0
381 -129 0
-483 693 0
146 -115 0
-1 583 0
-614 0
-25 -817 0
-817 0
-567 0
-556 0
-624 -503 0
384 -726 0
48 -138 0
-5 534 0
-753 0
652 -850 0
-639 0
-392 0
609 -587 0
-950 839 0
-502 0
-402 287 0
-830 0
-606 -900 0
-775 0
-522 0
776 -757 0
-176 -347 0
-722 0
-548 877 0
-403 0
-469 0
-817 0
296 -337 0
320 -259 0
609 -546 0
-54 887 0
-656 -228 0
-120 355 0
-89 0
-818 0
-599 -550 0
-303 0
202 -110 0
493 -74 0
-242 0
-261 -491 0
-387 0
-989 991 0
-420 0
729 -221 0
-832 264 0
-662 -577 0
-133 -921 0
-869 0
-214 0
-775 797 0
-135 0
-787 -267 0
435 -555 0
594 -356 0
-768 -281 0
-294 0
-120 -742 0
-617 0
-709 0
-672 -346 0
-41 0
11 -660 0
-520 0
-236 0
-848 0
-952 911 0
-828 0
-381 476 0
923 -627 0
-259 774 0
-341 0
-879 237 0
-352 890 0
-131 0
970 -685 0
-239 437 0
-542 666 0
619 -458 0
-596 0
-239 -562 0
-414 0
-774 0
585 -399 0
-758 -571 0
-525 0
-88 526 0
-485 684 0
-421 0
-178 0
-644 445 0
-490 0
-638 266 0
-40 520 0
-28 0
-398 -298 0
330 -322 0
-150 -17 0
185 -741 0
-172 0
-726 0
-631 0
-328 0
258 -702 0
-219 327 0
993 -471 0
-764 694 0
-593 0
-452 982 0
-972 -484 0
-654 0
-560 -452 0
784 -621 0
97 -462 0
-24 0
-743 102 0
-542 0
-223 889 0
-245 -997 0
-352 0
-768 237 0
-19 -34 0
-70 0
-635 -66 0
-352 -178 0
808 -297 0
618 -89 0
-609 0
-983 0
-592 -818 0
348 -242 0
-966 0
-292 453 0
-504 -353 0
-152 675 0
433 -283 0
-315 0
-932 454 0
-780 157 0
-638 627 0
-249 0
809 -805 0
-387 717 0
-624 -68 0
852 -905 0
-372 -57 0
-836 0
483 -457 0
-173 -948 0
-514 943 0
280 -919 0
-974 0
-592 0
-487 -385 0
-322 0
-583 0
-850 -89 0
-134 0
689 -546 0
776 -676 0
-20 0
290 -308 0
-983 -361 0
-382 -483 0
-216 0
-86 0
-410 0
200 -364 0
-656 0
-208 120 0
53 -241 0
-954 0
-796 -4 0
99 -641 0
-660 766 0
537 -866 0
-814 0
-848 -784 0
-719 -638 0
-334 0
-332 0
-584 -111 0
502 -681 0
235 -788 0
113 -210 0
-334 29 0
-936 0
-982 0
-635 0
585 -572 0
-413 4 0
-647 0
-727 590 0
40 -118 0
-949 -341 0
-431 -209 0
-785 0
-591 109 0
-912 -850 0
912 -70 0
-821 0
234 -945 0
-221 0
-382 0
73 -221 0
-143 -993 0
-857 0
-121 0
198 -794 0
-552 43 0
-539 0
-349 327 0
-110 -365 0
840 -229 0
-949 0
-316 -923 0
-191 253 0
856 -457 0
-833 0
-240 -917 0
-183 -566 0
-717 -157 0
-436 0
-456 0
-359 0
-436 0
-425 0
-620 69 0
98 -982 0
-788 0
-216 491 0
-134 -932 0
-629 -276 0
-124 910 0
-936 0
-167 -426 0
-920 -804 0
-287 812 0
784 -664 0
-637 -73 0
-430 -180 0
-923 0
-301 -179 0
-300 0
-873 0
-908 341 0
-82 0
-415 -753 0
171 -323 0
-551 0
863 -681 0
-392 -9 0
481 -5 0
715 -308 0
-509 0
-582 -434 0
717 -466 0
-583 482 0
171 -913 0
-643 613 0
-952 186 0
904 -5 0
501 -537 0
-146 0
-632 -315 0
-257 0
-812 -307 0
88 -436 0
-445 0
-304 -786 0
737 -668 0
-404 806 0
-853 0
741 -970 0
-268 0
-912 0
-941 0
355 -266 0
-962 511 0
-59 0
-257 0
-792 -820 0
-245 139 0
-718 0
-807 -131 0
-700 -35 0
-812 -875 0
-631 0
-143 0
-133 0
557 -203 0
-475 0
425 -437 0
-703 -646 0
-444 -498 0
250 -354 0
-629 -745 0
-391 0
-844 0
-246 614 0
-405 -889 0
-71 0
-238 483 0
-680 0
208 -597 0
-900 -986 0
-660 606 0
294 -234 0
-630 0
-660 391 0
-328 -617 0
835 -268 0
216 -307 0
-889 0
918 -450 0
-924 0
395 -450 0
379 -756 0
624 -912 0
450 -132 0
-507 0
-263 -205 0
-418 0
-942 -643 0
-791 0
-559 0
33 -367 0
808 -690 0
-892 0
-763 -73 0
-178 0
-571 0
-226 0
-510 94 0
555 -955 0
-983 0
-168 719 0
-611 0
-224 0
145 -939 0
-7 -1 0
-700 0
-686 0
-518 0
-920 0
-966 -365 0
-119 -789 0
-157 0
-549 -321 0
666 -651 0
692 -177 0
-351 0
24 -836 0
-834 0
-648 503 0
-340 223 0
851 -157 0
848 -244 0
-43 0
-18 0
-333 -25 0
-403 0
-768 257 0
-790 518 0
-770 -9 0
-740 -666 0
701 -153 0
-24 0
-974 0
-760 -409 0
-544 0
-443 0
979 -466 0
-895 -181 0
-296 0
152 -641 0
-198 727 0
-144 107 0
-886 -794 0
489 -479 0
-663 -891 0
-875 0
-632 367 0
-536 -471 0
-651 358 0
-626 -881 0
-875 0
-111 0
-968 -701 0
-48 777 0
-180 788 0
-81 -681 0
-318 0
-964 479 0
-63 0
-199 0
-586 0
-923 455 0
-551 -276 0
398 -465 0
-649 0
-927 -799 0
-685 0
-982 -813 0
-381 0
33 -158 0
-808 0
930 -677 0
-678 134 0
-301 0
-22 0
-264 921 0
112 -236 0
-243 215 0
-507 133 0
-352 -243 0
-54 0
724 -650 0
-124 0
-983 508 0
-349 0
-655 -602 0
-621 0
-801 0
-278 508 0
-736 0
-887 -994 0
-760 -981 0
-516 677 0
-730 0
-141 0
-668 454 0
-815 -814 0
-822 662 0
-303 0
-495 -599 0
-557 -513 0
-112 -15 0
-502 -494 0
-309 847 0
150 -681 0
-810 0
-438 596 0
-447 89 0
660 -714 0
340 -451 0
-244 0
-451 0
-407 -308 0
-670 -721 0
-918 0
-309 -963 0
-922 0
-990 0
-454 0
-54 669 0
-324 389 0
140 -113 0
-225 0
-215 742 0
-397 -596 0
-589 828 0
233 -625 0
-190 -532 0
-677 0
-56 -815 0
268 -290 0
-253 0
161 -782 0
-758 702 0
-542 -980 0
-752 0
-494 0
932 -586 0
-119 0
-957 -474 0
-758 0
694 -865 0
-343 -380 0
-856 952 0
-511 0
9 -74 0
-650 0
-566 0
-126 0
-395 0
209 -597 0
-122 0
-704 -675 0
-957 0
-588 0
-768 -653 0
525 -601 0
-914 0
817 -549 0
-190 333 0
-720 591 0
285 -673 0
-53 223 0
-131 0
-535 -61 0
-38 -42 0
-128 0
-269 0
-97 0
-367 0
41 -737 0
-239 623 0
-72 0
-935 -55 0
-925 0
-898 -377 0
-330 0
521 -163 0
-903 -205 0
382 -50 0
-740 0
418 -478 0
528 -117 0
-951 745 0
-873 0
506 -9 0
-190 -273 0
-21 -716 0
-988 0
673 -666 0
-514 0
-998 0
904 -739 0
-650 0
-413 -186 0
-963 0
-426 0
-752 335 0
168 -360 0
-303 0
273 -650 0
-127 0
-77 975 0
962 -434 0
-72 0
-574 303 0
-467 653 0
-264 0
-359 0
337 -275 0
-149 0
-100 -689 0
-978 0
587 -685 0
-363 0
-876 -75 0
-385 0
-551 -946 0
-687 -90 0
-344 833 0
-529 0
224 -489 0
-951 -515 0
-854 549 0
-718 -538 0
355 -522 0
-440 212 0
-252 358 0
-652 0
-751 0
761 -478 0
-774 293 0
563 -169 0
-957 0
-908 0
-375 0
-909 0
-830 269 0
-821 139 0
-136 0
469 -585 0
-994 0
-218 0
-104 103 0
-952 0
-334 0
603 -68 0
-602 -74 0
940 -852 0
906 -573 0
797 -721 0
-543 0
921 -4 0
-949 959 0
-594 719 0
-508 69 0
84 -370 0
-341 0
-108 61 0
-240 186 0
-582 0
-799 229 0
-982 -625 0
-145 0
622 -586 0
-440 0
304 -538 0
-116 0
235 -882 0
-513 0
-591 -817 0
-184 -629 0
-773 621 0
-375 519 0
-70 916 0
-169 0
-151 -985 0
-739 758 0
234 -876 0
-15 0
-851 0
-475 0
-407 117 0
-147 351 0
-447 -842 0
564 -99 0
-160 0
-5 0
-893 197 0
891 -707 0
-291 0
-667 0
-946 -201 0
803 -163 0
-827 0
-136 -857 0
-973 733 0
-470 -937 0
785 -523 0
-966 351 0
-288 125 0
-60 0
-216 384 0
-156 -777 0
-709 0
752 -223 0
-355 0
206 -521 0
-720 0
-616 0
-560 0
-207 -419 0
-384 0
-216 579 0
-559 -658 0
-362 471 0
-864 107 0
-874 0
-175 -481 0
-367 0
817 -340 0
113 -4 0
-968 969 0
-856 0
-84 0
-508 -713 0
-217 0
-347 0
-368 539 0
-485 987 0
-814 0
-407 0
-458 255 0
-504 -503 0
-87 0
-295 0
-432 267 0
226 -690 0
-619 0
-257 0
-452 0
-478 -268 0
-536 -717 0
-704 0
-707 -842 0
26 -419 0
-756 0
-3 0
-83 -865 0
-564 0
-107 486 0
-834 943 0
-65 0
-575 0
-558 0
-870 0
-302 -67 0
-775 0
-632 806 0
-576 -655 0
-792 1 0
-792 -209 0
-623 -562 0
-470 0
-288 0
-13 604 0
-297 0
-247 -411 0
723 -979 0
-293 911 0
-439 -558 0
-407 0
-514 167 0
-783 0
-303 -266 0
-290 0
25 -102 0
-601 0
-236 959 0
-295 -538 0
-655 29 0
737 -628 0
104 -5 0
-524 0
413 -809 0
748 -555 0
-796 -970 0
-849 0
337 -708 0
-551 780 0
-687 -44 0
-968 0
-516 13 0
-17 0
395 -939 0
-527 538 0
-141 0
-466 0
-818 0
944 -875 0
-320 0
-332 -257 0
-66 0
-247 307 0
-261 0
-192 647 0
362 -985 0
-999 -57 0
-834 0
-688 0
-139 0
584 -337 0
-456 -984 0
-663 -142 0
-105 0
882 -422 0
-142 -244 0
-924 230 0
-606 -333 0
33 -62 0
-171 0
-776 -35 0
1000 -68 0
-154 0
-283 0
880 -849 0
-103 0
152 -311 0
-284 358 0
-821 0
-986 0
342 -633 0
-612 -562 0
-617 0
-893 -388 0
-235 -290 0
-943 -223 0
-900 0
-740 0
-140 -810 0
-814 0
-107 0
704 -469 0
-967 483 0
-127 -667 0
-493 0
-636 0
-856 -947 0
-743 -18 0
-428 0
-759 142 0
-422 11 0
-23 0
139 -121 0
-368 294 0
388 -563 0
-352 -952 0
681 -850 0
-490 0
-782 0
-675 -770 0
-311 -941 0
-800 -535 0
-261 302 0
-55 0
-341 0
-358 604 0
-873 -713 0
-95 294 0
377 -621 0
-233 0
-84 -972 0
-782 0
-642 0
-475 0
466 -374 0
-430 146 0
-744 60 0
-183 0
-447 117 0
-975 -427 0
-24 -667 0
-477 207 0
-792 -541 0
-719 140 0
-960 701 0
-406 0
-522 0
-199 0
-597 0
-552 838 0
-817 0
122 -780 0
-476 0
357 -673 0
-428 0
-290 0
-126 -706 0
-192 252 0
-72 921 0
-533 -43 0
460 -724 0
-472 436 0
274 -83 0
168 -962 0
-452 813 0
818 -833 0
-694 -19 0
-677 0
-347 0
585 -966 0
-795 0
-484 0
-86 0
-141 0
-654 -634 0
-767 51 0
-215 -850 0
-223 -210 0
-356 0
-940 0
-208 939 0
576 -628 0
72 -163 0
-485 0
-620 508 0
540 -705 0
-495 -762 0
-671 546 0
201 -483 0
-996 0
-21 0
-687 -938 0
-565 -82 0
-655 551 0
-624 -677 0
113 -501 0
-909 469 0
859 -803 0
-354 -561 0
371 -37 0
-848 0
425 -644 0
-4 695 0
-707 0
-790 861 0
-539 0
-61 -465 0
-199 0
760 -127 0
-209 903 0
449 -307 0
394 -697 0
-569 0
-366 0
-829 132 0
155 -293 0
-607 583 0
-693 0
-633 0
-386 0
-88 0
-27 558 0
-918 575 0
-680 110 0
-21 0
-472 572 0
-160 0
-110 -793 0
-657 0
906 -883 0
-492 0
858 -59 0
-880 -239 0
-412 495 0
-971 0
219 -995 0
-547 0
-538 0
-111 0
546 -804 0
496 -631 0
-176 0
-207 -745 0
394 -153 0
-201 0
-885 0
-404 -11 0
-739 -801 0
-498 455 0
291 -11 0
-326 -894 0
-413 0
-142 0
330 -993 0
-915 806 0
-519 -853 0
-129 0
-379 0
500 -50 0
-839 0
-193 0
510 -153 0
-626 -145 0
-455 0
-583 0
-597 0
-925 -321 0
-819 0
-274 991 0
289 -724 0
-858 -178 0
395 -729 0
602 -525 0
-878 0
-339 0
-763 0
-207 0
-561 0
-346 0
-840 225 0
-29 -13 0
-525 870 0
-112 950 0
-808 0
-179 -10 0
-686 0
-958 -798 0
-82 767 0
-550 -89 0
712 -47 0
363 -787 0
-831 0
-998 196 0
-335 838 0
-594 0
-486 0
-992 311 0
-392 11 0
-702 -723 0
-284 182 0
296 -212 0
-101 0
-534 923 0
-216 47 0
115 -132 0
-830 -2 0
-149 38 0
-720 -693 0
-86 -596 0
-192 492 0
649 -810 0
-734 -321 0
-311 669 0
-907 -785 0
-70 -228 0
-304 -387 0
876 -450 0
18 -954 0
-495 0
706 -990 0
-789 0
-407 -580 0
299 -641 0
810 -91 0
-64 0
-353 0
-251 -657 0
785 -214 0
-532 0
210 -868 0
154 -811 0
776 -1000 0
-29 0
-720 -763 0
-234 0
-414 -523 0
-736 0
315 -657 0
-144 0
-87 974 0
-253 -489 0
-608 -323 0
67 -402 0
476 -961 0
737 -561 0
-96 0
-374 -870 0
625 -543 0
-563 0
-555 0
-501 -170 0
-445 -803 0
-76 0
-643 0
-832 -793 0
696 -477 0
-597 -235 0
-111 -562 0
-582 774 0
-511 -11 0
-140 332 0
602 -731 0
-732 959 0
-766 0
-149 -797 0
-590 0
-915 143 0
-844 262 0
-944 135 0
-527 557 0
-206 -721 0
-972 0
666 -59 0
-749 0
-80 0
874 -235 0
-724 996 0
-264 0
-400 0
-140 238 0
843 -613 0
-56 -876 0
648 -260 0
-208 -438 0
-232 -763 0
297 -956 0
-719 -796 0
-567 106 0
-179 0
209 -159 0
-729 0
-389 -290 0
-255 0
801 -958 0
-342 62 0
888 -175 0
-787 0
-520 -973 0
-312 -786 0
-840 986 0
321 -180 0
-42 0
-772 0
-720 159 0
-159 -417 0
-610 0
-630 190 0
-687 0
-227 -363 0
553 -938 0
219 -411 0
-213 0
-344 924 0
-39 0
-945 0
-120 601 0
857 -612 0
-891 719 0
-395 -362 0
937 -738 0
-960 955 0
-405 0
-296 494 0
-607 0
-500 0
-360 481 0
825 -660 0
-471 978 0
-580 0
-819 0
-581 0
-4 -3 0
-727 0
-303 -820 0
380 -796 0
-295 -329 0
267 -597 0
-28 0
-512 -984 0
-523 0
-654 931 0
-537 0
-403 -963 0
-511 0
-429 639 0
281 -250 0
-394 0
293 -498 0
-534 -382 0
-433 0
-784 0
-865 0
-797 -786 0
169 -14 0
200 -726 0
-541 -705 0
-50 0
-257 0
-807 0
-930 0
-591 0
104 -255 0
-439 0
9 -518 0
-15 229 0
-321 0
-733 708 0
-597 0
-780 0
-68 0
-847 0
-190 0
-937 0
-735 303 0
-712 395 0
-201 0
-724 999 0
528 -597 0
-788 981 0
616 -958 0
-381 0
-560 0
-638 -578 0
-221 -969 0
690 -801 0
-985 0
833 -426 0
-430 -438 0
-301 -801 0
-255 0
-164 -586 0
-893 -449 0
-679 692 0
-192 249 0
-613 308 0
506 -747 0
-507 230 0
-491 0
-864 -161 0
-298 0
-617 0
226 -994 0
-485 158 0
-813 0
-263 0
-366 587 0
-948 349 0
-367 -220 0
-886 -619 0
-360 0
-912 0
-167 260 0
41 -802 0
-873 151 0
52 -707 0
-482 0
-716 0
-22 0
-384 0
-790 909 0
-26 0
-767 -644 0
-575 0
-491 0
-680 849 0
-860 -217 0
-300 0
-490 0
-72 -602 0
-160 -150 0
361 -877 0
-747 0
-790 -411 0
740 -562 0
-456 -501 0
-141 502 0
-84 -377 0
-98 -161 0
-456 0
-412 0
-365 715 0
-155 0
-898 0
-267 951 0
408 -661 0
250 -371 0
-345 0
-630 371 0
-800 -52 0
-254 0
-711 0
-417 0
-691 0
-600 -687 0
-423 0
-590 0
433 -769 0
-525 0
-890 0
-840 0
-119 -106 0
-983 493 0
-86 0
-624 -619 0
-492 0
-959 -698 0
-615 -314 0
-717 519 0
792 -938 0
-117 -265 0
-788 0
-958 -500 0
-487 -75 0
-82 -650 0
276 -603 0
521 -870 0
-46 0
-110 -981 0
-790 -85 0
-706 247 0
-241 0
-414 0
-275 0
-484 820 0
-452 135 0
-519 0
-25 0
510 -825 0
-950 85 0
-909 -83 0
-671 0
-332 0
-453 0
752 -246 0
-166 0
70 -625 0
-805 0
-911 0
157 -937 0
-453 0
-853 0
-692 0
-290 0
-887 22 0
-492 38 0
-570 0
-796 0
780 -985 0
-119 0
-765 -371 0
-992 -329 0
-677 -981 0
-960 -315 0
-390 -204 0
-446 957 0
-290 0
-352 -7 0
-71 0
523 -65 0
-604 0
-912 -3 0
-89 103 0
-20 -635 0
820 -250 0
197 -354 0
-486 924 0
-598 0
-475 0
-759 0
-750 0
-877 -307 0
-19 0
318 -521 0
-143 0
-405 -483 0
-94 939 0
-339 0
-172 77 0
-980 0
-744 -710 0
143 -49 0
-693 0
-628 0
-104 -212 0
-229 -484 0
889 -530 0
-984 893 0
-780 0
745 -774 0
-566 850 0
-68 -921 0
-786 0
-67 -921 0
-483 -474 0
216 -191 0
-765 0
-347 558 0
-405 939 0
-258 0
-762 0
-159 -982 0
-847 -100 0
-778 -617 0
-976 -94 0
-780 0
-701 911 0
306 -780 0
-460 0
-622 0
-740 -139 0
-70 0
-667 -865 0
-623 -631 0
-437 731 0
-215 0
-214 0
-684 0
-414 0
-785 0
-967 0
-558 0
-404 0
859 -93 0
-581 0
-76 837 0
-935 610 0
-989 0
-691 0
-397 675 0
-806 0
437 -777 0
-744 -304 0
-545 0
-605 271 0
-936 -200 0
-864 0
296 -59 0
-220 0
778 -669 0
457 -916 0
-987 0
-275 0
-324 -339 0
-398 -188 0
-711 -925 0
-908 -393 0
-46 0
-958 0
984 -315 0
-768 0
-893 -817 0
-689 0
500 -578 0
-862 0
-861 21 0
-255 0
-113 0
-920 647 0
-813 -129 0
-849 87 0
-487 127 0
-455 -273 0
939 -433 0
-317 0
-750 0
-365 205 0
-845 -858 0
675 -692 0
922 -388 0
-960 0
656 -661 0
-465 0
-498 230 0
65 -434 0
-138 0
-723 -490 0
-248 -51 0
-872 -46 0
-760 154 0
-791 -780 0
568 -721 0
-773 -516 0
-526 0
-29 0
-323 95 0
-327 83 0
-751 0
-725 0
585 -170 0
-583 -10 0
-970 -841 0
-242 0
-190 461 0
-395 406 0
-896 0
-874 0
-795 94 0
-979 -235 0
-989 0
-330 0
-97 0
-514 0
-944 -460 0
-381 0
-803 0
265 -207 0
-27 0
-912 0
-843 0
-696 93 0
-375 -454 0
-967 910 0
-581 -866 0
-214 318 0
-283 0
-287 -618 0
-409 0
922 -381 0
-467 0
-487 318 0
-790 -705 0
328 -837 0
532 -204 0
-603 0
765 -809 0
-184 -859 0
-715 0
-241 0
438 -194 0
-4 0
-130 0
-430 -841 0
-210 750 0
-695 -473 0
-816 -60 0
-524 0
-439 -67 0
-120 529 0
-86 0
841 -450 0
-625 0
405 -385 0
-784 0
-316 0
-879 0
-102 -989 0
-800 873 0
-927 260 0
-656 -835 0
-480 0
-236 0
20 -363 0
-698 0
803 -826 0
-872 -393 0
-859 -290 0
-622 0
-601 0
-424 680 0
-380 -108 0
-898 0
-189 0
91 -266 0
941 -538 0
-850 0
-748 847 0
-463 -859 0
-124 0
-253 484 0
-699 0
-157 0
-263 -359 0
-194 0
-784 0
-124 772 0
-157 677 0
-902 0
-654 820 0
-270 -668 0
-996 0
-472 -871 0
42 -589 0
920 -35 0
857 -486 0
-155 -682 0
-543 -897 0
-950 0
384 -62 0
-311 0
26 -706 0
-819 0
-22 0
-204 0
-588 0
-582 -625 0
-767 509 0
-720 470 0
534 -289 0
-790 -427 0
-971 343 0
507 -820 0
112 -805 0
476 -601 0
-679 -825 0
-657 0
257 -341 0
-746 0
-506 0
-587 262 0
718 -905 0
-527 -950 0
-765 -787 0
-263 103 0
-165 671 0
227 -99 0
-995 710 0
-8 0
-731 0
714 -532 0
304 -646 0
-419 -305 0
-436 0
-518 0
480 -643 0
-574 0
-225 -977 0
-381 0
-466 0
-903 -219 0
454 -121 0
-504 584 0
-565 957 0
-996 0
-482 0
503 -825 0
280 -584 0
352 -384 0
-64 0
610 -157 0
-741 0
-232 -412 0
-655 -181 0
862 -377 0
-823 0
-959 0
-582 0
-920 -47 0
460 -212 0
-527 690 0
-570 0
-615 -874 0
-670 253 0
-838 0
-376 660 0
252 -746 0
-460 0
-660 0
-478 -748 0
-499 0
896 -97 0
506 -850 0
-424 0
556 -523 0
-760 0
-108 0
-450 0
-941 0
-155 573 0
-424 0
-39 606 0
948 -931 0
-342 47 0
368 -774 0
325 -682 0
-132 0
-437 167 0
169 -764 0
-611 0
-473 -569 0
-150 446 0
-876 262 0
-736 0
179 -956 0
-814 0
-520 0
-975 274 0
-736 317 0
-476 597 0
-684 0
-418 0
-949 -738 0
-172 0
-870 -900 0
-394 0
531 -858 0
776 -275 0
-429 0
-829 455 0
-876 158 0
-534 0
-643 998 0
-955 0
-417 0
-129 0
-358 531 0
-582 227 0
-982 0
-814 802 0
-87 138 0
-79 -61 0
-595 0
381 -859 0
-370 0
-31 709 0
389 -714 0
-1 831 0
-463 471 0
-845 0
-449 0
-774 86 0
-348 0
268 -57 0
-131 -537 0
-215 -654 0
537 -30 0
-820 0
-577 0
698 -50 0
347 -761 0
-956 -507 0
-8 -122 0
-712 116 0
-395 -667 0
176 -20 0
-445 0
-453 228 0
843 -35 0
-666 0
-980 0
-506 0
-934 -180 0
-420 0
-985 -777 0
364 -940 0
-597 0
-287 0
920 -89 0
-892 0
-688 -981 0
-817 0
-952 -51 0
-258 0
-901 0
-373 -164 0
765 -449 0
-566 958 0
668 -105 0
-445 -444 0
-78 734 0
-988 -577 0
87 -257 0
666 -204 0
-572 -956 0
-742 0
-426 687 0
-790 0
-174 0
-935 -403 0
-418 0
-381 686 0
109 -379 0
-952 -105 0
-890 159 0
-35 -601 0
-27 -763 0
-725 269 0
-404 0
-941 575 0
-941 -682 0
-511 117 0
978 -924 0
779 -986 0
-389 0
-292 -964 0
-577 0
-98 0
-428 997 0
-568 0
-72 0
-630 0
-100 959 0
-212 0
816 -543 0
-145 0
196 -98 0
-723 430 0
-819 0
-920 736 0
-440 82 0
-847 979 0
226 -762 0
-382 61 0
-23 604 0
-237 -515 0
81 -678 0
-606 -157 0
-531 471 0
-30 501 0
-86 -845 0
-496 -71 0
-695 956 0
-439 -556 0
416 -306 0
520 -305 0
-562 -218 0
-886 0
-45 0
-66 0
-977 0
-973 0
-507 981 0
-493 0
-485 0
-12 0
978 -214 0
-952 743 0
9 -173 0
-244 -665 0
-250 0
113 -131 0
-114 -753 0
-935 0
-498 0
414 -178 0
-197 653 0
-701 0
-626 -913 0
-405 70 0
-443 0
480 -260 0
-991 737 0
-226 0
-244 -361 0
-920 -703 0
-719 -197 0
-179 -330 0
-840 387 0
724 -276 0
693 -809 0
699 -259 0
-719 926 0
846 -601 0
-789 0
-837 -9 0
-646 0
636 -106 0
-668 -883 0
-815 0
-759 655 0
-332 0
-904 690 0
-267 343 0
345 -545 0
-630 0
-591 0
-771 0
-835 207 0
-879 958 0
-800 -633 0
-20 -979 0
-708 -923 0
-53 0
-998 0
-168 -708 0
75 -28 0
210 -788 0
564 -169 0
-916 0
-942 868 0
-477 0
-848 844 0
-571 0
-655 0
570 -413 0
-232 105 0
762 -661 0
857 -629 0
522 -962 0
-138 0
-119 -322 0
-798 299 0
-454 250 0
477 -610 0
-370 0
-681 0
-120 0
-415 0
-941 541 0
-394 471 0
-870 -757 0
-605 422 0
-911 990 0
-431 -237 0
498 -660 0
-816 0
-30 0
-297 0
-354 0
868 -524 0
760 -575 0
-821 -449 0
-912 -949 0
-583 0
-837 183 0
-507 0
-895 -590 0
95 -969 0
257 -681 0
196 -314 0
72 -485 0
736 -582 0
337 -78 0
-366 -338 0
259 -163 0
-364 -610 0
-751 874 0
-637 575 0
-1 -601 0
-34 0
-568 0
-455 0
-944 0
748 -705 0
-1000 478 0
-744 389 0
192 -403 0
-291 -794 0
-727 0
277 -577 0
-915 -41 0
-232 846 0
-367 729 0
-593 0
-346 199 0
-511 0
-872 844 0
-784 0
-981 919 0
-924 0
-686 0
-864 794 0
353 -397 0
-875 0
-507 -346 0
-478 0
-182 -246 0
560 -28 0
-269 0
100 -257 0
-242 0
-76 -395 0
-582 -270 0
-950 211 0
-287 -228 0
-887 0
-180 0
-167 -453 0
-939 -970 0
-303 679 0
-486 0
-478 -81 0
-458 0
-182 0
360 -652 0
-747 -402 0
-757 188 0
-892 0
-997 -460 0
-810 0
-387 0
-2 0
-681 0
442 -915 0
-828 -787 0
-175 -91 0
-73 0
698 -34 0
-329 0
-415 -818 0
-855 0
-486 -485 0
-648 0
-835 0
-169 -249 0
-216 -486 0
-131 943 0
-197 0
-783 0
-687 -179 0
-712 0
-68 0
-232 159 0
-533 0
-535 -819 0
-878 0
-166 0
-820 780 0
-209 0
594 -429 0
-319 -666 0
-13 655 0
-662 -516 0
210 -153 0
-580 0
-59 0
418 -130 0
-930 0
-11 0
-248 -524 0
-349 0
-701 0
-935 994 0
-88 0
-744 0
-46 732 0
-253 -50 0
592 -193 0
-755 -251 0
-727 -602 0
-619 0
639 -393 0
-546 279 0
-800 0
-796 0
-571 0
-367 455 0
537 -117 0
-387 0
-663 265 0
144 -168 0
-502 0
-601 0
-995 0
-880 22 0
-679 596 0
-805 -380 0
11 -193 0
-47 532 0
608 -652 0
-189 0
-404 0
400 -429 0
937 -877 0
-886 -729 0
-965 0
-347 0
-108 -555 0
-902 0
-367 -890 0
-165 0
-453 580 0
-768 0
-533 0
-457 0
-483 0
-511 923 0
-573 -332 0
160 -907 0
-287 -578 0
-880 402 0
-408 -352 0
-646 -549 0
-736 -290 0
-759 -786 0
-472 -363 0
923 -530 0
904 -212 0
-888 544 0
-389 925 0
-884 652 0
-741 0
-83 0
-949 -769 0
-909 -938 0
-894 -146 0
-84 -196 0
-110 -852 0
-651 0
-283 0
-420 -139 0
-205 0
531 -220 0
-48 301 0
-389 -554 0
313 -522 0
-915 0
-433 0
-439 173 0
-422 -987 0
316 -914 0
-597 -409 0
-176 71 0
-38 -388 0
-352 384 0
944 -131 0
-328 413 0
-151 0
-294 -139 0
-479 0
-589 0
-156 -129 0
-259 207 0
-331 0
-876 607 0
-711 0
-544 684 0
147 -532 0
-135 -700 0
-307 0
-75 0
-208 0
-998 -402 0
-781 0
-328 -161 0
-474 0
-44 0
890 -546 0
-322 0
504 -541 0
683 -113 0
216 -603 0
-85 423 0
-34 183 0
-718 108 0
-574 0
-84 -92 0
952 -293 0
-261 -533 0
-329 0
-640 -268 0
-861 -852 0
849 -884 0
-288 0
-424 628 0
-962 0
-638 -301 0
-837 0
-174 0
-151 0
-171 -123 0
585 -906 0
616 -683 0
145 -565 0
-727 0
-197 908 0
-893 0
-830 0
-422 0
752 -418 0
-368 -183 0
-321 151 0
-868 0
996 -89 0
-244 -626 0
-135 307 0
-638 58 0
-472 548 0
474 -380 0
-39 0
-485 0
987 -537 0
-120 0
801 -572 0
184 -763 0
-79 479 0
-836 0
-46 -108 0
-366 -710 0
-739 0
-830 247 0
-661 207 0
936 -764 0
-569 0
-488 -30 0
419 -261 0
-318 -925 0
-863 956 0
-913 -401 0
-245 397 0
89 -426 0
-949 564 0
-957 0
52 -178 0
-210 0
-518 0
463 -809 0
-192 0
605 -986 0
-280 0
-877 5 0
-275 807 0
-654 0
-163 0
-917 157 0
-178 0
-117 0
-365 0
-764 -329 0
-622 0
-988 0
-675 0
-647 -145 0
-24 703 0
-470 805 0
-239 0
-126 27 0
-246 602 0
-602 0
563 -317 0
-586 0
-309 877 0
69 -689 0
-148 0
316 -353 0
-886 509 0
-304 0
-520 87 0
-806 603 0
-736 0
-39 35 0
-197 0
-381 0
-755 0
-985 0
-622 0
51 -563 0
-599 0
-471 -822 0
-344 177 0
-944 238 0
-563 0
-189 815 0
-389 551 0
-234 0
-637 -739 0
-509 -364 0
-396 0
-87 15 0
-271 0
-977 0
-867 0
-564 0
-960 0
-742 -262 0
-214 -445 0
-604 950 0
-645 0
-114 0
-433 0
-895 -901 0
-571 0
-740 463 0
723 -740 0
-78 0
120 -845 0
-346 999 0
864 -45 0
984 -87 0
-189 715 0
-734 -849 0
-96 -470 0
-176 -295 0
-552 931 0
960 -780 0
-668 0
-526 0
-566 0
922 -883 0
-121 0
-486 0
-839 0
-839 963 0
-803 0
-790 191 0
667 -269 0
-33 0
-86 506 0
-113 0
-600 435 0
-679 377 0
-926 0
-745 0
-84 -515 0
-997 0
-375 0
-198 0
-694 0
-515 38 0
-191 430 0
-922 -457 0
-596 -244 0
-589 0
401 -222 0
-182 259 0
-359 0
-126 -2 0
-219 0
-731 0
-138 0
-416 -429 0
-973 0
150 -953 0
-788 751 0
-569 0
304 -516 0
787 -460 0
-214 357 0
-209 -185 0
-875 0
-923 0
-819 0
-190 0
-39 327 0
-144 0
-461 0
-99 -993 0
-213 333 0
-525 0
-798 -770 0
289 -182 0
74 -805 0
350 -985 0
-978 0
-463 505 0
-824 0
-135 975 0
-378 903 0
83 -682 0
-148 196 0
-601 0
-932 0
385 -137 0
-917 0
-85 0
-342 678 0
945 -601 0
56 -420 0
-512 -195 0
-139 0
-775 0
-711 0
-499 0
-616 0
-457 0
967 -377 0
812 -738 0
-759 -697 0
916 -298 0
907 -481 0
-159 -932 0
56 -94 0
-208 0
-582 0
-464 0
566 -553 0
-587 0
-141 -642 0
-582 839 0
-879 0
-509 0
-365 0
658 -898 0
-283 -537 0
-557 0
601 -851 0
-268 0
-989 -619 0
-895 0
-584 813 0
971 -699 0
-520 6 0
-422 -202 0
-644 0
-988 389 0
-63 -324 0
-510 0
-855 484 0
-414 0
-992 326 0
169 -415 0
-175 795 0
-603 447 0
-679 0
-765 0
-320 -275 0
-341 -611 0
-608 0
-950 -453 0
202 -662 0
-45 0
-240 0
-63 0
-48 0
-119 0
-901 0
-612 0
-750 0
-865 0
-660 0
-877 0
-968 211 0
-21 12 0
-236 -209 0
-519 -466 0
-918 811 0
-268 789 0
-750 0
-840 0
-694 915 0
-96 56 0
-694 0
-946 622 0
-478 0
-166 0
905 -269 0
380 -809 0
585 -620 0
-304 -490 0
-756 0
-797 0
-102 327 0
-68 -483 0
-186 694 0
-24 0
-525 468 0
795 -11 0
-271 0
-622 -266 0
124 -722 0
-122 0
-663 935 0
-982 629 0
-951 0
-591 -436 0
153 -193 0
-788 0
-992 758 0
-709 0
-623 922 0
-996 0
-629 718 0
525 -482 0
-318 0
355 -556 0
-740 0
-252 614 0
-606 -131 0
-920 -431 0
-893 -963 0
-620 -667 0
585 -164 0
-933 927 0
245 -257 0
-402 0
365 -194 0
-779 142 0
499 -324 0
-449 0
-407 -254 0
-629 0
-485 109 0
507 -306 0
-317 0
-320 834 0
-601 0
-303 221 0
-873 0
-383 -317 0
-741 -115 0
645 -978 0
-512 0
440 -295 0
9 -92 0
-93 0
417 -961 0
-419 6 0
230 -665 0
-560 -350 0
-1 0
-620 12 0
-950 675 0
-506 0
-342 0
-749 0
-635 471 0
-343 -172 0
-231 951 0
409 -130 0
-857 0
824 -986 0
-878 0
-364 0
-795 0
-81 0
-758 -766 0
-670 -378 0
-667 0
-270 175 0
-119 254 0
-245 0
-341 0
-129 0
-828 0
-230 0
-944 -922 0
-827 0
-734 0
-748 0
-983 683 0
-264 0
-991 0
-756 0
247 -73 0
762 -499 0
-531 0
-982 614 0
624 -235 0
-375 970 0
-423 0
-72 -60 0
-65 0
581 -867 0
715 -114 0
-565 -924 0
-212 287 0
-16 -37 0
-979 -354 0
-55 -995 0
-311 -659 0
633 -587 0
-530 0
-998 445 0
-741 0
-227 -506 0
-439 630 0
-546 0
-999 118 0
-531 -794 0
-165 350 0
-30 461 0
-464 -123 0
-211 0
754 -483 0
-605 309 0
485 -81 0
465 -502 0
-981 -147 0
-177 0
-262 -126 0
-63 -691 0
400 -341 0
-72 0
-24 0
401 -161 0
-958 957 0
-241 0
-31 820 0
-843 -370 0
-478 990 0
-976 0
-524 279 0
-229 0
-272 -15 0
-588 0
754 -364 0
-326 0
-285 0
-457 -641 0
-630 0
-593 0
-102 0
88 -762 0
-734 686 0
-635 663 0
-610 0
-582 898 0
-104 0
-679 0
-985 0
-878 0
-368 345 0
-6 -884 0
-741 0
-388 0
-473 0
-339 799 0
848 -100 0
-398 0
-37 -642 0
-300 254 0
-575 0
-528 948 0
-53 0
-271 -306 0
-429 149 0
-296 442 0
-158 0
-301 139 0
458 -990 0
-323 0
-702 -362 0
-276 0
-342 -461 0
-629 615 0
554 -445 0
-752 0
-74 159 0
-351 0
182 -625 0
-528 0
-413 -357 0
-286 0
-952 -494 0
-96 332 0
757 -258 0
453 -947 0
-652 0
-598 607 0
666 -177 0
547 -817 0
-802 935 0
-646 0
-704 -916 0
733 -690 0
-48 -453 0
-733 0
-746 455 0
-969 0
-190 102 0
426 -309 0
820 -147 0
-102 810 0
-454 0
-896 -497 0
-971 798 0
-916 0
-400 0
-424 627 0
-899 0
-297 0
-280 -821 0
-900 -818 0
-367 0
-323 0
-944 14 0
-109 -124 0
-628 580 0
-462 228 0
-847 234 0
-966 0
-505 0
-345 0
-522 911 0
-456 0
-646 0
-549 0
-966 0
-61 0
-210 0
-901 -722 0
-435 0
-275 0
421 -658 0
-527 709 0
-440 0
-593 0
-694 0
-381 0
-175 404 0
865 -665 0
-22 -891 0
-402 0
985 -414 0
-756 0
-574 146 0
-570 0
-136 0
-154 0
-861 0
-6 -852 0
-86 0
92 -67 0
-602 823 0
-703 0
315 -620 0
-54 0
-693 -650 0
-17 0
-912 0
-79 698 0
-413 -900 0
-147 0
-601 0
-814 0
-168 -719 0
-197 918 0
-676 325 0
-263 -739 0
-807 0
-642 0
-771 0
-729 0
-559 -748 0
-73 0
-402 0
-127 732 0
-380 -203 0
-223 0
-895 -541 0
-436 0
-994 0
-395 0
-896 0
-873 0
297 -477 0
342 -865 0
-47 -978 0
14 -473 0
432 -91 0
-563 -633 0
-177 0
-950 0
-48 -22 0
-692 0
-707 -42 0
-96 50 0
-306 0
-87 -205 0
-357 0
-579 0
-323 0
-627 0
841 -75 0
-18 0
-941 -813 0
712 -845 0
-270 0
833 -983 0
-71 0
200 -559 0
-150 0
353 -1 0
-909 190 0
25 -443 0
-940 -635 0
590 -857 0
-659 231 0
-541 -731 0
648 -697 0
-30 931 0
-653 158 0
-607 -779 0
-472 0
-350 0
545 -748 0
-768 -179 0
-953 0
876 -756 0
609 -122 0
-970 0
661 -321 0
-56 0
-992 -38 0
-275 -154 0
-543 15 0
-754 0
-709 0
260 -906 0
75 -690 0
-527 0
147 -329 0
-492 0
121 -837 0
-59 0
-688 -298 0
2 -580 0
-933 0
-234 -161 0
-692 0
-394 0
-129 -113 0
-589 -748 0
624 -868 0
-806 -325 0
-593 -441 0
-108 0
-982 882 0
-854 367 0
-671 0
-603 0
-533 367 0
346 -457 0
497 -906 0
203 -337 0
-555 0
-164 -585 0
-365 108 0
622 -33 0
-501 460 0
-454 175 0
400 -930 0
-808 387 0
-932 245 0
82 -587 0
617 -249 0
-41 0
-103 932 0
75 -108 0
-819 0
-564 -531 0
-921 -25 0
-514 -489 0
-130 0
-597 358 0
-606 0
-567 0
-876 0
-510 -451 0
-831 572 0
587 -833 0
-819 0
-376 573 0
-927 -673 0
-447 745 0
-679 942 0
784 -484 0
-727 0
-880 0
172 -1 0
-571 0
672 -824 0
-407 0
-796 774 0
-704 0
-438 0
261 -169 0
978 -165 0
-269 557 0
-783 652 0
260 -346 0
-632 -305 0
-132 0
491 -100 0
841 -271 0
-807 0
26 -386 0
123 -138 0
-415 0
-678 0
-999 0
-90 0
-392 156 0
780 -266 0
-677 -125 0
-742 0
-332 0
-939 582 0
467 -58 0
-394 0
-594 0
-229 0
-664 251 0
705 -201 0
-917 -739 0
-168 695 0
-590 0
-318 894 0
771 -698 0
-320 -512 0
-435 0
-204 399 0
-337 0
318 -769 0
-995 174 0
-101 -906 0
-150 619 0
-746 0
-616 163 0
-271 -805 0
-934 -420 0
-91 0
-406 -781 0
-243 -625 0
-448 -89 0
-85 0
-643 223 0
126 -289 0
480 -458 0
-643 0
-312 361 0
-912 0
-268 0
-63 540 0
404 -938 0
-368 0
-269 907 0
-767 940 0
-287 0
229 -569 0
-74 0
-333 0
984 -164 0
913 -369 0
-240 -700 0
826 -107 0
-987 247 0
-432 -966 0
-60 686 0
-904 -116 0
-356 492 0
-71 0
-427 0
-40 0
-346 0
-181 -433 0
-558 -628 0
-150 668 0
-886 997 0
-589 -434 0
-193 -841 0
-977 0
-352 -556 0
-550 -620 0
-221 0
331 -122 0
-675 -786 0
-997 0
-570 694 0
208 -596 0
656 -963 0
465 -918 0
-760 0
-446 0
-300 0
-262 0
-86 0
-102 -498 0
-414 -26 0
74 -801 0
-195 0
865 -302 0
-592 -228 0
-157 0
-730 -57 0
-213 -338 0
-166 -284 0
-535 0
-504 -127 0
737 -742 0
-671 63 0
-847 -178 0
211 -145 0
-816 -142 0
-212 0
-886 187 0
-347 0
-413 700 0
-843 0
-259 486 0
-604 0
-528 -880 0
-503 0
-664 180 0
-23 452 0
-658 0
-182 0
528 -769 0
-117 -482 0
-471 245 0
-50 447 0
281 -694 0
-929 0
-916 0
-776 753 0
-992 -300 0
555 -771 0
-711 -651 0
-917 47 0
-497 0
-853 -643 0
579 -157 0
-914 0
-349 0
-373 -594 0
57 -564 0
-697 0
390 -745 0
593 -65 0
-59 -251 0
-676 -698 0
-924 853 0
611 -405 0
-958 0
-6 0
-120 0
-38 0
-956 0
707 -210 0
-602 0
-80 58 0
-99 -945 0
762 -956 0
658 -108 0
274 -641 0
-479 -484 0
-344 0
-527 -485 0
-347 0
435 -418 0
-248 0
153 -284 0
-295 0
392 -36 0
-807 0
-207 554 0
142 -729 0
-230 350 0
-575 0
-69 486 0
-731 0
346 -4 0
-475 0
-408 0
-279 67 0
-663 146 0
-711 -338 0
803 -210 0
-120 657 0
3 -529 0
-640 -722 0
-78 -674 0
-233 0
680 -123 0
-349 -588 0
-186 0
106 -594 0
-149 0
-535 -537 0
-325 -427 0
568 -767 0
120 -396 0
-129 0
560 -162 0
-839 -708 0
-15 -148 0
-664 522 0
316 -627 0
-455 -644 0
-648 0
808 -212 0
-851 -418 0
241 -894 0
-240 0
-195 0
-722 0
418 -934 0
-950 -961 0
-965 191 0
-667 0
-173 350 0
-402 287 0
-87 12 0
348 -28 0
-248 -733 0
-351 298 0
-802 -857 0
-538 0
-648 62 0
116 -218 0
-462 -73 0
330 -109 0
-912 -356 0
-221 571 0
-303 -865 0
-952 0
-752 419 0
-682 -321 0
717 -569 0
338 -484 0
684 -122 0
-199 0
-709 557 0
-296 -212 0
-640 -392 0
-295 0
-590 845 0
-183 -345 0
-448 618 0
-128 0
863 -921 0
-138 0
378 -361 0
-881 0
-863 -391 0
-514 -761 0
-926 -297 0
-990 0
-336 763 0
-485 0
-62 0
-543 0
-472 0
-934 0
-351 0
-245 955 0
-892 286 0
-880 0
412 -436 0
-208 517 0
-328 151 0
-124 0
866 -211 0
-462 0
-416 333 0
-464 843 0
-465 0
109 -563 0
-650 -361 0
-687 -204 0
-440 -579 0
-439 0
-699 0
-696 998 0
-3 0
-454 0
549 -691 0
-20 70 0
738 -837 0
-988 0
59 -537 0
667 -193 0
-358 0
-796 183 0
1000 -38 0
-511 706 0
-189 0
-949 -713 0
-33 0
42 -651 0
-378 -10 0
-627 0
-344 0
-193 0
885 -587 0
-228 327 0
-908 630 0
-628 -843 0
40 -289 0
-190 -561 0
-555 0
-12 -955 0
-880 -850 0
-768 141 0
-992 0
739 -945 0
-58 0
-8 -471 0
-560 743 0
838 -121 0
450 -83 0
-48 133 0
-354 526 0
-406 0
-592 53 0
-13 0
-784 0
-880 251 0
-645 -723 0
-383 807 0
-637 150 0
-150 0
-603 0
-180 0
-751 -165 0
-143 340 0
-647 -20 0
-536 -87 0
-326 0
-926 -517 0
-735 783 0
-504 -482 0
619 -973 0
-31 0
-794 0
-951 0
-372 -722 0
-528 372 0
-916 0
142 -737 0
-188 -386 0
-817 0
-974 0
-368 0
-94 -909 0
-957 0
-244 -561 0
-345 0
-599 0
-965 0
-368 946 0
-392 -94 0
898 -698 0
-273 0
-158 0
-842 0
-916 0
116 -587 0
-698 0
-802 0
56 -185 0
-20 0
-952 977 0
-747 0
-69 941 0
-949 0
-765 -893 0
-155 926 0
-134 0
334 -289 0
-384 -619 0
-371 0
896 -236 0
456 -194 0
-726 0
-101 -195 0
-987 -747 0
-19 925 0
-314 0
-448 -821 0
-15 0
-759 0
-989 52 0
-873 0
-366 0
-108 52 0
-229 990 0
-421 -676 0
98 -643 0
-606 -65 0
-724 0
-787 398 0
-610 0
921 -931 0
-704 711 0
-39 682 0
-792 691 0
93 -859 0
-486 863 0
-502 -738 0
-74 823 0
-572 694 0
-536 554 0
-166 0
-59 0
-548 0
-192 -198 0
-871 0
-952 628 0
-81 0
-654 0
-286 0
-614 597 0
-273 0
-779 0
-32 416 0
-983 415 0
-469 0
642 -100 0
-103 0
-337 167 0
-1000 -682 0
-820 0
-899 0
-582 -202 0
-252 0
784 -44 0
-677 -412 0
-744 0
-568 772 0
884 -108 0
733 -553 0
937 -457 0
-833 0
98 -123 0
-184 -670 0
-141 -442 0
-871 0
-405 0
827 -252 0
-855 -932 0
-940 0
-367 -437 0
-168 933 0
-914 -401 0
400 -244 0
-52 -804 0
-903 -931 0
-251 -753 0
-406 0
306 -785 0
35 -347 0
-660 0
-543 0
-643 0
-49 567 0
-875 0
-29 773 0
747 -300 0
841 -549 0
641 -691 0
-211 711 0
-662 996 0
-45 0
-861 212 0
-276 0
-512 0
-936 0
-155 0
144 -234 0
-219 0
-865 0
-520 531 0
-834 0
996 -346 0
-564 -97 0
-533 716 0
-92 230 0
672 -927 0
-460 0
-807 -510 0
-510 0
402 -758 0
779 -226 0
-847 534 0
-7 -474 0
515 -961 0
126 -450 0
-886 -618 0
-853 0
636 -474 0
-737 0
-866 -786 0
-650 -385 0
-18 0
577 -43 0
-750 875 0
-295 0
-604 -201 0
-16 0
-159 -236 0
-131 -458 0
-277 -466 0
320 -623 0
212 -730 0
-668 0
-317 0
340 -354 0
-480 540 0
-165 495 0
-426 0
-592 0
909 -753 0
-867 0
-244 -738 0
-499 0
-544 0
-508 -722 0
665 -628 0
-217 0
-336 -676 0
850 -21 0
-298 -234 0
-770 0
-246 0
-249 743 0
768 -611 0
218 -546 0
-193 0
-772 -578 0
-534 -613 0
-776 265 0
-960 868 0
-741 0
-603 0
-918 0
-503 0
-226 0
-999 0
-184 -825 0
-831 0
-670 0
-445 820 0
-610 0
-401 0
-895 0
-673 0
-534 955 0
681 -548 0
-92 0
-998 0
-708 -139 0
-391 607 0
-427 0
-698 -673 0
-798 0
-88 91 0
-55 0
-759 -690 0
-310 314 0
-571 662 0
-293 0
-303 -266 0
-552 0
-41 0
345 -204 0
-295 548 0
-410 -705 0
-642 0
-683 229 0
-885 0
-104 10 0
-258 0
792 -681 0
-272 719 0
-947 -290 0
-38 246 0
-55 554 0
-124 -316 0
697 -538 0
-49 0
-636 0
158 -553 0
-417 0
900 -283 0
640 -734 0
-398 0
-699 0
26 -666 0
-777 0
-92 -882 0
-164 119 0
-754 -529 0
-494 927 0
-869 -435 0
-765 860 0
-576 958 0
-886 0
-880 -338 0
-637 0
-393 0
-612 -20 0
977 -654 0
-342 0
-237 131 0
-832 103 0
-152 -136 0
995 -41 0
-83 0
-408 0
-397 -299 0
-307 0
-66 -794 0
-704 0
547 -964 0
-816 -902 0
-487 530 0
192 -832 0
-477 -292 0
-258 0
-80 887 0
737 -249 0
-566 102 0
-107 78 0
-830 -250 0
22 -465 0
-231 0
-534 0
233 -46 0
-816 245 0
11 -523 0
-674 0
-850 0
-152 352 0
803 -442 0
-493 0
-563 655 0
121 -491 0
-309 -875 0
-255 702 0
-976 -147 0
-680 922 0
96 -746 0
-34 0
-99 503 0
-432 0
-46 -197 0
-765 0
-518 -629 0
-422 0
-255 44 0
-912 0
-584 -949 0
-423 0
875 -553 0
-68 0
801 -731 0
-891 -49 0
251 -906 0
-563 0
380 -764 0
-920 331 0
42 -562 0
-817 0
-71 0
637 -914 0
-602 0
-559 0
-757 541 0
-401 903 0
40 -674 0
732 -419 0
-188 0
-227 0
-478 -381 0
-698 0
-267 0
-400 0
-68 -740 0
-56 0
-560 -981 0
-544 0
-259 0
-198 0
-727 -539 0
459 -553 0
-356 710 0
-266 -809 0
842 -684 0
-68 -851 0
-238 0
-741 254 0
-569 0
-622 31 0
218 -745 0
-878 -899 0
-464 -581 0
-295 -311 0
-653 987 0
-623 668 0
-550 -633 0
-544 279 0
944 -23 0
-141 0
-646 -746 0
-881 0
-187 0
-375 0
-535 521 0
-469 -378 0
-355 0
-863 -142 0
-757 0
803 -507 0
745 -382 0
-303 -573 0
-750 0
-294 -270 0
-70 -812 0
-629 -986 0
-45 0
-83 0
-863 -194 0
-165 0
-631 0
-929 0
304 -314 0
-246 0
-440 899 0
-420 0
-526 -850 0
-173 -1 0
-175 -751 0
-14 -994 0
-761 0
-941 -211 0
-488 658 0
-118 0
-349 0
-609 -801 0
806 -241 0
-528 0
-894 700 0
-636 0
-101 0
-235 103 0
-107 -314 0
-456 0
-974 0
-595 0
-604 -514 0
-957 0
-763 0
528 -891 0
-31 988 0
-936 -624 0
-254 93 0
-342 957 0
-83 0
-614 -901 0
521 -206 0
-276 0
915 -164 0
272 -999 0
-811 0
-471 836 0
790 -209 0
-854 677 0
-24 -459 0
-758 0
-451 0
-843 -730 0
-392 0
-72 0
-917 0
-306 0
-619 0
-944 -184 0
-776 -524 0
-343 -18 0
115 -853 0
-195 0
-965 116 0
-871 0
-658 0
729 -719 0
-222 277 0
-561 0
646 -18 0
-68 -330 0
-61 0
747 -508 0
96 -536 0
-93 0
-705 0
-873 0
-176 508 0
-860 0
-743 18 0
-757 0
-319 -814 0
-512 691 0
-77 0
-354 0
-470 0
-762 0
-399 -404 0
-933 -954 0
-116 -323 0
-527 0
-46 -955 0
-148 0
-472 -26 0
112 -294 0
-897 0
-116 462 0
-707 0
-965 0
-500 990 0
-78 181 0
-17 -529 0
32 -936 0
-634 -490 0
-585 -657 0
-151 -892 0
-409 0
5 -699 0
736 -115 0
-532 967 0
-60 -257 0
-782 0
-917 -882 0
424 -383 0
-999 969 0
-328 110 0
-227 0
-295 -633 0
-921 0
520 -534 0
200 -354 0
-412 0
-780 -107 0
-831 -293 0
-693 0
-684 0
824 -410 0
-256 0
-492 0
-456 -436 0
40 -986 0
-598 -794 0
-295 37 0
-374 -702 0
-592 0
-520 -142 0
-228 -474 0
-230 -644 0
-184 -972 0
-393 -537 0
41 -484 0
-975 0
-455 0
-537 0
-751 0
-243 0
796 -153 0
-933 -299 0
-314 0
358 -561 0
-634 70 0
418 -547 0
-921 0
-155 709 0
-630 254 0
-472 0
-953 0
-926 380 0
-590 908 0
-364 0
-320 0
-780 0
-750 834 0
-730 0
-491 -203 0
-974 501 0
-75 391 0
-805 0
-104 0
-167 0
-252 0
-757 230 0
-238 0
-662 655 0
-600 0
-126 -450 0
-404 0
179 -907 0
-510 95 0
-951 138 0
834 -956 0
-141 198 0
-188 -732 0
-992 705 0
-775 -52 0
-264 455 0
-584 387 0
-862 -418 0
-778 0
-32 0
-400 -835 0
101 -75 0
-307 0
513 -47 0
-415 27 0
-856 -737 0
20 -857 0
-805 -561 0
-456 517 0
680 -98 0
-642 0
-99 0
683 -83 0
802 -859 0
193 -746 0
-278 -750 0
8 -642 0
-318 581 0
-456 0
-946 0
-870 -484 0
-255 -780 0
-312 -990 0
-732 -276 0
705 -642 0
-6 -875 0
-903 0
4 -10 0
-277 0
-159 0
-981 -537 0
-86 276 0
300 -690 0
-22 0
98 -347 0
-434 0
-303 0
-171 837 0
496 -459 0
-617 0
-185 0
-761 0
-386 0
-750 -613 0
608 -366 0
144 -71 0
-243 0
-376 0
-823 -724 0
-390 0
-584 93 0
-52 127 0
316 -915 0
-665 0
-836 0
388 -91 0
-284 0
-608 0
-482 0
-341 717 0
-678 -45 0
-91 0
-751 -493 0
-841 0
-377 0
-516 -282 0
434 -210 0
-713 0
-381 204 0
-600 704 0
-688 0
209 -70 0
-856 546 0
-20 0
-909 -548 0
-883 967 0
713 -195 0
-487 0
-620 0
-752 -749 0
-28 182 0
-416 84 0
-548 613 0
-295 781 0
-768 -20 0
452 -170 0
-367 -988 0
-631 0
-824 788 0
-847 0
136 -922 0
-702 -538 0
716 -362 0
-700 0
496 -502 0
-341 -834 0
-278 0
-107 -986 0
-624 0
-148 -601 0
888 -172 0
51 -405 0
-726 -889 0
-773 -299 0
-360 -71 0
-65 0
808 -718 0
-506 0
-440 668 0
-527 740 0
99 -629 0
-204 -708 0
-337 0
-61 0
809 -172 0
-505 0
-383 0
-695 0
-829 0
-110 0
-337 815 0
505 -846 0
-519 -638 0
-815 450 0
-640 418 0
-287 186 0
-463 733 0
-419 -859 0
-368 0
-679 0
333 -946 0
-995 0
-469 -17 0
-334 -541 0
-705 0
-167 -163 0
-205 -842 0
-999 245 0
898 -741 0
-36 222 0
-210 0
-952 819 0
-162 0
-540 0
-117 0
-49 0
-339 567 0
809 -889 0
-587 -105 0
-659 0
131 -729 0
-864 909 0
-837 -322 0
-207 -393 0
-592 -495 0
-847 0
428 -452 0
-770 0
824 -651 0
-672 -81 0
28 -747 0
-853 -755 0
-156 0
-680 0
-752 -196 0
-54 0
-512 -597 0
-355 0
-490 0
-261 -564 0
187 -209 0
-946 -857 0
-819 0
-745 0
432 -112 0
-294 0
-414 0
-224 -828 0
210 -534 0
-14 -853 0
-437 509 0
-734 0
393 -644 0
-664 0
-573 0
-131 0
772 -692 0
536 -522 0
816 -37 0
-503 -773 0
814 -233 0
-619 -930 0
688 -611 0
-329 0
-266 823 0
920 -923 0
899 -777 0
-479 0
-694 -1 0
244 -569 0
-995 0
-165 683 0
-320 -526 0
634 -644 0
-552 466 0
-267 -971 0
-503 0
-774 0
-571 0
-664 43 0
-231 -638 0
-687 38 0
-163 255 0
-365 -196 0
-408 339 0
-928 -153 0
-528 0
216 -90 0
176 -122 0
-428 -866 0
-466 0
-698 -690 0
84 -26 0
-892 0
-383 103 0
-432 0
-318 0
-255 -861 0
-668 894 0
-899 335 0
-427 0
-348 -113 0
-727 0
-928 -777 0
-58 0
308 -170 0
-800 18 0
-230 147 0
-834 0
242 -339 0
-310 461 0
-151 867 0
-120 759 0
-590 0
-404 -724 0
-366 -561 0
-858 0
-692 0
-69 45 0
-142 0
-634 0
-695 -829 0
-254 159 0
-556 0
430 -345 0
-504 695 0
-939 303 0
-310 -332 0
-767 0
216 -489 0
-808 419 0
985 -363 0
-968 -555 0
320 -548 0
-430 0
-955 911 0
-709 0
-558 0
-570 0
-768 -945 0
-744 0
843 -812 0
20 -899 0
698 -301 0
-402 -466 0
-240 871 0
717 -443 0
-862 517 0
-402 0
-832 -73 0
-893 0
-596 79 0
-812 0
-867 0
273 -657 0
-452 0
-580 0
-68 439 0
-767 -555 0
-518 -12 0
-735 0
-896 777 0
-28 0
161 -34 0
329 -95 0
-228 -219 0
-72 -548 0
-616 74 0
-97 0
-599 0
-229 291 0
944 -898 0
-793 0
284 -683 0
-534 0
-836 76 0
729 -73 0
896 -594 0
-703 -980 0
-880 -263 0
403 -372 0
-757 -73 0
812 -321 0
990 -369 0
-508 0
-748 0
-749 -890 0
-439 231 0
-541 0
672 -318 0
-16 0
-796 -938 0
-37 -538 0
-834 -705 0
208 -253 0
944 -742 0
-295 -251 0
-538 0
-157 60 0
-278 742 0
-552 747 0
-432 39 0
-883 -505 0
-556 4 0
145 -135 0
-435 0
-799 -437 0
-650 0
601 -625 0
916 -107 0
-608 -188 0
-805 351 0
-490 0
-393 0
-185 0
-670 607 0
116 -970 0
-615 0
-533 423 0
-891 0
-763 0
-366 965 0
-816 -70 0
-979 0
-901 -523 0
778 -266 0
-560 -375 0
-194 0
-296 -343 0
697 -581 0
17 -164 0
-531 0
194 -340 0
-19 0
-760 -91 0
-839 874 0
-248 0
-974 0
-412 -425 0
-805 750 0
-29 0
-830 0
-9 0
-890 0
-520 811 0
844 -282 0
-263 -285 0
-512 -570 0
-469 261 0
-268 0
-720 548 0
-133 0
-22 -540 0
-608 921 0
-800 0
-381 79 0
-331 0
-800 -851 0
796 -874 0
-764 0
-213 0
-504 225 0
-221 -284 0
-951 0
-936 0
-723 0
-50 0
-90 -97 0
-675 0
-838 692 0
-63 0
-328 0
-133 -369 0
-989 -434 0
64 -255 0
-459 879 0
-718 0
-79 0
198 -297 0
-538 0
-272 0
-872 189 0
-207 447 0
-549 995 0
639 -425 0
382 -769 0
65 -134 0
-207 220 0
-156 527 0
-810 0
-628 492 0
-927 -179 0
-796 133 0
-528 -555 0
-213 915 0
-800 0
51 -673 0
856 -167 0
-34 0
-795 0
-352 136 0
-195 926 0
36 -425 0
929 -999 0
-752 92 0
-480 -374 0
-477 0
-884 0
-755 0
185 -492 0
-109 0
762 -323 0
21 -777 0
-274 0
-640 -646 0
-123 263 0
-558 916 0
-68 -713 0
-721 0
-774 330 0
-659 0
809 -340 0
-619 0
-61 980 0
-720 0
-816 0
-175 0
210 -489 0
692 -779 0
-865 111 0
-380 0
-190 2 0
-530 0
-718 807 0
-1 0
-110 972 0
-22 0
706 -738 0
-407 -290 0
-347 0
-625 0
-825 0
258 -973 0
-161 0
348 -122 0
-551 516 0
-433 0
-455 -473 0
57 -790 0
484 -481 0
-982 -346 0
-439 668 0
-222 0
-858 0
-142 0
450 -697 0
-668 0
-624 -361 0
-21 374 0
-481 0
-914 0
891 -226 0
-487 0
-519 74 0
-64 -557 0
-63 118 0
-31 0
-662 0
-59 -465 0
-210 0
-31 722 0
-398 0
-612 852 0
-123 0
-288 -35 0
-391 0
-603 0
-791 -998 0
-274 0
-863 0
-770 519 0
-438 -849 0
-124 0
-414 -729 0
-452 -35 0
347 -77 0
344 -595 0
-961 0
-516 0
-828 0
-598 -510 0
-554 0
-522 0
-495 -499 0
-111 795 0
-986 0
-503 0
-407 0
-72 0
456 -923 0
-491 0
560 -275 0
-767 0
-374 0
-929 0
-304 -327 0
-995 0
-463 0
-787 0
-238 0
-854 0
-51 686 0
-310 220 0
-685 0
-994 -593 0
-950 -258 0
-15 316 0
769 -855 0
-814 388 0
336 -268 0
914 -117 0
-921 0
-988 0
-717 363 0
-760 0
612 -522 0
-695 -117 0
-703 0
-961 0
-864 651 0
-1000 0
-180 733 0
832 -775 0
-19 -57 0
-117 148 0
320 -461 0
-605 -125 0
-740 -524 0
-2 0
497 -371 0
-183 99 0
-694 0
-762 0
-104 526 0
-85 -601 0
-911 -45 0
-772 0
-311 543 0
-385 0
187 -324 0
-574 0
-998 -235 0
-600 0
-951 60 0
-436 -249 0
-819 135 0
-386 0
-697 0
-207 0
-376 822 0
226 -118 0
536 -212 0
-443 0
-672 823 0
-930 0
-543 -628 0
980 -106 0
-269 0
448 -546 0
-498 0
-852 -690 0
-601 0
-81 0
-656 868 0
-694 0
-765 541 0
-128 0
-720 962 0
-912 692 0
-931 886 0
-886 0
664 -359 0
379 -602 0
-999 0
542 -137 0
-261 0
-895 -454 0
-54 677 0
-904 0
-990 0
-507 478 0
-321 0
-108 0
890 -973 0
-358 -11 0
-843 591 0
-85 -649 0
548 -657 0
-600 -549 0
250 -771 0
-553 0
-133 0
970 -337 0
482 -44 0
-422 0
933 -497 0
-219 0
-703 -862 0
-238 851 0
-503 0
-789 0
-778 0
-661 93 0
360 -940 0
-102 0
953 -596 0
-581 0
-59 0
-121 -313 0
-903 -674 0
-965 0
-409 -297 0
-940 0
-646 0
192 -879 0
-187 -658 0
-993 0
-337 0
-307 0
75 -37 0
-487 554 0
-420 62 0
-429 -132 0
-128 581 0
-3 302 0
-593 0
-965 -372 0
184 -695 0
-494 693 0
-852 687 0
-184 -923 0
-998 0
-636 0
-375 0
-479 -497 0
-788 583 0
-695 462 0
-108 0
-21 -917 0
-111 298 0
-230 965 0
-424 20 0
-773 0
593 -586 0
-35 0
-14 -921 0
-672 0
-458 0
-373 -188 0
-360 -736 0
-416 150 0
968 -456 0
-663 0
-422 0
-828 0
644 -971 0
508 -723 0
-520 0
-603 -418 0
-704 -179 0
-726 -450 0
-991 788 0
-432 0
-673 0
-764 93 0
-387 -970 0
-440 0
-38 0
-165 151 0
-969 0
-213 0
456 -486 0
-678 -427 0
-23 0
-644 -450 0
418 -260 0
-938 622 0
-728 763 0
497 -671 0
628 -793 0
-574 679 0
400 -91 0
864 -343 0
-581 12 0
116 -530 0
-785 0
-564 -91 0
-840 896 0
-552 732 0
-551 291 0
-348 781 0
-730 0
-437 638 0
-845 -977 0
-948 -809 0
634 -524 0
-664 -650 0
606 -737 0
347 -363 0
-699 46 0
725 -666 0
-245 923 0
565 -323 0
216 -514 0
-242 0
200 -419 0
604 -891 0
-613 0
-490 -889 0
-321 0
-47 -450 0
-708 -522 0
-282 0
-445 989 0
-83 0
-711 -493 0
-351 -521 0
-937 0
-568 791 0
-384 0
-341 0
-342 -419 0
-568 278 0
-279 -815 0
-980 925 0
-423 -245 0
-776 954 0
673 -937 0
-346 -617 0
-847 -617 0
-489 0
-809 0
-673 0
-691 0
-854 -225 0
-473 0
-562 0
-627 950 0
-744 -695 0
-771 0
-496 9 0
-819 0
-791 0
-384 -60 0
-931 221 0
-640 0
413 -2 0
-931 0
-556 188 0
-135 -185 0
-122 0
-946 0
-293 -873 0
761 -349 0
-738 0
-756 -882 0
-52 0
731 -708 0
-242 0
-464 -469 0
-959 -251 0
129 -225 0
-478 -837 0
-743 -323 0
-12 30 0
-442 0
-84 0
-658 -969 0
-141 -74 0
-396 0
-142 -259 0
-11 -298 0
-501 588 0
896 -946 0
-847 0
760 -415 0
-335 -610 0
-736 0
-484 -315 0
-660 0
-91 0
-816 602 0
-807 0
-847 0
-624 0
764 -755 0
-951 -821 0
-751 0
995 -275 0
266 -461 0
-159 377 0
-807 -879 0
-784 411 0
-887 0
-88 0
-948 582 0
499 -938 0
-852 831 0
712 -314 0
489 -876 0
147 -314 0
-729 0
-57 0
940 -602 0
370 -876 0
-112 0
-248 730 0
-957 0
-575 398 0
436 -506 0
-152 0
802 -729 0
-344 0
785 -12 0
-434 0
-970 0
-670 0
-155 -529 0
-235 -137 0
-517 -490 0
793 -249 0
984 -511 0
-681 0
-19 -986 0
-928 7 0
-911 0
-47 -148 0
-776 10 0
-647 -542 0
-624 -483 0
-191 974 0
-79 452 0
-863 -35 0
74 -587 0
-116 934 0
-391 0
-932 0
-702 0
808 -75 0
-254 0
-693 0
-451 -873 0
-370 0
-396 103 0
-961 0
-634 0
-774 0
-840 91 0
-331 -665 0
-374 0
-593 0
-720 0
-308 0
-8 -442 0
-919 0
-895 179 0
-461 0
-563 886 0
-957 0
-876 508 0
-733 485 0
-8 -210 0
-959 717 0
-606 -289 0
-959 0
-355 0
-373 0
154 -764 0
-759 86 0
-659 -35 0
-814 0
633 -557 0
-426 0
-459 0
792 -302 0
-871 -948 0
-224 949 0
-686 -571 0
-147 -313 0
-715 0
-518 -961 0
923 -602 0
-42 -466 0
-211 478 0
-486 669 0
-764 279 0
-849 0
226 -84 0
-503 0
-451 0
-62 0
-893 -49 0
-607 -777 0
-597 0
-990 293 0
-877 871 0
-147 -529 0
216 -90 0
136 -275 0
-271 0
226 -539 0
-200 0
-839 -50 0
-109 0
-821 -498 0
-545 -617 0
-827 -290 0
-752 0
-102 -761 0
-611 0
-229 3 0
-848 256 0
-313 0
-764 -972 0
141 -282 0
-992 -286 0
-514 -481 0
-461 966 0
-409 0
-976 91 0
-512 -414 0
-292 0
448 -512 0
-626 0
-972 0
529 -483 0
40 -679 0
-706 0
329 -538 0
-783 -635 0
-555 0
913 -795 0
-59 0
-302 431 0
-441 911 0
-409 135 0
-181 0
-178 0
-81 0
-926 0
356 -228 0
-645 0
-694 0
496 -360 0
-84 717 0
506 -697 0
-683 0
-578 0
-362 -858 0
-660 0
728 -301 0
-303 444 0
-456 -220 0
-962 0
-210 0
160 -934 0
-413 0
-486 -465 0
-362 0
-130 0
-528 379 0
-638 517 0
-396 0
-137 0
-725 0
-461 0
-984 0
18 -92 0
-767 0
-955 0
-516 0
-425 0
-255 0
705 -123 0
452 -690 0
34 -754 0
-258 0
-622 -972 0
-843 0
-596 5 0
265 -141 0
-233 0
-728 -639 0
-317 -395 0
504 -524 0
-605 0
345 -953 0
-628 0
-406 -316 0
-175 866 0
-396 0
-534 -930 0
-653 0
-185 -713 0
-424 0
861 -315 0
-537 0
-203 0
-327 0
-792 -17 0
-178 0
696 -724 0
-373 507 0
363 -836 0
538 -691 0
-485 0
-454 -149 0
-693 -985 0
-96 -160 0
272 -878 0
-926 292 0
-763 0
-426 0
-799 0
-199 -683 0
905 -627 0
-995 0
-669 28 0
-260 0
-101 0
-339 7 0
-462 612 0
-97 527 0
-782 -298 0
-379 -98 0
-920 -21 0
-683 693 0
-290 0
-946 -2 0
-47 686 0
-854 884 0
-515 0
-959 0
218 -501 0
-781 -11 0
-449 0
771 -669 0
-727 -899 0
-526 -157 0
-608 0
984 -603 0
495 -969 0
-797 700 0
-556 0
496 -162 0
-398 570 0
-992 0
-201 0
-178 0
339 -403 0
637 -498 0
-503 317 0
-263 818 0
-742 0
-722 0
-806 -652 0
-762 0
-73 0
-198 565 0
178 -581 0
-738 0
-780 0
-967 0
-715 0
-408 0
-768 0
-725 0
-88 0
-927 0
-183 -897 0
-132 -475 0
-823 -497 0
-141 -298 0
-573 -465 0
-198 786 0
927 -145 0
-451 -378 0
-519 -362 0
-354 847 0
-959 0
-368 0
-479 0
-768 615 0
-855 154 0
-514 0
-26 0
-7 0
-870 0
-60 527 0
-151 -541 0
-763 0
-695 931 0
-272 0
-463 0
-451 0
-847 0
-874 0
-919 0
-852 125 0
-168 579 0
-363 807 0
-253 0
-610 0
349 -131 0
-570 0
-966 523 0
-662 -406 0
-400 -836 0
-790 133 0
309 -913 0
-443 0
24 -260 0
-917 -793 0
155 -994 0
-452 550 0
280 -745 0
-694 0
-345 175 0
200 -586 0
-664 864 0
-360 -928 0
-647 501 0
-134 0
-806 0
529 -766 0
-879 -165 0
-272 807 0
-632 0
-730 -601 0
-133 783 0
-883 0
-416 0
851 -564 0
-991 597 0
-834 198 0
-480 0
-177 0
58 -859 0
-979 -67 0
-695 -566 0
-35 710 0
-778 0
-952 0
-175 0
-381 0
-622 620 0
-745 -801 0
-444 885 0
-409 0
881 -450 0
-941 0
-635 0
-221 -635 0
-236 540 0
-523 -795 0
-93 0
-245 0
-663 -501 0
-671 164 0
-582 458 0
560 -343 0
59 -691 0
-802 262 0
75 -497 0
522 -636 0
352 -815 0
-717 0
562 -353 0
-128 -971 0
-334 0
-674 0
248 -8 0
-470 -204 0
-184 0
-148 -329 0
-282 0
-122 0
591 -193 0
313 -187 0
-76 815 0
-847 -500 0
297 -534 0
-82 0
715 -491 0
936 -182 0
-607 490 0
-55 0
986 -644 0
-925 0
380 -524 0
-120 0
-480 0
86 -721 0
-939 0
-269 -483 0
-901 -81 0
-948 0
975 -289 0
-847 301 0
-79 -13 0
-902 0
-293 0
-680 0
344 -774 0
882 -165 0
-279 449 0
-523 -186 0
-126 685 0
-936 666 0
833 -217 0
254 -585 0
193 -802 0
-684 0
-514 551 0
-369 0
-347 0
-894 0
-896 327 0
-680 -128 0
236 -659 0
-204 0
-90 0
-752 0
-526 -469 0
481 -590 0
-476 0
-852 -938 0
-455 -155 0
-715 598 0
-307 0
-414 -27 0
-599 0
-13 310 0
892 -777 0
-215 0
-105 0
-500 0
468 -107 0
-30 -396 0
-460 309 0
-176 -692 0
-575 0
-936 529 0
-544 828 0
-264 6 0
-857 0
-429 871 0
-847 0
-246 639 0
-331 0
-39 0
-312 0
988 -139 0
99 -769 0
-464 -658 0
-730 0
368 -14 0
-488 -961 0
76 -786 0
945 -717 0
-22 0
-744 466 0
-820 223 0
-474 0
-527 414 0
-539 0
-948 0
114 -434 0
-334 0
-478 -210 0
-567 -505 0
-15 0
-814 0
-489 0
424 -599 0
-447 959 0
-766 739 0
-989 821 0
-670 -969 0
-597 124 0
-674 -297 0
-61 0
-109 0
-41 0
-417 0
-747 0
-373 0
-620 0
-816 -418 0
-816 0
-868 0
850 -929 0
-831 886 0
-125 86 0
-271 866 0
-584 -627 0
754 -821 0
-495 -239 0
-656 -873 0
640 -658 0
677 -586 0
-891 630 0
-638 0
-677 -819 0
-228 0
-758 763 0
-525 0
-896 0
-711 -451 0
-122 0
-537 -681 0
-243 581 0
-302 887 0
845 -482 0
-197 -730 0
-429 709 0
-511 0
-139 0
-952 370 0
-221 -602 0
-837 415 0
-957 -773 0
-151 -675 0
-606 0
-435 0
-932 -65 0
-149 0
-103 203 0
-446 0
-749 -802 0
-722 0
24 -881 0
-790 0
-763 0
-24 0
-568 -421 0
-772 0
-407 -941 0
-990 167 0
-359 686 0
726 -41 0
-150 19 0
-369 0
-296 0
352 -525 0
896 -765 0
-583 315 0
-860 -713 0
-846 378 0
-896 -364 0
-880 -452 0
-762 0
-768 0
-198 -860 0
760 -213 0
-859 0
-392 -666 0
-334 -597 0
-964 -386 0
593 -292 0
42 -29 0
916 -290 0
-662 0
-29 0
-516 -50 0
-920 0
-34 0
331 -169 0
-171 942 0
-605 0
637 -883 0
-615 0
-468 0
-146 0
-680 0
-328 823 0
-419 -866 0
-648 -178 0
-388 0
-887 453 0
-828 805 0
-31 0
-427 0
-462 0
-677 0
-496 0
-276 669 0
-200 -816 0
520 -619 0
-827 0
-960 -417 0
273 -367 0
116 -906 0
946 -258 0
-526 828 0
-584 -205 0
347 -333 0
-988 0
-669 -33 0
-496 0
-795 0
449 -694 0
-183 702 0
829 -97 0
-712 -201 0
-230 0
746 -876 0
389 -978 0
-950 -593 0
-808 911 0
-766 0
986 -30 0
-988 0
-502 0
-806 0
-883 0
-127 674 0
817 -299 0
-643 0
-726 812 0
-863 0
-698 0
-824 -502 0
-910 0
-816 866 0
-810 0
-510 146 0
-787 0
417 -955 0
-160 -187 0
-39 191 0
-168 433 0
-830 204 0
-484 -716 0
-901 0
-328 0
-959 174 0
-978 0
821 -491 0
-811 309 0
-590 -270 0
288 -83 0
-181 863 0
-686 -652 0
-136 -345 0
-918 710 0
-678 -489 0
-420 -12 0
-118 0
-487 -644 0
-927 0
-733 0
-215 0
-790 0
-359 -37 0
-528 -980 0
-491 0
-716 0
458 -268 0
-80 -774 0
-654 0
-632 0
-556 0
-344 0
-627 -466 0
-1000 -682 0
-159 564 0
-118 0
-101 790 0
-28 -850 0
-316 0
-189 0
-31 -346 0
-552 0
291 -619 0
-709 915 0
-937 0
-312 827 0
-728 569 0
123 -898 0
-176 -492 0
312 -940 0
-784 98 0
716 -778 0
-341 -763 0
51 -217 0
441 -154 0
-944 941 0
-607 -343 0
-195 0
914 -99 0
545 -442 0
-321 0
262 -25 0
-948 0
-918 -873 0
-443 0
-253 204 0
579 -875 0
-768 0
-432 463 0
-776 -616 0
-851 -834 0
29 -738 0
76 -74 0
701 -169 0
-452 -915 0
774 -809 0
-961 0
-656 396 0
-733 967 0
424 -239 0
-429 -612 0
-900 0
-801 0
-916 981 0
-824 127 0
-415 -345 0
-626 0
-542 -586 0
-380 -713 0
-630 0
-461 -101 0
-952 0
729 -196 0
-285 0
-310 0
-32 -136 0
292 -713 0
-312 -100 0
-668 0
-768 -437 0
593 -163 0
-878 0
-438 -481 0
-742 0
-7 -526 0
-198 710 0
-566 0
-591 -684 0
-198 -481 0
-355 0
-631 -483 0
-712 0
-764 0
128 -30 0
-899 0
-446 205 0
-932 0
-410 0
-818 0
206 -218 0
-590 0
-427 0
-424 286 0
187 -283 0
-569 -769 0
-14 0
906 -805 0
-26 0
-317 284 0
-483 0
-31 982 0
-266 0
-753 0
-229 0
58 -977 0
-386 0
-70 906 0
-525 -147 0
-955 -937 0
-813 0
-541 0
-910 0
746 -19 0
-830 -425 0
-508 190 0
-263 -630 0
-549 756 0
-925 0
-748 0
-20 -443 0
280 -879 0
-854 0
577 -278 0
-176 719 0
-621 -251 0
-429 0
-812 351 0
-606 -266 0
-144 888 0
-215 0
-766 379 0
-88 0
-561 0
-569 -825 0
717 -802 0
-768 0
144 -153 0
-743 -194 0
-38 0
-932 324 0
-888 0
-704 0
547 -506 0
-189 0
-835 0
265 -717 0
-595 807 0
497 -413 0
-424 0
-294 0
-255 -213 0
-295 -265 0
88 -988 0
186 -646 0
2 -25 0
-649 0
-969 0
945 -739 0
-854 0
848 -54 0
-408 195 0
-450 -170 0
603 -459 0
938 -580 0
-670 0
-600 17 0
651 -505 0
-368 185 0
969 -518 0
-96 217 0
-226 -217 0
-998 0
-983 0
-272 0
602 -60 0
-213 0
-606 171 0
-902 -646 0
-447 0
-614 0
-983 366 0
-257 0
-686 910 0
-311 0
-145 0
-961 0
424 -179 0
-181 739 0
66 -851 0
-439 982 0
467 -572 0
320 -764 0
-871 -466 0
-663 0
480 -727 0
-247 0
-189 0
-950 0
688 -741 0
-44 0
-824 -82 0
538 -21 0
-413 -82 0
-700 70 0
-894 -51 0
-162 -249 0
-924 0
-868 0
-115 0
-172 0
-811 0
-566 0
-467 325 0
-20 -282 0
-472 -682 0
-495 0
-18 -994 0
-752 942 0
-428 0
-115 0
-573 0
-811 383 0
979 -393 0
-839 -523 0
395 -2 0
-104 0
-488 -437 0
-100 0
-750 -789 0
513 -3 0
-784 0
-318 0
760 -732 0
208 -105 0
-592 0
-631 845 0
-99 0
-723 0
344 -404 0
-270 739 0
-159 906 0
623 -129 0
-14 0
-29 -994 0
448 -491 0
-457 0
-566 783 0
-723 0
-341 -466 0
-795 197 0
-24 289 0
-921 0
90 -658 0
-768 0
-454 559 0
-253 0
202 -18 0
-909 0
-894 -621 0
-824 383 0
-638 486 0
371 -426 0
921 -282 0
-83 0
-264 0
-44 0
571 -770 0
-900 0
-32 260 0
-219 0
-972 -26 0
-145 0
-768 -137 0
-356 -75 0
-328 581 0
-262 0
-172 606 0
-430 236 0
-365 0
-509 0
-931 0
76 -170 0
-98 0
-877 -948 0
777 -635 0
344 -26 0
-816 -626 0
-327 0
-839 0
-607 -189 0
-255 0
-15 -530 0
281 -250 0
-845 -250 0
-806 0
-862 -395 0
652 -354 0
-748 0
-380 0
458 -155 0
118 -521 0
938 -526 0
-300 0
-879 0
-866 0
-422 0
-372 -27 0
-623 -186 0
-747 0
-578 -393 0
-200 0
-128 0
-774 0
-352 94 0
-184 300 0
418 -481 0
-865 0
571 -347 0
-971 0
-550 0
-982 0
202 -205 0
-955 703 0
-224 871 0
-389 0
-107 398 0
-890 -17 0
-412 486 0
656 -479 0
-653 0
-660 412 0
-636 -754 0
-764 -545 0
-310 247 0
-365 0
-984 -375 0
-132 0
-197 508 0
-322 0
-362 0
-914 -650 0
-698 0
156 -387 0
-447 0
-472 0
-999 -741 0
-225 -177 0
-164 581 0
-960 0
414 -169 0
-23 0
-673 0
-165 0
696 -623 0
-606 652 0
-407 0
-764 0
-817 0
776 -940 0
328 -922 0
-169 -817 0
-8 -249 0
91 -3 0
865 -355 0
-965 -205 0
-108 0
-508 638 0
-306 47 0
-568 0
-924 0
-797 0
853 -170 0
-853 348 0
-390 0
-395 -889 0
-980 0
374 -665 0
-926 0
187 -473 0
345 -357 0
-574 -932 0
48 -931 0
-323 149 0
673 -118 0
-782 0
537 -863 0
352 -741 0
-680 -762 0
-617 0
-587 0
-767 983 0
-853 0
-431 -748 0
-693 0
-359 676 0
-526 187 0
-839 -673 0
-176 804 0
-503 -89 0
-744 0
-696 0
-634 0
-155 0
-603 0
-127 83 0
756 -770 0
-707 0
-696 0
-804 0
-349 -77 0
-113 0
-619 550 0
-186 0
-838 0
-251 0
-125 0
-511 375 0
-373 -269 0
-773 0
-106 0
-32 -257 0
-148 -913 0
-654 -93 0
664 -249 0
-354 0
-466 0
-219 0
-43 895 0
-175 860 0
-62 -563 0
-68 -897 0
236 -659 0
696 -411 0
-97 0
-528 261 0
-144 -773 0
691 -532 0
-687 0
-792 239 0
-848 21 0
-556 0
-279 0
-427 -218 0
-305 -57 0
-140 0
-324 703 0
-520 -584 0
-842 0
-685 0
-783 0
-149 -265 0
-61 -731 0
356 -874 0
-32 -278 0
-995 0
201 -818 0
-568 478 0
-645 0
-292 0
-30 590 0
-311 0
-148 0
-507 0
-493 -955 0
-695 763 0
904 -672 0
82 -674 0
-165 -826 0
-310 238 0
-886 0
328 -795 0
-409 0
187 -803 0
-242 0
-156 836 0
-95 0
-170 319 0
-171 0
-535 -533 0
-275 829 0
-139 0
-943 -420 0
-488 -291 0
952 -418 0
-897 0
-400 -915 0
-759 269 0
-660 -443 0
-101 285 0
-605 -721 0
512 -240 0
-63 0
844 -82 0
-520 275 0
-165 373 0
-616 0
-687 458 0
-163 0
-92 702 0
-114 0
-528 0
-819 231 0
-633 0
-110 -677 0
-678 0
-845 0
-682 0
-527 -422 0
-480 0
561 -41 0
-262 0
-55 41 0
-366 -148 0
-179 0
40 -321 0
-852 0
-551 519 0
736 -311 0
-163 0
-255 0
-385 0
-664 -786 0
-986 0
617 -253 0
-781 575 0
-824 -215 0
-521 0
-260 0
-792 0
-82 0
-835 0
593 -185 0
-387 0
935 -273 0
-833 -905 0
-77 -569 0
200 -219 0
-367 0
-480 215 0
747 -85 0
-930 0
137 -11 0
81 -314 0
-294 0
-384 453 0
-854 -442 0
-286 279 0
-275 -433 0
-311 0
491 -411 0
-714 727 0
435 -475 0
-878 -332 0
-788 -281 0
-171 0
971 -980 0
592 -558 0
-170 0
859 -668 0
-89 0
-108 189 0
-604 0
-182 0
-925 0
-64 0
-636 -395 0
-308 0
-303 0
-78 77 0
-605 0
-836 111 0
-135 540 0
-482 0
-655 853 0
-744 -549 0
-723 0
-181 -43 0
-604 -714 0
-246 0
-865 0
-863 -399 0
-462 -146 0
-169 0
974 -66 0
-933 -819 0
522 -786 0
-576 0
858 -218 0
-113 0
-457 0
-191 0
-753 0
-880 -347 0
-745 0
-259 13 0
-372 -619 0
-752 850 0
-253 301 0
-16 809 0
9 -106 0
938 -388 0
-656 -802 0
-779 0
370 -889 0
-619 0
-317 931 0
-38 0
-409 0
90 -801 0
-415 34 0
-222 0
235 -1 0
858 -290 0
676 -49 0
-16 1 0
-393 0
-66 -913 0
409 -993 0
-616 0
596 -410 0
722 -209 0
-953 0
-156 -187 0
-448 -843 0
-568 -264 0
-989 589 0
-551 0
-443 0
-285 0
-864 0
-197 0
-730 0
-533 923 0
455 -777 0
-262 -709 0
-742 -522 0
-457 0
208 -298 0
-478 -636 0
-123 0
389 -450 0
-676 -18 0
-71 0
299 -685 0
-19 471 0
-651 0
-335 0
-934 290 0
-923 743 0
-416 -725 0
-165 0
-542 0
152 -417 0
-235 0
-77 0
-789 0
-885 0
-766 0
-935 406 0
656 -827 0
-577 55 0
-76 0
-580 -257 0
953 -51 0
-357 0
-578 0
541 -705 0
-36 -659 0
585 -647 0
-334 630 0
-287 359 0
384 -658 0
905 -946 0
-470 300 0
248 -471 0
384 -229 0
-51 0
948 -131 0
-846 31 0
-852 0
-279 -134 0
176 -886 0
-253 -867 0
-813 -489 0
-592 -309 0
-568 0
-560 0
-209 0
797 -570 0
-448 0
-285 718 0
-93 -659 0
-118 -346 0
-508 0
177 -35 0
-383 0
-349 0
-134 323 0
-575 0
-459 -810 0
853 -643 0
-196 0
-601 0
-232 937 0
-622 581 0
-570 671 0
-139 5 0
-607 -68 0
-277 0
-36 0
-271 0
58 -683 0
-759 -998 0
-198 0
-566 0
-901 879 0
107 -540 0
-461 540 0
-348 975 0
-334 0
-479 0
-427 -634 0
-996 901 0
406 -881 0
689 -883 0
-626 0
-736 0
904 -567 0
-613 0
-510 0
-190 164 0
-241 0
-712 -576 0
498 -842 0
-294 0
-530 0
-601 0
-903 500 0
-624 300 0
-469 -980 0
-851 230 0
-711 -541 0
51 -443 0
-17 0
-276 0
-586 0
-306 718 0
-157 205 0
-762 47 0
58 -453 0
-936 246 0
-440 0
-891 0
-684 -850 0
-8 139 0
-13 0
-1 -770 0
-692 0
632 -54 0
-503 -65 0
865 -276 0
-150 0
552 -271 0
481 -993 0
-523 0
-909 613 0
-414 0
921 -292 0
-345 0
-228 -3 0
-879 0
759 -481 0
-149 -285 0
-790 -756 0
-229 0
-929 0
-394 0
-453 599 0
827 -114 0
-807 -913 0
160 -889 0
-447 0
-399 -62 0
-816 -983 0
984 -729 0
-823 0
-256 0
-200 -587 0
-92 -457 0
-711 0
-66 990 0
-668 -428 0
-845 -124 0
-667 911 0
-713 0
-27 0
-897 0
-275 0
-482 487 0
821 -426 0
801 -545 0
-833 0
-837 45 0
-158 0
720 -815 0
-788 0
-952 0
-680 -125 0
265 -549 0
-684 -641 0
-839 -67 0
811 -561 0
-255 -623 0
-754 0
666 -948 0
-429 -875 0
-99 677 0
-782 0
-794 0
665 -866 0
441 -481 0
474 -217 0
-728 0
-488 979 0
-777 0
874 -666 0
-519 0
-85 -209 0
-167 117 0
-864 207 0
-469 0
-480 59 0
-444 0
-28 0
-867 -169 0
-838 -433 0
-496 932 0
-360 921 0
-509 -299 0
-192 0
-136 491 0
-366 0
-463 -5 0
-854 0
-944 0
-21 397 0
-243 0
-412 0
-28 0
363 -713 0
-438 0
-503 594 0
-765 0
-572 860 0
-101 -885 0
-266 0
-59 0
-174 23 0
-105 0
522 -697 0
930 -410 0
-874 -49 0
-638 0
40 -380 0
244 -434 0
401 -930 0
-615 -817 0
-458 0
-313 0
-704 207 0
-94 -477 0
-272 0
425 -621 0
-240 0
-551 0
-968 0
-120 0
825 -588 0
-957 0
-674 0
705 -622 0
-312 -76 0
814 -841 0
-879 0
318 -402 0
-293 111 0
-431 -785 0
-576 0
-246 322 0
-406 0
-968 913 0
-56 -128 0
-223 0
197 -377 0
-240 0
-911 -99 0
-299 0
-826 -274 0
-286 0
-655 0
-303 0
-933 822 0
418 -243 0
-803 0
-800 -231 0
-568 0
-407 529 0
650 -10 0
-898 -402 0
-901 0
-320 -553 0
-887 269 0
-12 -554 0
-445 -675 0
-306 -873 0
-600 604 0
-748 454 0
-422 -866 0
-507 551 0
741 -362 0
-16 0
-860 814 0
-182 71 0
762 -916 0
-685 0
-963 0
-959 0
890 -380 0
-278 0
-597 0
-149 -268 0
289 -682 0
-559 578 0
-223 0
-409 0
-717 222 0
-196 0
-443 -978 0
587 -442 0
820 -737 0
-341 -419 0
-840 -450 0
-472 428 0
-46 -153 0
-407 -835 0
-583 0
-698 -753 0
-53 -210 0
-367 62 0
-718 0
-186 0
-503 778 0
-981 -347 0
-77 -5 0
-792 -375 0
-118 0
-444 0
-504 0
-88 613 0
-253 -300 0
-373 -996 0
-399 0
-602 0
378 -970 0
-702 260 0
-383 90 0
794 -675 0
-196 0
-952 -527 0
-440 -596 0
-586 0
-134 -764 0
-494 0
-803 -713 0
-279 581 0
-543 0
226 -914 0
-734 0
-999 899 0
-8 820 0
-548 0
-10 0
-77 -691 0
-862 615 0
-426 543 0
-283 383 0
-752 0
-526 0
-892 502 0
-832 0
-691 591 0
721 -974 0
-213 0
-708 399 0
-892 279 0
102 -361 0
-508 -537 0
-512 563 0
-846 438 0
-449 0
-924 0
-782 0
-629 -634 0
792 -809 0
-662 0
-86 0
52 -756 0
-32 -21 0
-400 -459 0
-157 0
-326 -629 0
-442 -770 0
-5 -338 0
-500 0
-808 0
-639 0
-906 0
-408 -13 0
-495 716 0
-753 0
-120 10 0
-752 -609 0
369 -542 0
-351 -907 0
-5 0
-42 0
547 -59 0
-26 0
-285 652 0
-125 -844 0
-259 0
-476 0
-825 0
-259 910 0
-432 -995 0
-286 524 0
-815 -81 0
-358 0
-939 -178 0
882 -653 0
-442 0
-847 -796 0
-58 -593 0
-168 -859 0
-704 0
-889 0
749 -850 0
-340 0
-912 -27 0
-501 0
-99 0
-252 -627 0
-439 171 0
-494 0
-878 0
-528 810 0
-457 0
912 -456 0
-107 0
182 -881 0
-142 0
-318 -811 0
-761 0
-218 174 0
-581 0
683 -155 0
-301 0
-83 0
-208 526 0
-564 206 0
-821 0
-79 0
-731 0
-958 0
201 -235 0
-235 0
-198 -306 0
-334 -10 0
-259 -978 0
-513 0
-519 182 0
-280 740 0
-291 911 0
-708 0
-775 0
-849 0
-903 0
-422 -530 0
-787 0
-29 0
-657 0
-141 -299 0
-632 973 0
220 -419 0
-389 -202 0
-714 599 0
-216 469 0
-839 0
-648 994 0
-622 0
-358 0
-188 0
-544 0
-159 612 0
-182 615 0
-283 0
-92 -361 0
-747 -427 0
440 -342 0
-840 -886 0
-382 0
-825 0
-462 0
-542 11 0
80 -940 0
665 -47 0
-979 -586 0
-918 122 0
-950 342 0
-134 477 0
-710 -459 0
-523 0
-392 677 0
27 -764 0
337 -661 0
-200 -75 0
-667 0
-411 310 0
-752 0
-272 -502 0
226 -962 0
-169 0
-158 -866 0
-246 0
-426 0
377 -83 0
858 -860 0
-654 -771 0
-194 -57 0
-642 -601 0
-218 -561 0
-462 508 0
-55 0
-653 0
554 -937 0
-53 460 0
-319 -156 0
-415 658 0
-328 0
-146 -185 0
-878 0
-899 703 0
-950 0
274 -147 0
-239 0
-98 0
-2 0
-800 288 0
-746 0
-78 0
-902 0
-453 0
-525 0
-886 0
-332 -403 0
904 -758 0
200 -571 0
-70 354 0
609 -278 0
-179 0
-440 -505 0
-741 -363 0
-504 798 0
-108 0
-933 0
-897 0
-175 0
-88 231 0
-211 0
-108 0
817 -481 0
-454 -273 0
-415 0
-864 0
-326 -794 0
-901 694 0
-577 0
725 -169 0
-344 0
-332 0
-973 0
-245 -75 0
-398 -522 0
-912 -959 0
-444 -291 0
-568 0
-565 0
91 -829 0
-350 0
-909 143 0
657 -444 0
-229 0
-909 0
442 -194 0
-246 -739 0
-677 0
-896 556 0
-504 853 0
-441 0
355 -594 0
-514 0
-430 0
-1000 106 0
626 -748 0
-109 0
657 -581 0
-487 0
-405 0
28 -51 0
-612 0
-208 -422 0
-656 0
-880 96 0
-254 0
-663 910 0
-679 0
-5 0
-176 279 0
289 -996 0
-492 0
-462 0
-392 0
-685 -860 0
-824 0
-894 351 0
930 -781 0
-792 893 0
842 -649 0
-772 -993 0
-967 174 0
-748 287 0
-735 806 0
605 -139 0
-535 773 0
-767 -23 0
-919 0
-879 -623 0
26 -554 0
-48 1 0
593 -537 0
-727 469 0
-749 420 0
539 -565 0
-775 -66 0
-995 0
-904 0
-610 766 0
-52 844 0
280 -751 0
-909 0
-99 0
-689 0
-414 -53 0
-566 781 0
-924 301 0
360 -841 0
-198 828 0
970 -225 0
-84 0
-214 0
-622 0
-190 -756 0
833 -151 0
953 -675 0
-855 0
-613 0
-237 0
-119 0
-609 0
-200 631 0
-769 0
-703 -767 0
-125 -57 0
-426 -898 0
-512 548 0
452 -251 0
-305 0
-21 141 0
600 -381 0
859 -394 0
-142 0
-200 133 0
-300 0
-546 0
-816 0
-116 805 0
-707 -978 0
-487 -921 0
-248 379 0
-88 517 0
-437 -141 0
442 -892 0
-502 -322 0
944 -731 0
-780 0
-727 887 0
-559 754 0
-711 845 0
-203 0
-356 0
-912 -366 0
-462 0
-784 -370 0
-234 0
-297 0
-85 799 0
-915 -337 0
802 -203 0
-794 0
-589 430 0
-655 0
729 -414 0
-611 727 0
-657 0
-553 0
672 -110 0
-128 150 0
505 -635 0
-888 117 0
-205 0
905 -330 0
-294 421 0
632 -212 0
-156 0
759 -913 0
-698 0
-199 0
489 -193 0
619 -859 0
-987 246 0
-120 -765 0
-717 -730 0
-584 0
-696 0
-716 0
1 -550 0
-900 0
-535 0
-313 0
-634 0
-797 -73 0
-975 -419 0
-477 76 0
-165 845 0
-248 -846 0
-483 693 0
-17 0
-784 -620 0
-947 0
617 -298 0
-95 855 0
-399 -982 0
-743 398 0
-524 -99 0
-767 25 0
-326 604 0
820 -51 0
-378 0
-598 692 0
-252 0
-769 0
-23 0
-151 0
-352 -303 0
-486 407 0
-256 -206 0
-389 0
-501 0
-180 -203 0
-871 507 0
-914 0
-149 -57 0
838 -226 0
-22 -761 0
-30 0
-255 749 0
-698 -273 0
-100 -57 0
-841 0
379 -825 0
-921 0
-854 0
-924 0
-839 0
-178 0
-401 0
-830 0
283 -82 0
-690 583 0
-420 -538 0
-590 0
-891 -34 0
-466 831 0
529 -814 0
-592 380 0
-860 0
105 -427 0
365 -187 0
657 -1 0
-994 0
-623 -123 0
-40 786 0
-245 558 0
-901 -44 0
-305 0
-382 0
-848 272 0
-715 0
978 -614 0
-325 0
-20 -266 0
-421 404 0
-262 964 0
-897 0
880 -900 0
136 -377 0
-312 259 0
-262 0
-787 -354 0
-807 0
-259 830 0
-160 911 0
962 -157 0
-712 629 0
-997 612 0
-704 0
-8 0
-642 0
-499 0
233 -266 0
-25 0
386 -801 0
-214 0
-470 -722 0
-367 0
-45 0
-419 0
296 -670 0
-284 -435 0
-460 911 0
26 -795 0
-308 0
-691 0
-976 486 0
-532 0
-238 -139 0
-676 0
-612 0
-472 -838 0
345 -650 0
-50 0
291 -497 0
-654 0
202 -346 0
894 -489 0
-847 -645 0
-190 0
-404 862 0
793 -303 0
-430 -457 0
-95 -953 0
-566 -651 0
962 -533 0
-981 -885 0
-233 0
-113 0
-966 868 0
-143 0
-799 994 0
-415 -246 0
-522 0
-968 659 0
-24 -350 0
-194 991 0
26 -493 0
-974 0
202 -587 0
-120 0
-200 346 0
-920 572 0
-608 0
-183 -875 0
322 -914 0
-740 -531 0
969 -678 0
-731 0
-776 -572 0
-776 241 0
165 -937 0
-342 0
98 -372 0
978 -875 0
-567 0
88 -846 0
-492 0
-821 0
-337 0
-797 381 0
-180 -649 0
312 -602 0
-766 -874 0
-572 0
-661 0
-408 0
-215 566 0
614 -970 0
79 -841 0
-328 749 0
866 -642 0
-151 0
624 -923 0
-921 0
-960 0
577 -594 0
-293 0
513 -123 0
30 -945 0
-80 283 0
107 -355 0
448 -308 0
-487 0
-845 -762 0
-417 0
-547 -67 0
-655 -131 0
715 -875 0
-613 -794 0
-373 684 0
441 -450 0
-515 0
-607 0
-479 -326 0
-781 0
-453 -236 0
776 -995 0
-763 0
-269 -323 0
-344 -294 0
-667 191 0
-181 903 0
104 -278 0
-502 -380 0
-363 0
-158 92 0
-576 0
-647 0
-76 748 0
-47 0
-738 519 0
-296 0
-558 -763 0
911 -393 0
-580 0
-393 0
-211 -769 0
-295 453 0
908 -836 0
-414 -398 0
-868 -284 0
-716 -211 0
197 -298 0
-774 423 0
-894 0
253 -82 0
-980 637 0
-360 576 0
-146 0
-236 814 0
-936 624 0
-204 0
-708 870 0
-144 -444 0
-528 549 0
-693 -993 0
-755 0
-187 173 0
456 -562 0
403 -195 0
-181 371 0
-468 0
-436 0
779 -379 0
-406 694 0
986 -294 0
-44 -617 0
212 -724 0
-513 0
-260 677 0
-988 702 0
421 -298 0
-681 0
-761 0
-529 0
-181 731 0
-229 -572 0
-29 0
-835 110 0
-963 990 0
-408 0
-308 0
-724 -257 0
-477 499 0
-34 951 0
-308 100 0
-788 101 0
-949 -564 0
-288 0
-161 0
-396 207 0
-594 0
-247 -926 0
-158 0
33 -729 0
-760 536 0
-591 441 0
-95 735 0
-807 -673 0
-409 0
-571 -451 0
-168 0
-410 -474 0
-567 -425 0
-505 0
-200 0
-281 0
-128 0
-264 -853 0
-589 0
-167 0
474 -394 0
-152 0
478 -857 0
493 -185 0
-375 0
-911 -233 0
65 -650 0
-119 0
-699 -930 0
-139 0
-222 -250 0
458 -161 0
-79 733 0
-198 0
-475 878 0
-46 -524 0
-421 0
-621 0
-452 -764 0
-386 0
-806 931 0
-558 0
290 -691 0
-300 -91 0
-99 -538 0
-784 0
-403 -546 0
587 -449 0
133 -602 0
-920 0
-476 -242 0
-844 638 0
-565 0
-452 0
-99 575 0
-11 0
-315 0
-340 0
-756 -106 0
-319 -195 0
538 -948 0
-246 0
-199 772 0
-966 -661 0
962 -165 0
115 -237 0
-279 -19 0
-464 0
-776 -341 0
-302 294 0
-263 169 0
298 -842 0
-899 -754 0
-159 -650 0
-759 0
-134 0
-286 519 0
-484 -307 0
-208 193 0
-871 -612 0
-518 -812 0
-799 610 0
281 -315 0
-499 -641 0
-783 0
-61 0
-974 0
-559 -318 0
747 -979 0
-287 -388 0
103 -265 0
-647 891 0
-70 0
-118 364 0
-835 502 0
-456 -576 0
-904 0
-543 477 0
-329 0
-662 -53 0
41 -818 0
602 -393 0
-18 0
-321 -857 0
-189 0
-404 0
-540 -585 0
-241 0
-230 514 0
-740 0
-432 0
-881 0
-624 722 0
-800 -657 0
234 -443 0
-666 0
-167 242 0
-868 -980 0
-404 0
915 -276 0
148 -361 0
-299 0
-834 0
33 -987 0
770 -268 0
-418 -585 0
-480 0
599 -897 0
16 -506 0
-64 0
395 -595 0
-859 141 0
891 -923 0
-680 417 0
-237 431 0
-260 -90 0
-447 0
10 -403 0
-320 -962 0
-736 0
-181 -340 0
-733 -561 0
-103 548 0
-504 -153 0
-813 -738 0
122 -181 0
-985 0
356 -265 0
-622 0
-925 445 0
-78 -817 0
-885 0
-936 0
-523 486 0
-787 0
-731 0
-380 421 0
136 -206 0
-871 669 0
-289 0
-24 0
-62 0
-916 0
-702 0
-198 85 0
-303 0
577 -932 0
-225 0
892 -283 0
-311 -419 0
-977 0
-175 -917 0
-982 0
-827 223 0
-702 -595 0
-352 -629 0
-372 -825 0
-655 54 0
-837 0
51 -708 0
-30 -673 0
-614 716 0
-843 0
-907 0
-129 0
203 -835 0
-360 70 0
-989 -59 0
-249 0
-362 -129 0
-902 0
-788 324 0
-477 246 0
-451 766 0
-416 -533 0
-617 0
206 -458 0
-139 0
-234 0
216 -426 0
394 -721 0
-780 0
-202 887 0
-672 -865 0
-221 918 0
691 -436 0
744 -231 0
392 -523 0
-604 430 0
296 -590 0
-823 0
-761 0
-222 0
-534 -173 0
-436 -163 0
-198 0
-92 0
-421 821 0
-214 -161 0
-647 260 0
-320 -988 0
-366 -766 0
-756 -827 0
-447 35 0
-248 0
-778 -745 0
-962 0
-837 0
818 -901 0
978 -641 0
-368 -785 0
-382 0
-112 -358 0
-125 0
-400 375 0
536 -335 0
-49 0
-378 0
-718 -140 0
-861 702 0
920 -536 0
352 -178 0
984 -905 0
-183 -194 0
371 -19 0
-270 0
-585 0
-655 0
-245 -813 0
-357 0
-979 0
-272 0
-967 0
-663 -761 0
-354 -553 0
-896 806 0
668 -708 0
-453 -957 0
-627 0
201 -70 0
-600 394 0
-506 0
-762 0
186 -819 0
-223 0
-821 191 0
-253 0
-799 -594 0
-232 0
-824 478 0
-160 0
-801 -233 0
-591 0
-128 295 0
21 -562 0
-283 0
-980 535 0
337 -973 0
-211 0
-23 -751 0
346 -69 0
761 -716 0
-124 0
430 -258 0
745 -629 0
-981 0
-928 852 0
-96 0
-938 -777 0
-744 0
-734 0
-540 318 0
-283 0
-485 0
-684 6 0
290 -765 0
-576 904 0
-872 993 0
-935 603 0
-55 230 0
-139 0
934 -785 0
-989 -522 0
-537 0
-792 -651 0
-571 -570 0
-540 0
-66 0
-770 0
-336 0
490 -241 0
-495 0
-467 133 0
-417 -857 0
-896 -179 0
-183 -459 0
-646 -876 0
-327 -241 0
473 -572 0
-731 0
-941 0
-909 -940 0
-926 -178 0
-384 0
-21 0
-645 -433 0
-775 0
-320 -837 0
905 -298 0
-149 0
-174 -707 0
-15 0
-145 0
-107 0
178 -404 0
-264 -993 0
-600 0
-576 -1 0
-204 149 0
-791 -580 0
-873 0
-902 -363 0
182 -530 0
-449 0
-947 885 0
-240 -112 0
-582 -145 0
-997 21 0
-364 252 0
-535 -111 0
-93 -874 0
-356 0
-376 0
642 -186 0
-687 0
-683 0
-616 -978 0
-763 0
-887 -306 0
-528 693 0
36 -987 0
873 -561 0
-584 184 0
-30 -65 0
113 -886 0
-344 -219 0
-20 0
370 -25 0
-463 226 0
92 -498 0
-643 0
-290 510 0
-175 715 0
-271 -721 0
-427 0
-737 0
-359 -946 0
-221 -427 0
-712 0
-707 -745 0
267 -249 0
493 -26 0
569 -877 0
-163 -339 0
769 -682 0
-14 0
-987 0
-535 0
-176 -12 0
-864 -415 0
584 -850 0
521 -826 0
-703 -620 0
-790 612 0
-454 686 0
907 -409 0
-355 0
931 -747 0
-957 -860 0
-104 0
-486 -611 0
246 -482 0
-364 495 0
-108 -682 0
-526 -708 0
-48 -27 0
146 -77 0
-84 0
-604 0
332 -675 0
-584 -762 0
-625 0
-338 0
-462 0
560 -859 0
-891 -442 0
134 -706 0
-550 651 0
229 -618 0
-496 -759 0
-349 0
-867 0
-168 655 0
-32 482 0
-604 783 0
-215 0
945 -691 0
-127 0
-912 -579 0
898 -977 0
599 -89 0
-116 0
-872 -307 0
-68 -122 0
-846 0
-269 -730 0
-320 -310 0
-685 468 0
-175 0
-380 0
416 -523 0
-270 501 0
76 -3 0
-656 -339 0
-676 0
-565 403 0
-916 0
-383 -68 0
-831 893 0
473 -257 0
-516 0
420 -313 0
367 -337 0
-79 0
-707 0
890 -165 0
-676 -321 0
552 -799 0
-564 0
-944 -701 0
-240 -532 0
-941 0
578 -853 0
-96 -860 0
-800 0
-278 -380 0
-327 -14 0
-259 0
-119 -363 0
-740 0
-336 9 0
-263 230 0
-360 0
-774 262 0
-347 494 0
-704 0
-990 0
-600 -315 0
-543 396 0
656 -513 0
-278 0
-568 0
-495 -505 0
-772 0
91 -901 0
-296 -737 0
-375 0
-173 63 0
-823 -139 0
-424 -465 0
497 -865 0
-190 0
-17 0
-935 0
800 -892 0
-489 0
-751 0
499 -764 0
-166 495 0
-528 781 0
-191 -745 0
-48 -713 0
170 -564 0
861 -299 0
-923 -51 0
-748 133 0
-591 -349 0
-414 -154 0
-162 0
96 -663 0
-161 0
111 -401 0
-911 0
-768 85 0
-184 0
-621 109 0
225 -702 0
-440 0
-190 0
-966 530 0
-252 -314 0
-174 -644 0
-703 918 0
267 -537 0
378 -578 0
-989 982 0
-445 407 0
913 -769 0
-311 0
905 -873 0
-599 0
-468 0
-93 0
-541 147 0
-715 0
-982 -316 0
-13 0
-276 -530 0
-133 -434 0
645 -585 0
-28 0
-836 -529 0
970 -1 0
-301 0
-491 0
-151 908 0
-503 0
-701 0
-765 -724 0
67 -282 0
-803 0
652 -802 0
-400 246 0
-700 718 0
-803 -689 0
-53 0
-783 867 0
227 -732 0
-678 36 0
-590 0
305 -521 0
-370 0
-869 540 0
-277 0
977 -937 0
-82 0
-379 0
-472 369 0
-316 -202 0
-552 0
-84 -626 0
-654 0
-106 -570 0
606 -601 0
-844 0
-668 0
-704 -285 0
-774 518 0
611 -805 0
-113 0
305 -478 0
-663 202 0
-838 0
-864 0
104 -227 0
-605 0
-448 0
-39 -530 0
-749 412 0
-565 -323 0
464 -702 0
-615 0
-362 0
-687 0
-552 140 0
789 -531 0
-972 878 0
-109 0
-48 0
-193 0
-393 0
838 -281 0
-976 0
-370 0
-776 0
689 -749 0
417 -630 0
-703 -132 0
-134 -2 0
712 -510 0
-922 0
-98 0
-490 0
-770 0
-407 -39 0
-360 183 0
-392 0
-950 0
-597 0
-104 196 0
-112 -449 0
-977 0
-688 0
-288 764 0
-391 -490 0
-348 0
-664 868 0
-840 -670 0
-526 0
-889 0
371 -196 0
-512 347 0
-461 660 0
-188 20 0
4 -787 0
-702 -826 0
-199 46 0
-14 271 0
3 -84 0
-561 295 0
-195 190 0
-219 0
-507 133 0
-663 -974 0
-214 0
-839 0
-569 0
-552 -510 0
-56 51 0
-442 0
-728 0
-607 0
-995 0
806 -641 0
-195 669 0
-292 743 0
-574 451 0
-902 -546 0
-567 458 0
-823 0
-971 0
-527 260 0
-591 0
-256 801 0
-82 0
-211 0
-131 0
-400 0
-267 0
-850 0
33 -83 0
561 -89 0
-567 0
-783 0
-996 -835 0
-142 550 0
744 -295 0
-792 519 0
586 -217 0
-886 139 0
162 -138 0
-754 0
-177 0
-860 0
-872 0
-281 -825 0
-623 0
-974 484 0
-678 707 0
-686 370 0
595 -618 0
-482 343 0
907 -500 0
-97 0
-560 0
-879 0
-343 598 0
-615 -729 0
-580 -716 0
-437 0
-582 0
-303 876 0
-816 -827 0
-376 418 0
-288 0
-399 818 0
-750 0
-440 -215 0
-908 0
537 -106 0
-446 799 0
-270 741 0
-934 0
-160 0
-550 253 0
-90 -770 0
-104 260 0
938 -989 0
193 -59 0
-354 0
-614 750 0
-424 0
706 -676 0
113 -513 0
-775 756 0
-174 0
-395 0
-373 0
-173 0
-613 0
-313 0
145 -215 0
-778 0
-120 687 0
-336 -977 0
946 -634 0
-32 619 0
-457 0
-167 -845 0
-184 117 0
-415 0
-465 0
-586 0
-20 -91 0
-408 0
-495 -899 0
-516 -107 0
-337 0
-459 0
-502 659 0
-773 0
-699 814 0
-622 0
-216 106 0
-628 0
-739 -82 0
859 -83 0
723 -913 0
-476 0
996 -27 0
-246 -707 0
-559 0
-584 498 0
-229 -852 0
808 -823 0
-319 0
-789 399 0
-923 0
616 -371 0
-38 317 0
-460 158 0
-952 0
-374 887 0
828 -964 0
-778 0
-122 591 0
994 -749 0
499 -706 0
930 -706 0
-379 0
888 -247 0
452 -770 0
-447 0
-328 19 0
-501 -579 0
-96 0
-76 84 0
-744 0
696 -615 0
-104 0
-590 47 0
422 -442 0
-226 0
-861 0
-762 0
-294 -881 0
-844 0
-402 -34 0
-302 0
481 -622 0
-465 0
-151 230 0
-57 687 0
-716 0
33 -862 0
-735 0
-543 943 0
-436 0
-960 0
-848 722 0
-152 -550 0
-606 -149 0
733 -441 0
-343 -561 0
-127 862 0
-958 -142 0
-133 0
-315 0
-934 948 0
-41 0
-583 0
-540 0
858 -850 0
488 -244 0
-330 0
-996 -555 0
-348 796 0
-639 0
240 -840 0
-34 0
-272 -227 0
-288 0
-175 0
-577 0
-550 0
-368 916 0
-933 285 0
-36 -323 0
-807 0
-883 0
-222 932 0
-323 0
557 -883 0
-431 -866 0
780 -706 0
-838 0
960 -387 0
-222 0
-256 836 0
-879 775 0
-181 0
626 -899 0
-592 -687 0
561 -820 0
-577 -521 0
16 -158 0
28 -250 0
-104 -175 0
867 -803 0
-373 -273 0
-669 -293 0
-764 0
-359 745 0
257 -769 0
-453 0
-80 0
-503 0
-20 -931 0
13 -993 0
-547 -858 0
-45 -57 0
-94 -233 0
937 -586 0
-372 -387 0
-919 -628 0
-57 -865 0
-687 766 0
-966 203 0
-362 0
-399 503 0
-610 -633 0
-350 -989 0
-61 695 0
-950 0
-443 -649 0
-747 0
-745 0
-718 758 0
-167 566 0
-403 0
-519 259 0
941 -289 0
635 -611 0
736 -806 0
-190 959 0
-118 0
-111 0
-768 -636 0
-194 334 0
-453 -532 0
-729 0
-999 201 0
-243 142 0
-575 0
-288 504 0
-889 0
202 -902 0
-684 638 0
-401 0
-406 587 0
-430 139 0
-695 570 0
-694 0
-858 0
-559 0
148 -273 0
-950 0
56 -985 0
-544 -330 0
-234 0
-813 0
-357 0
674 -153 0
-889 0
-244 0
-440 -65 0
-614 0
-935 218 0
-278 -430 0
-370 334 0
-205 884 0
-560 559 0
-75 0
-664 -343 0
-118 287 0
-649 0
-11 759 0
-583 165 0
939 -898 0
-869 0
-174 -498 0
-816 470 0
-599 878 0
-779 -986 0
-351 0
-70 0
-535 0
-527 0
-469 -3 0
-497 0
-551 -580 0
25 -379 0
600 -908 0
-733 14 0
-751 -284 0
-726 0
-163 894 0
-908 957 0
-304 -186 0
-424 415 0
825 -567 0
-759 0
-868 742 0
-102 0
-962 -993 0
-40 117 0
-250 0
-198 700 0
671 -657 0
-654 299 0
-647 257 0
-799 -539 0
40 -436 0
789 -434 0
18 -437 0
-174 0
213 -147 0
-128 -800 0
-129 0
-173 0
517 -810 0
-198 0
-352 0
-916 0
-391 0
-590 0
-923 0
-952 675 0
-147 0
-928 -500 0
-975 -694 0
-240 0
921 -169 0
-776 929 0
-891 0
-673 0
-454 -614 0
-492 0
-649 0
-821 0
-423 0
-973 246 0
-405 -412 0
-785 0
601 -877 0
-308 -748 0
634 -627 0
-479 914 0
-136 -988 0
421 -650 0
-735 -541 0
-104 21 0
-716 -617 0
-292 205 0
416 -791 0
331 -844 0
259 -330 0
-822 0
-335 260 0
-263 0
-338 0
-216 0
-454 -49 0
-712 -547 0
-934 0
-340 0
156 -772 0
339 -332 0
670 -857 0
-17 0
428 -938 0
-315 -385 0
-397 0
-553 0
-79 763 0
-533 0
481 -463 0
1 -917 0
-339 0
-264 0
-32 -358 0
-72 0
-263 723 0
-699 0
-819 -123 0
-583 0
-715 0
673 -228 0
-485 0
-257 0
-111 0
-511 0
-414 0
-164 0
-81 0
-937 0
320 -957 0
-659 0
-241 0
-511 -491 0
636 -164 0
-431 0
-471 0
-172 0
-391 0
-231 0
-85 -587 0
-144 0
-958 0
-628 -242 0
-695 -602 0
-336 0
-295 247 0
-296 725 0
-206 0
-603 -145 0
-305 0
-960 0
-215 0
38 -25 0
-895 -150 0
-160 106 0
-817 0
-186 231 0
408 -236 0
-517 0
-174 0
-8 -437 0
-190 0
-931 0
-640 0
280 -156 0
-965 -637 0
-487 0
-537 0
-969 0
-63 0
914 -938 0
-537 0
-231 665 0
-38 886 0
-550 -637 0
-983 -294 0
-341 -930 0
-406 342 0
-581 845 0
-766 0
-851 0
-142 -301 0
-480 8 0
-629 -225 0
-927 767 0
-872 0
-831 0
834 -61 0
356 -84 0
-940 374 0
-839 0
-62 0
-384 911 0
-587 -1 0
-422 0
344 -616 0
-16 931 0
-552 779 0
-432 -180 0
-171 -938 0
722 -558 0
-974 0
-61 -755 0
-998 0
-223 0
-396 469 0
-648 762 0
-312 322 0
-192 -590 0
-902 0
-976 863 0
984 -708 0
-678 0
-771 0
-660 -666 0
-960 0
-886 922 0
-976 0
-991 0
-956 542 0
-287 -4 0
-846 0
-608 -884 0
-925 134 0
-983 187 0
-351 0
-910 702 0
352 -371 0
-967 -453 0
-893 -745 0
-403 0
153 -809 0
-343 0
916 -825 0
-370 0
-543 533 0
-664 0
677 -305 0
-395 -689 0
-444 0
-939 390 0
-638 -609 0
-129 0
-932 -578 0
-391 0
-45 0
-605 414 0
-504 637 0
-618 -393 0
-496 0
-492 998 0
-175 -702 0
-615 364 0
-974 0
-926 -692 0
-547 0
-829 -394 0
-816 0
-943 -517 0
-656 0
329 -125 0
-348 0
-832 -265 0
-433 0
19 -209 0
-110 0
-248 0
-896 442 0
-80 275 0
-813 654 0
-654 0
-792 -803 0
-168 -30 0
-942 0
-646 0
-565 -906 0
-390 -275 0
880 -899 0
191 -985 0
-385 0
-22 0
-712 547 0
-392 778 0
-128 299 0
-257 0
-68 0
-855 675 0
-678 139 0
-336 -507 0
-506 0
-867 -369 0
-811 0
-426 0
460 -977 0
740 -465 0
-128 0
-812 0
-949 0
-269 414 0
-931 0
-184 0
-300 0
-971 -777 0
-843 0
-399 -534 0
-230 -774 0
-43 0
-183 -764 0
-916 0
-540 85 0
-189 -868 0
-349 -417 0
-516 0
-685 0
-57 0
-149 0
-377 0
560 -391 0
224 -756 0
-611 0
18 -138 0
-420 0
-232 0
-329 0
-431 0
-797 423 0
-814 -564 0
-412 508 0
-120 0
216 -506 0
-940 0
-188 0
-8 683 0
-996 0
-935 -26 0
-811 447 0
131 -380 0
-975 -834 0
-33 0
-671 -412 0
-789 844 0
-606 774 0
-328 0
964 -532 0
-581 -755 0
-5 0
292 -692 0
-88 271 0
584 -739 0
-751 0
-823 0
48 -662 0
-726 0
161 -802 0
-386 0
-210 0
672 -421 0
-781 117 0
-681 0
-60 269 0
-112 873 0
-849 0
-448 493 0
-268 862 0
-141 0
-420 -66 0
-889 0
-168 -574 0
-620 0
-996 133 0
-878 -994 0
-558 0
-147 0
-877 0
-655 214 0
-949 389 0
251 -732 0
-533 0
-502 607 0
-998 -589 0
-231 -886 0
-134 60 0
34 -761 0
-743 -372 0
-89 -449 0
-23 0
-568 0
-130 0
-100 0
-217 0
-568 0
-253 0
-963 -313 0
-652 0
-414 0
-13 559 0
-647 -759 0
-632 227 0
-791 -939 0
-999 0
-238 108 0
-373 0
-38 0
866 -177 0
-197 0
-898 0
-955 0
48 -994 0
-511 -68 0
-826 0
-667 655 0
-431 -607 0
443 -101 0
-876 0
152 -78 0
385 -580 0
320 -970 0
52 -731 0
-892 0
-79 -692 0
-709 0
-223 0
102 -609 0
355 -21 0
-604 0
-285 -530 0
-876 0
-967 -698 0
-16 770 0
-836 0
-973 0
-222 -57 0
-433 0
-414 871 0
-854 548 0
801 -219 0
-855 -778 0
-129 0
-568 0
11 -124 0
-104 805 0
-545 0
-727 978 0
-968 679 0
-708 0
-558 -731 0
-655 0
-138 0
-538 0
-101 701 0
-100 0
347 -201 0
-487 251 0
545 -837 0
-840 777 0
-828 102 0
-685 0
-833 0
155 -162 0
34 -387 0
492 -193 0
298 -588 0
-712 0
-154 0
-664 -62 0
-27 -233 0
-798 -668 0
-276 -297 0
-470 0
80 -457 0
-427 -170 0
-491 0
730 -453 0
-679 875 0
-158 436 0
-503 0
361 -297 0
-210 399 0
-480 563 0
-31 0
-95 0
-709 0
-635 0
-918 30 0
-750 -829 0
-719 -881 0
-344 0
608 -617 0
-302 -337 0
-72 168 0
-70 0
-75 0
-647 0
-742 0
852 -139 0
489 -407 0
-843 0
-976 456 0
-640 -979 0
-687 -449 0
291 -970 0
-480 0
-88 265 0
74 -617 0
267 -916 0
-72 0
844 -514 0
-279 23 0
-441 0
-430 533 0
62 -874 0
164 -387 0
-927 -812 0
-499 0
344 -679 0
393 -293 0
-180 -377 0
-66 503 0
-697 0
-416 -963 0
-683 0
-894 0
-38 -187 0
-256 0
-750 -685 0
-872 132 0
-271 919 0
-210 0
-845 118 0
-261 -578 0
-304 0
-112 266 0
790 -169 0
-583 0
-134 -331 0
698 -161 0
-317 195 0
497 -221 0
-918 0
-736 0
-653 0
-290 0
-380 0
-37 0
-879 165 0
-794 823 0
778 -677 0
-645 0
-15 -28 0
-407 -180 0
771 -26 0
564 -147 0
-204 0
-900 -180 0
-951 -452 0
-181 -91 0
520 -114 0
274 -387 0
-181 -122 0
849 -779 0
-424 0
952 -696 0
-198 830 0
-431 0
-871 -868 0
-706 0
-812 0
-966 0
-396 0
-928 0
-986 0
-111 981 0
-176 -670 0
-533 -929 0
-786 0
-28 973 0
602 -769 0
-651 0
-944 931 0
-212 0
-788 -780 0
-781 0
-819 0
-543 903 0
-920 0
-199 0
-22 540 0
409 -451 0
-276 -802 0
-622 559 0
171 -220 0
-397 423 0
-472 558 0
252 -443 0
-847 -518 0
-117 0
-62 986 0
-363 0
-48 0
-991 0
-960 -208 0
520 -205 0
-215 652 0
-880 372 0
-23 0
-455 -967 0
-834 279 0
1000 -646 0
697 -708 0
-749 -73 0
-952 -349 0
-101 0
-553 0
-404 0
405 -713 0
-12 0
106 -406 0
-102 533 0
-849 0
-370 406 0
-448 0
-67 0
-462 -918 0
-39 0
-389 -228 0
419 -428 0
-700 549 0
-670 0
-703 -931 0
-151 -542 0
-491 0
-525 -820 0
273 -804 0
-799 0
-96 -591 0
-788 -635 0
-694 0
-493 -250 0
-697 0
-110 0
75 -317 0
-572 0
-743 0
-610 -505 0
59 -705 0
-496 0
-252 0
-471 0
-326 -730 0
-293 -291 0
-56 0
-750 691 0
771 -938 0
802 -195 0
105 -396 0
-208 859 0
-670 -882 0
-561 0
-84 381 0
-408 -125 0
-712 0
645 -585 0
421 -433 0
-235 0
-532 0
-279 118 0
-762 0
196 -858 0
-488 -889 0
691 -811 0
-403 0
-741 0
-222 0
-55 0
-739 902 0
784 -958 0
-152 0
624 -652 0
-685 677 0
-347 0
-248 426 0
-784 0
-330 -258 0
-156 0
66 -757 0
-664 841 0
-124 814 0
-528 297 0
-752 -310 0
-400 0
296 -601 0
-894 -555 0
-155 0
-743 -634 0
-368 -143 0
-455 990 0
-952 0
-319 842 0
-276 0
-663 834 0
-62 0
-719 413 0
-175 0
-653 0
-727 -829 0
172 -929 0
-310 485 0
-908 0
-158 0
564 -753 0
-442 0
457 -670 0
-140 0
885 -242 0
-756 0
119 -409 0
809 -236 0
-501 36 0
-676 605 0
387 -51 0
-18 -401 0
-487 0
-255 60 0
337 -591 0
-571 -761 0
-350 -393 0
-991 -573 0
-240 786 0
408 -483 0
-28 0
-687 0
-275 -97 0
-616 0
368 -522 0
-996 0
-246 0
-928 369 0
-861 -787 0
-532 -243 0
-199 -530 0
-557 0
-749 775 0
-691 0
-919 -2 0
-841 0
-100 0
82 -899 0
-470 -44 0
-680 0
-996 0
-844 -930 0
-331 0
-173 0
840 -559 0
-158 0
-374 0
-954 0
585 -987 0
-575 -865 0
-164 0
-972 0
-854 0
-357 0
-824 383 0
613 -825 0
-575 155 0
442 -285 0
-544 -744 0
192 -591 0
538 -29 0
-180 -474 0
-348 0
432 -420 0
-126 0
656 -451 0
393 -909 0
-902 -210 0
-783 -289 0
-104 0
793 -525 0
-655 -406 0
-78 0
-763 0
-877 972 0
931 -740 0
-72 -763 0
-824 198 0
-941 0
-889 0
-292 22 0
-32 -39 0
-380 0
-95 0
-560 -967 0
-994 0
-955 0
-733 -849 0
324 -329 0
881 -605 0
360 -400 0
-96 837 0
928 -326 0
-645 -812 0
-490 927 0
-487 631 0
-240 -922 0
-645 0
-656 -353 0
-231 -243 0
856 -314 0
-370 0
-659 0
-148 -652 0
-960 0
112 -469 0
-231 0
-549 0
-646 807 0
-96 0
-211 0
801 -26 0
-91 0
-84 799 0
-692 -226 0
-602 0
685 -825 0
-21 0
512 -212 0
-799 989 0
-600 773 0
641 -582 0
-924 0
-864 -689 0
-220 614 0
-630 -155 0
-53 0
-300 0
-40 767 0
-14 223 0
-551 0
-307 0
-958 0
272 -212 0
97 -812 0
584 -573 0
465 -842 0
-383 -267 0
-159 0
-403 0
410 -493 0
-562 0
-651 0
-280 630 0
-479 -902 0
-864 -350 0
-868 0
-663 0
-942 0
-600 867 0
-96 -795 0
-923 0
-297 0
-814 0
-685 0
29 -402 0
713 -786 0
-70 -436 0
350 -530 0
-783 809 0
-120 -301 0
-967 0
-262 251 0
-882 0
-495 -635 0
-599 0
632 -838 0
-258 0
-15 681 0
-436 0
-159 0
-41 0
-369 0
-16 -955 0
-986 0
-163 -897 0
-815 258 0
-197 -419 0
-992 -426 0
-653 0
293 -442 0
-783 0
-608 -453 0
-970 0
-847 0
-723 366 0
-135 -74 0
-934 883 0
-919 0
-180 0
-608 0
-511 524 0
-750 0
-84 887 0
-801 0
-497 0
-478 0
-814 820 0
-8 0
-996 -331 0
-8 -731 0
-792 917 0
-54 -689 0
-5 0
-565 -556 0
267 -971 0
-802 0
-174 -686 0
-444 0
-841 0
-583 447 0
-245 147 0
-117 0
-76 380 0
-391 357 0
91 -285 0
-134 -793 0
-437 -90 0
-40 -894 0
-373 0
529 -133 0
284 -482 0
-803 0
-47 540 0
-64 -365 0
-160 -486 0
-399 -508 0
-334 92 0
-667 350 0
-644 0
452 -228 0
-448 0
-564 0
-295 -9 0
-532 695 0
-917 -58 0
-655 -198 0
-640 0
-814 0
-632 -965 0
-52 -946 0
-999 -21 0
-326 0
944 -718 0
-464 -692 0
-22 0
107 -129 0
-404 204 0
-535 -195 0
-456 0
-588 0
-470 582 0
-688 0
-926 -490 0
-774 0
340 -881 0
-231 -227 0
-352 306 0
-720 0
32 -13 0
-714 0
-402 39 0
810 -27 0
8 -499 0
-796 0
51 -637 0
-674 0
-869 0
874 -820 0
-638 -445 0
-792 0
-803 431 0
-255 523 0
-174 579 0
744 -342 0
-876 -131 0
-448 -216 0
371 -41 0
-286 0
-398 0
-90 -129 0
-142 -860 0
-796 0
576 -404 0
-964 0
850 -466 0
-16 587 0
497 -317 0
-328 -405 0
986 -285 0
-580 540 0
679 -641 0
-972 254 0
64 -814 0
-703 -742 0
-807 0
-659 702 0
856 -133 0
-390 -564 0
-578 0
-532 0
-191 87 0
-760 817 0
-443 0
-993 0
-144 0
283 -441 0
-382 0
-266 0
-408 0
-599 -803 0
-51 0
-270 0
-663 0
-918 -581 0
300 -553 0
-960 -278 0
232 -10 0
-193 0
-512 585 0
-573 -137 0
-228 -298 0
-728 279 0
-984 922 0
-992 0
-936 -464 0
-242 0
-535 163 0
-447 782 0
-519 0
574 -585 0
-822 884 0
590 -234 0
928 -660 0
-956 0
-957 155 0
-613 501 0
37 -769 0
-37 0
-371 927 0
582 -969 0
-158 -828 0
425 -494 0
-909 -667 0
-893 0
400 -667 0
-224 0
-464 -987 0
-835 0
-329 0
-567 670 0
-790 0
-691 0
89 -820 0
-939 0
-502 0
-450 0
-180 469 0
-905 0
-631 183 0
273 -941 0
-671 -956 0
-326 699 0
588 -667 0
-219 0
-452 0
-448 -269 0
-98 0
897 -73 0
-182 0
-950 526 0
-965 -417 0
-72 595 0
-783 431 0
-993 0
-570 0
-887 0
-615 0
257 -900 0
-969 0
811 -860 0
-360 734 0
656 -95 0
-591 949 0
-806 -110 0
-348 565 0
-598 -621 0
-600 436 0
-722 655 0
-663 127 0
-614 303 0
448 -958 0
209 -84 0
-709 78 0
912 -615 0
-149 -353 0
499 -91 0
-400 -692 0
-91 -361 0
922 -181 0
-506 0
-704 0
16 -419 0
-687 477 0
-223 0
-168 0
-931 0
68 -819 0
-425 0
-484 0
-439 -523 0
-20 -169 0
-38 -795 0
-790 0
-543 420 0
-621 766 0
-237 -74 0
-429 523 0
478 -314 0
-299 0
-891 702 0
-888 0
281 -445 0
492 -298 0
-152 0
-220 -276 0
-749 853 0
-718 0
-776 -884 0
-22 -705 0
