p cnf 4760 30215
297 0
291 0
904 867 0
355 0
582 175 0
170 0
489 990 0
171 686 0
503 0
600 653 0
159 0
688 0
208 535 0
688 0
795 0
370 239 0
948 0
915 0
866 0
592 177 0
241 0
68 0
849 610 0
911 0
550 0
807 0
865 0
245 119 0
734 318 0
884 0
640 0
477 0
976 0
136 0
394 0
563 0
895 0
567 0
317 0
474 718 0
154 290 0
785 823 0
277 318 0
351 0
202 919 0
808 689 0
2 43 0
619 287 0
394 0
872 258 0
218 954 0
599 0
456 0
792 937 0
771 0
296 425 0
15 0
759 0
207 0
833 0
353 0
713 887 0
667 606 0
16 0
936 228 0
618 687 0
434 0
540 493 0
543 0
996 0
841 0
875 0
112 0
536 854 0
632 789 0
989 0
685 31 0
461 102 0
628 919 0
368 286 0
921 517 0
40 0
931 0
504 0
805 0
952 543 0
668 439 0
626 0
82 290 0
481 0
74 0
525 0
842 0
541 0
317 0
937 0
745 0
986 763 0
327 0
307 0
773 0
988 0
169 828 0
38 0
680 981 0
824 0
842 0
846 447 0
481 954 0
75 0
286 0
752 221 0
242 36 0
708 0
898 0
557 0
353 0
875 685 0
156 0
107 0
797 375 0
641 0
331 0
939 638 0
994 2 0
152 0
662 0
885 0
917 0
80 477 0
150 0
988 413 0
450 0
809 419 0
169 0
180 422 0
289 315 0
931 0
763 0
838 0
797 0
635 0
892 0
467 0
978 0
802 299 0
965 462 0
737 0
177 595 0
892 0
504 0
810 582 0
1000 821 0
398 686 0
307 702 0
696 0
762 0
92 855 0
793 0
16 370 0
667 397 0
492 775 0
616 12 0
197 878 0
910 0
232 0
158 0
282 0
961 0
348 0
677 0
41 543 0
895 0
154 291 0
593 0
589 15 0
84 0
289 0
554 0
91 0
240 849 0
550 0
822 0
51 0
857 0
444 0
330 159 0
297 0
478 942 0
7 359 0
558 0
442 364 0
115 0
726 183 0
49 964 0
685 0
763 0
266 0
624 386 0
152 0
921 893 0
914 398 0
560 0
296 72 0
982 0
884 0
675 0
25 0
949 0
560 115 0
522 0
801 0
795 0
928 0
823 0
948 599 0
387 0
712 931 0
236 0
292 0
782 0
632 204 0
654 0
968 0
360 95 0
271 0
984 659 0
321 0
48 0
159 527 0
462 0
810 116 0
792 0
912 660 0
653 0
170 334 0
1000 921 0
523 0
722 461 0
109 0
147 0
685 0
944 107 0
90 0
623 0
112 598 0
747 0
232 0
913 190 0
45 646 0
258 343 0
162 0
643 0
624 668 0
622 14 0
263 0
872 0
259 500 0
307 599 0
140 0
498 0
490 107 0
627 0
478 0
17 0
29 0
524 0
875 0
559 0
728 438 0
754 818 0
894 0
104 525 0
547 747 0
177 0
862 0
960 669 0
803 0
681 875 0
509 0
432 0
407 0
745 855 0
532 516 0
27 515 0
5 734 0
328 0
278 455 0
216 0
307 637 0
917 0
618 0
745 0
542 0
530 997 0
525 0
904 0
124 0
260 0
49 0
490 0
986 439 0
33 293 0
953 356 0
670 110 0
885 0
736 0
960 881 0
833 950 0
765 0
904 0
497 0
677 422 0
665 0
425 0
903 0
25 0
170 0
203 0
575 0
112 0
488 0
930 991 0
658 0
129 309 0
56 0
587 844 0
246 0
455 0
285 902 0
754 711 0
870 0
782 0
800 0
772 117 0
730 0
927 0
368 825 0
396 733 0
880 211 0
215 0
401 11 0
361 0
191 0
297 755 0
200 0
546 0
20 670 0
241 443 0
297 0
334 0
867 127 0
763 0
304 0
452 229 0
769 0
813 0
353 634 0
185 3 0
196 0
950 0
561 0
985 0
441 283 0
850 0
568 0
369 0
612 606 0
495 0
610 0
695 247 0
565 0
954 165 0
276 0
534 0
412 0
220 0
155 0
432 0
367 0
696 399 0
408 0
4 0
900 180 0
228 0
851 0
311 0
402 685 0
717 0
959 0
459 0
86 0
345 597 0
360 420 0
718 0
315 0
120 0
412 0
555 0
149 0
654 950 0
846 0
295 0
38 295 0
895 0
377 437 0
201 0
296 0
289 0
68 0
328 197 0
200 418 0
223 0
740 0
641 0
793 806 0
599 0
363 61 0
399 0
884 572 0
538 0
320 187 0
717 0
497 0
594 0
4 0
934 247 0
84 0
801 788 0
436 615 0
889 177 0
322 0
363 0
537 795 0
750 0
492 0
434 0
581 0
968 0
389 0
173 0
496 638 0
776 0
766 0
684 0
894 0
937 0
649 0
812 0
328 172 0
181 0
987 0
136 404 0
16 809 0
713 0
857 182 0
171 0
777 270 0
520 822 0
568 915 0
699 0
959 0
25 0
381 0
421 0
338 0
525 0
953 0
126 0
547 0
449 858 0
931 230 0
908 0
712 0
156 222 0
843 494 0
44 0
183 0
851 707 0
717 0
265 0
857 0
400 746 0
673 638 0
21 0
735 0
524 335 0
636 0
441 266 0
777 0
846 0
109 238 0
446 486 0
556 0
259 0
73 202 0
523 622 0
999 0
756 0
384 0
808 0
242 0
844 862 0
95 0
332 0
930 0
34 443 0
595 0
658 0
658 406 0
997 437 0
640 481 0
121 0
31 0
527 0
794 0
112 0
228 0
151 0
520 0
566 0
634 0
522 0
277 918 0
192 0
633 238 0
503 0
38 623 0
949 0
216 0
909 0
74 0
418 0
483 733 0
251 0
856 0
696 383 0
24 0
144 0
814 0
254 0
603 0
801 0
585 423 0
490 141 0
870 0
645 0
363 0
588 0
368 0
666 372 0
877 0
78 607 0
226 0
104 732 0
801 943 0
899 0
56 766 0
489 0
985 729 0
25 483 0
80 0
328 0
348 0
726 0
523 76 0
113 549 0
664 0
375 0
839 0
964 399 0
714 439 0
259 0
996 0
449 0
731 0
180 0
985 0
640 894 0
356 0
33 646 0
408 835 0
625 0
657 0
672 238 0
225 205 0
113 407 0
235 639 0
618 0
315 0
892 230 0
154 0
557 0
250 0
551 0
356 0
101 0
410 0
410 0
881 0
344 0
216 0
238 0
986 452 0
944 725 0
106 0
425 0
342 0
295 0
801 0
954 683 0
723 0
795 303 0
642 516 0
866 830 0
825 0
694 0
28 0
835 0
497 0
591 0
814 0
522 451 0
145 674 0
517 286 0
228 0
189 0
311 0
994 677 0
147 117 0
319 0
141 190 0
900 0
448 0
557 0
797 0
423 0
652 0
254 0
668 0
186 0
779 471 0
603 0
296 0
402 283 0
251 0
526 0
798 0
724 791 0
2 0
33 0
617 439 0
956 453 0
619 476 0
546 0
366 0
940 0
865 0
516 0
100 0
476 109 0
370 366 0
188 0
723 0
238 391 0
254 0
762 50 0
372 0
752 117 0
216 0
314 0
470 0
479 0
792 990 0
626 983 0
865 650 0
211 0
433 0
730 0
344 0
986 50 0
356 0
578 359 0
726 0
241 583 0
469 0
577 316 0
546 0
261 0
640 834 0
676 0
789 0
403 0
459 0
672 226 0
329 0
546 135 0
601 0
861 0
151 0
231 0
403 974 0
59 0
190 215 0
360 0
469 0
986 0
839 0
563 252 0
247 0
127 0
74 0
657 0
932 0
58 423 0
523 0
883 0
608 0
747 195 0
420 0
542 0
660 0
102 0
849 817 0
345 0
120 0
32 0
706 0
599 0
126 0
833 467 0
742 0
393 878 0
649 998 0
658 635 0
326 0
784 0
325 0
433 0
295 0
433 0
163 773 0
121 933 0
95 0
183 0
401 433 0
315 527 0
904 0
569 0
615 0
554 0
133 0
328 0
993 996 0
606 0
989 0
40 0
608 0
3 0
728 0
635 0
139 925 0
209 412 0
989 551 0
628 0
250 597 0
953 490 0
954 559 0
602 948 0
778 0
89 457 0
352 0
849 0
420 0
695 0
115 935 0
784 359 0
104 0
195 597 0
549 0
26 0
495 0
269 254 0
597 791 0
475 135 0
473 0
377 0
598 0
420 0
961 455 0
981 0
26 0
544 257 0
370 4 0
750 0
649 0
928 170 0
225 860 0
336 0
51 0
577 362 0
158 0
426 151 0
63 0
866 0
720 0
821 0
935 0
332 0
800 169 0
446 0
618 199 0
776 472 0
69 0
896 922 0
607 0
73 0
853 0
200 0
311 0
762 0
641 291 0
913 933 0
646 0
520 684 0
746 0
801 0
792 627 0
949 0
639 0
233 0
384 649 0
716 374 0
175 0
333 0
285 150 0
828 0
922 810 0
828 0
553 499 0
605 0
891 0
849 388 0
483 0
969 641 0
885 0
133 14 0
716 0
555 0
264 995 0
276 205 0
976 0
508 0
585 474 0
770 931 0
484 0
94 0
376 686 0
224 947 0
8 751 0
849 857 0
330 0
911 0
283 791 0
436 0
616 0
497 0
256 0
568 101 0
798 0
397 0
17 887 0
230 759 0
382 0
276 0
312 0
585 0
520 51 0
93 157 0
280 737 0
904 404 0
400 292 0
44 0
130 386 0
192 206 0
560 555 0
806 0
467 0
101 0
871 0
531 0
882 759 0
536 0
680 881 0
442 0
85 0
787 821 0
925 895 0
528 293 0
88 26 0
652 158 0
673 0
685 0
277 0
632 0
841 487 0
912 0
741 0
843 0
395 0
995 420 0
972 999 0
350 0
496 371 0
472 0
751 0
695 0
571 0
438 0
516 0
480 0
733 774 0
437 0
36 0
620 0
299 533 0
185 0
741 0
77 0
562 141 0
510 0
789 0
415 0
508 0
643 0
814 0
514 0
872 0
99 259 0
560 95 0
554 0
872 0
903 0
360 0
898 618 0
822 0
714 0
822 0
51 0
802 0
393 558 0
251 0
574 0
219 0
170 732 0
476 0
997 366 0
886 0
850 395 0
724 0
63 0
969 0
165 0
66 0
852 0
889 82 0
963 0
234 0
739 0
853 70 0
242 0
933 0
928 0
723 710 0
186 0
435 0
79 0
854 0
10 0
106 0
832 264 0
876 0
532 0
24 854 0
490 0
958 391 0
188 0
353 0
858 551 0
262 0
92 0
61 0
345 738 0
156 0
138 0
803 0
342 0
330 654 0
836 0
466 0
327 0
81 801 0
490 0
747 319 0
40 0
186 807 0
457 0
643 0
599 0
496 647 0
789 0
796 0
235 0
641 0
121 858 0
56 597 0
537 0
229 0
293 294 0
852 101 0
66 895 0
97 0
169 342 0
323 835 0
864 0
906 0
288 0
827 0
829 415 0
32 149 0
60 0
409 0
172 0
912 735 0
34 0
523 732 0
761 622 0
77 0
792 0
846 0
560 793 0
429 0
752 869 0
524 0
340 310 0
916 790 0
148 0
399 0
656 0
59 0
474 723 0
707 645 0
880 799 0
78 0
937 62 0
335 855 0
866 0
540 358 0
516 0
510 967 0
512 0
516 0
889 0
255 0
400 603 0
708 438 0
92 0
954 0
899 0
17 0
625 0
391 0
718 0
106 967 0
397 0
226 988 0
558 30 0
667 0
249 0
53 967 0
719 0
582 0
391 0
898 0
713 403 0
545 0
768 167 0
449 0
531 517 0
788 0
241 351 0
194 247 0
402 0
480 0
544 0
479 0
779 405 0
441 531 0
257 0
521 0
130 989 0
481 430 0
370 0
621 0
363 0
17 0
854 0
951 0
319 0
851 0
788 0
913 0
201 623 0
154 0
107 420 0
202 0
454 0
610 0
259 0
595 835 0
761 0
315 757 0
28 0
907 0
105 0
463 0
240 0
22 0
792 108 0
703 0
365 0
98 0
414 0
483 0
979 0
621 0
97 0
257 0
748 0
182 119 0
962 215 0
681 0
953 741 0
385 84 0
984 749 0
250 411 0
51 0
67 0
79 0
493 383 0
433 0
232 844 0
405 791 0
485 0
307 0
78 0
731 0
750 0
281 335 0
318 0
876 0
833 991 0
222 0
112 754 0
833 0
802 0
357 0
668 0
819 0
523 606 0
105 183 0
68 0
866 587 0
518 0
446 62 0
894 0
296 0
968 0
209 0
991 0
825 0
636 988 0
942 0
125 23 0
26 303 0
636 0
956 589 0
325 0
615 0
616 0
930 0
285 0
24 0
266 0
550 734 0
542 0
834 895 0
968 838 0
387 957 0
952 0
896 0
180 0
832 0
644 0
659 0
688 783 0
919 0
584 0
156 0
313 598 0
995 0
14 0
579 0
345 0
802 0
137 119 0
198 0
75 0
144 610 0
144 249 0
346 0
325 558 0
33 0
734 0
259 0
708 0
589 0
514 0
978 173 0
641 0
28 0
527 0
966 0
81 0
529 724 0
152 105 0
754 0
685 0
581 0
476 334 0
422 0
948 0
266 0
578 0
432 579 0
77 0
437 0
698 434 0
85 0
427 644 0
683 0
168 933 0
173 0
548 263 0
456 0
348 0
292 837 0
521 0
193 0
854 0
739 508 0
850 0
320 0
700 597 0
442 538 0
934 0
234 0
574 0
943 0
882 0
532 0
831 0
524 0
403 0
551 0
295 0
129 0
112 0
556 0
649 213 0
653 0
464 813 0
231 0
583 0
517 0
65 508 0
206 0
636 46 0
408 990 0
449 931 0
418 0
241 0
58 998 0
34 0
90 435 0
938 0
980 0
407 0
55 0
329 0
748 0
154 0
81 845 0
681 108 0
2 0
315 139 0
218 0
336 332 0
515 292 0
744 74 0
568 875 0
656 0
892 0
924 469 0
173 0
476 0
6 0
102 0
20 846 0
386 0
402 810 0
225 0
415 0
199 0
777 0
331 654 0
744 369 0
918 0
936 0
635 0
586 214 0
621 206 0
33 0
108 0
6 0
24 59 0
907 0
692 958 0
513 100 0
720 635 0
662 0
472 0
237 0
48 855 0
938 0
633 0
568 0
55 0
656 87 0
893 0
156 0
635 0
80 0
537 228 0
152 0
703 0
794 165 0
964 159 0
978 0
138 319 0
565 0
592 0
272 0
786 0
360 499 0
685 574 0
830 0
837 0
637 0
147 493 0
118 0
673 287 0
651 0
488 0
514 55 0
773 0
485 0
133 374 0
598 0
10 0
79 0
935 0
242 0
79 0
318 0
825 0
376 0
817 0
415 0
361 0
565 0
97 588 0
302 0
890 0
314 0
967 0
944 134 0
696 0
983 0
520 0
264 0
829 0
900 0
424 29 0
250 74 0
320 0
296 0
885 0
469 0
651 0
857 0
186 0
418 106 0
15 0
580 0
134 0
100 940 0
269 0
959 0
836 0
152 0
993 0
932 0
103 0
813 0
325 0
31 0
549 0
258 468 0
245 0
809 0
506 375 0
946 0
550 0
639 375 0
673 658 0
196 0
380 0
659 0
497 906 0
79 0
387 53 0
622 0
730 357 0
356 0
216 358 0
537 887 0
843 0
947 0
649 508 0
338 0
604 886 0
601 0
753 491 0
820 332 0
833 0
896 73 0
674 659 0
154 383 0
88 0
120 890 0
727 0
316 0
402 228 0
849 706 0
68 756 0
225 10 0
689 934 0
195 0
544 502 0
885 0
253 0
656 939 0
409 0
787 0
21 0
7 0
732 502 0
987 542 0
372 0
25 281 0
160 252 0
90 605 0
248 593 0
518 0
825 0
465 0
145 0
91 0
243 0
746 3 0
957 0
453 0
766 0
686 0
35 133 0
783 0
791 0
459 319 0
872 0
40 0
140 718 0
490 0
170 0
1 372 0
623 0
857 0
928 0
10 0
364 493 0
861 295 0
650 611 0
49 0
449 0
862 0
357 0
800 0
789 0
23 0
668 0
923 0
107 0
483 0
785 332 0
203 0
855 0
993 0
675 0
837 0
8 377 0
172 0
224 810 0
586 0
173 350 0
177 0
644 0
469 0
99 0
202 486 0
1000 367 0
313 0
554 0
969 0
74 0
573 0
345 0
483 0
701 0
682 0
124 29 0
792 826 0
913 853 0
569 0
852 949 0
246 0
24 0
148 980 0
279 0
227 0
72 0
550 0
248 0
575 0
452 0
720 205 0
853 975 0
496 0
993 195 0
150 0
249 295 0
205 0
135 0
252 0
857 140 0
697 673 0
627 0
357 0
897 439 0
1000 3 0
921 0
164 0
112 0
766 0
824 942 0
953 141 0
670 0
666 0
228 0
130 0
312 0
184 0
569 933 0
184 0
849 90 0
298 566 0
587 510 0
535 0
271 0
521 889 0
77 0
885 0
568 0
639 0
240 0
897 314 0
361 0
906 619 0
370 213 0
466 965 0
592 513 0
5 0
902 0
364 0
176 525 0
144 0
348 0
592 0
213 0
843 0
597 0
509 0
898 828 0
423 0
428 564 0
853 917 0
186 0
722 787 0
961 705 0
865 0
896 402 0
346 741 0
35 0
441 433 0
246 0
45 0
181 950 0
634 0
955 0
652 0
259 0
54 0
664 786 0
613 214 0
817 572 0
487 0
145 750 0
787 0
375 0
932 0
28 0
469 0
654 0
374 0
765 0
938 0
379 0
649 0
484 0
523 886 0
19 332 0
408 0
726 0
411 499 0
444 0
642 0
184 0
798 439 0
965 359 0
826 0
67 0
709 990 0
557 0
34 0
402 66 0
569 620 0
878 0
283 0
576 0
575 0
661 0
801 588 0
704 0
784 391 0
703 0
180 0
593 0
856 63 0
471 0
857 0
492 0
84 862 0
27 0
81 0
32 0
523 0
380 0
272 60 0
337 0
902 0
133 703 0
912 0
676 0
912 292 0
181 0
302 0
321 253 0
179 699 0
656 0
443 0
485 0
971 0
457 0
856 0
108 197 0
30 0
269 822 0
777 0
48 530 0
105 0
336 0
501 622 0
32 939 0
561 533 0
601 684 0
82 581 0
123 0
547 572 0
65 466 0
984 666 0
123 15 0
952 0
939 0
552 961 0
261 0
711 0
475 0
943 0
545 519 0
51 0
256 0
104 0
695 0
689 0
8 458 0
724 0
19 45 0
287 0
294 0
123 0
940 0
938 0
274 958 0
154 0
121 687 0
458 87 0
891 0
343 0
207 0
412 0
769 0
95 0
258 0
741 0
752 0
808 0
834 647 0
826 0
706 0
140 0
696 27 0
276 0
944 0
584 0
995 0
872 971 0
409 0
322 0
82 0
615 0
654 0
556 0
234 0
266 935 0
746 0
202 0
172 0
490 868 0
759 0
288 497 0
916 0
857 0
268 0
154 0
359 0
538 123 0
784 116 0
616 438 0
491 0
436 0
912 931 0
254 575 0
350 0
346 0
666 0
557 0
497 0
675 148 0
686 0
104 730 0
929 0
885 0
430 0
208 564 0
701 847 0
190 0
403 0
135 0
641 0
507 0
161 346 0
333 0
819 0
260 0
615 807 0
216 0
849 579 0
162 267 0
53 0
632 0
753 0
134 0
512 170 0
182 815 0
578 0
488 858 0
748 0
954 0
364 652 0
592 136 0
182 47 0
871 0
536 0
647 0
649 0
674 0
297 242 0
82 0
103 0
840 526 0
345 0
203 0
1000 169 0
117 0
658 0
706 758 0
507 0
947 0
368 89 0
960 0
210 127 0
82 0
345 0
832 766 0
90 207 0
642 0
250 587 0
677 0
288 0
829 0
22 0
332 0
632 0
590 0
771 0
324 343 0
859 453 0
357 974 0
693 0
133 0
354 996 0
812 0
784 0
143 0
250 323 0
956 0
747 0
959 0
387 0
149 0
784 0
111 0
379 940 0
867 309 0
212 127 0
121 0
97 0
215 0
492 0
662 0
349 807 0
999 0
356 0
345 204 0
736 0
242 0
238 231 0
888 0
312 870 0
912 0
350 0
68 0
371 748 0
570 0
516 0
90 419 0
317 0
809 0
9 575 0
138 0
853 70 0
389 0
556 0
713 922 0
169 406 0
270 0
662 606 0
866 0
4 0
800 726 0
256 638 0
917 0
35 0
219 108 0
766 0
56 184 0
355 567 0
800 0
255 0
994 0
308 445 0
516 0
789 0
852 0
372 0
209 17 0
624 623 0
221 0
613 998 0
230 0
718 0
65 922 0
673 0
332 325 0
952 510 0
495 0
561 0
983 0
653 0
743 0
376 0
272 809 0
137 0
203 566 0
79 0
554 0
783 0
336 0
881 564 0
333 677 0
337 0
865 0
143 0
19 196 0
891 0
533 0
647 0
824 328 0
795 787 0
370 543 0
363 0
233 949 0
36 325 0
243 0
872 0
449 199 0
555 323 0
635 0
434 0
157 0
60 0
459 53 0
149 190 0
827 726 0
337 556 0
173 0
53 0
297 533 0
963 0
966 0
708 942 0
168 450 0
412 0
377 50 0
560 705 0
126 0
206 0
43 668 0
208 942 0
398 0
970 890 0
180 0
671 0
615 0
490 0
633 484 0
960 0
965 0
18 0
888 0
434 686 0
582 0
332 319 0
113 0
265 357 0
312 846 0
47 0
164 652 0
450 0
1 55 0
40 0
874 0
981 647 0
767 0
536 354 0
932 0
57 0
71 0
274 0
769 0
88 0
635 0
24 629 0
685 327 0
805 886 0
476 198 0
321 0
502 0
362 0
85 0
984 131 0
201 873 0
387 0
902 0
835 0
627 263 0
823 0
614 0
529 0
556 687 0
530 0
891 0
577 769 0
237 0
700 0
453 0
179 747 0
744 0
122 715 0
736 394 0
640 117 0
348 0
181 479 0
236 0
688 142 0
994 515 0
621 0
711 0
285 0
909 39 0
974 0
978 90 0
360 0
569 0
74 772 0
679 0
152 0
878 0
367 0
799 0
170 86 0
597 0
426 423 0
688 0
522 235 0
541 0
10 21 0
195 0
696 666 0
597 838 0
219 0
336 0
97 0
61 0
91 340 0
734 0
915 622 0
588 0
691 0
576 0
331 239 0
67 0
931 0
980 0
852 0
841 949 0
371 942 0
709 0
764 0
652 356 0
754 724 0
929 194 0
819 260 0
125 0
505 91 0
436 0
543 0
385 0
296 0
502 295 0
766 0
954 0
910 423 0
176 0
811 52 0
786 0
914 0
735 0
441 543 0
997 0
437 0
993 0
63 0
720 421 0
178 0
209 0
542 0
213 0
894 0
807 0
585 138 0
794 0
716 0
178 0
743 0
667 0
980 0
145 695 0
723 0
810 524 0
265 0
735 0
652 631 0
450 180 0
809 444 0
341 0
181 0
884 244 0
938 0
536 0
359 0
112 998 0
857 0
713 0
308 949 0
732 0
634 0
630 494 0
850 0
565 0
896 267 0
146 0
176 819 0
74 845 0
221 0
737 0
280 0
753 683 0
786 0
774 0
949 0
806 0
577 947 0
964 0
814 0
855 0
92 0
787 0
981 0
320 0
752 399 0
830 0
778 59 0
282 0
262 0
495 0
958 0
392 319 0
763 549 0
904 0
899 0
974 0
11 0
525 0
856 514 0
721 500 0
912 0
421 0
803 531 0
847 0
276 0
319 0
640 368 0
865 0
104 0
512 0
653 0
139 227 0
974 62 0
967 0
663 0
735 0
215 0
100 228 0
368 650 0
916 0
738 797 0
516 0
552 0
711 0
278 0
881 0
666 0
818 0
722 0
192 0
206 0
566 0
135 0
424 0
267 0
519 0
101 967 0
220 0
211 655 0
297 300 0
516 0
963 0
582 0
785 635 0
705 814 0
501 0
970 183 0
829 0
449 94 0
552 801 0
949 0
425 501 0
687 0
170 0
13 0
481 477 0
91 356 0
569 414 0
130 0
698 0
568 844 0
600 484 0
827 0
276 0
393 533 0
805 0
963 198 0
11 0
725 13 0
606 0
595 565 0
979 0
92 0
791 0
214 0
444 0
609 0
13 0
57 726 0
27 0
640 28 0
987 0
44 0
932 0
617 535 0
536 0
292 814 0
957 0
559 0
23 0
845 741 0
826 733 0
988 639 0
807 0
36 317 0
128 70 0
61 141 0
336 0
725 0
880 0
260 0
931 0
277 0
287 0
289 0
848 564 0
370 531 0
191 0
70 0
238 0
67 0
970 594 0
950 0
276 12 0
761 0
5 0
564 0
460 470 0
103 0
669 0
295 0
654 0
410 621 0
17 954 0
128 0
176 40 0
789 0
842 487 0
123 0
759 0
545 0
9 31 0
555 134 0
851 604 0
310 0
603 0
302 0
616 0
273 629 0
686 0
351 0
641 0
478 0
849 836 0
805 0
216 658 0
760 360 0
730 0
328 399 0
632 0
558 767 0
249 386 0
535 0
138 22 0
597 0
971 0
188 0
451 725 0
420 0
315 0
629 0
560 854 0
384 0
696 68 0
732 0
199 0
709 0
716 0
782 0
252 999 0
383 0
724 0
697 0
532 0
971 0
650 0
401 244 0
557 0
975 0
81 839 0
329 0
791 0
192 205 0
872 0
818 0
427 103 0
747 0
260 0
151 0
265 31 0
12 0
435 0
717 0
438 0
260 0
613 0
466 0
136 999 0
904 668 0
150 0
142 0
985 0
719 0
478 0
451 0
505 214 0
491 796 0
789 0
330 0
410 467 0
289 0
741 182 0
130 311 0
68 6 0
964 0
593 0
441 796 0
658 0
151 0
480 962 0
536 807 0
901 119 0
498 0
42 175 0
264 0
850 0
368 812 0
857 692 0
572 502 0
472 0
903 0
572 0
75 463 0
668 0
189 0
969 175 0
305 0
29 0
930 0
366 7 0
388 0
518 0
235 0
72 0
843 494 0
711 0
586 0
600 0
331 0
816 0
303 0
863 0
282 0
865 580 0
326 0
313 139 0
717 0
422 0
212 0
221 767 0
936 0
915 0
96 57 0
763 0
845 662 0
513 0
979 0
876 0
354 180 0
273 955 0
12 487 0
600 508 0
50 405 0
779 0
190 0
981 0
861 518 0
690 799 0
993 660 0
544 0
342 0
705 0
827 0
945 0
675 0
697 0
609 766 0
833 765 0
822 0
766 0
691 399 0
564 765 0
939 0
725 918 0
200 240 0
331 515 0
732 749 0
663 0
81 0
984 217 0
888 0
344 0
42 526 0
339 0
136 0
988 0
284 0
928 893 0
626 0
171 0
775 0
456 315 0
604 902 0
948 0
885 670 0
205 0
678 0
941 0
851 915 0
61 0
320 0
724 813 0
104 445 0
185 0
300 0
273 998 0
323 0
539 941 0
493 0
509 0
764 0
818 303 0
371 0
186 0
419 351 0
178 0
838 0
651 0
736 0
628 0
129 0
148 476 0
12 919 0
968 837 0
642 0
154 0
248 15 0
37 0
396 0
269 23 0
770 0
656 292 0
16 0
620 583 0
313 0
177 0
627 0
202 0
393 0
193 892 0
597 0
126 535 0
480 149 0
579 0
219 0
233 0
67 62 0
814 0
1 981 0
773 661 0
530 0
895 0
19 0
723 175 0
604 500 0
73 0
360 467 0
338 0
56 945 0
826 438 0
442 190 0
608 290 0
588 0
559 0
100 222 0
130 0
161 531 0
132 863 0
552 593 0
376 449 0
678 0
712 841 0
668 0
307 0
274 0
753 0
698 0
9 0
2 410 0
281 798 0
384 0
53 0
959 0
128 919 0
603 157 0
135 0
104 0
683 0
913 0
892 0
119 0
942 0
667 0
289 906 0
825 0
521 0
709 110 0
291 981 0
93 0
537 0
661 0
374 0
789 0
236 47 0
592 0
3 949 0
288 0
189 0
1000 151 0
216 713 0
433 0
184 636 0
954 533 0
792 327 0
745 0
853 0
802 0
979 783 0
258 0
431 0
5 975 0
182 0
326 0
854 0
76 0
132 0
487 0
760 681 0
969 142 0
717 0
595 430 0
978 927 0
355 0
94 0
306 0
792 918 0
71 0
612 0
316 893 0
763 220 0
20 342 0
821 0
537 0
886 0
474 462 0
225 423 0
901 0
384 238 0
972 0
836 0
705 180 0
244 68 0
925 0
852 159 0
800 324 0
335 0
887 0
853 0
713 0
262 0
155 943 0
156 0
940 0
650 443 0
313 0
376 378 0
222 0
116 0
33 0
663 0
636 134 0
314 0
608 470 0
403 0
985 195 0
109 0
504 0
81 0
215 639 0
360 543 0
693 0
438 0
746 84 0
736 220 0
128 661 0
225 189 0
741 0
100 0
11 0
784 0
4 0
120 487 0
304 228 0
177 947 0
49 518 0
213 0
951 0
344 0
676 893 0
282 0
18 0
67 0
169 0
865 0
742 0
953 401 0
169 513 0
730 845 0
32 285 0
35 349 0
538 0
291 0
161 0
736 349 0
481 0
220 125 0
521 0
756 0
789 0
51 0
615 0
177 0
716 0
179 0
464 0
895 0
534 0
981 0
81 748 0
504 0
931 0
317 366 0
765 382 0
749 0
722 374 0
648 0
364 0
146 127 0
891 877 0
495 0
406 0
452 0
946 324 0
496 939 0
826 549 0
292 0
931 179 0
858 965 0
457 0
66 0
371 0
734 0
337 285 0
568 0
489 294 0
811 694 0
503 0
957 0
818 0
561 495 0
804 135 0
277 0
462 0
105 972 0
839 0
426 915 0
715 0
726 0
360 0
470 0
898 0
780 183 0
925 0
952 0
225 0
767 0
442 390 0
902 0
825 0
851 630 0
96 0
193 0
182 830 0
346 0
185 0
152 419 0
105 815 0
391 0
423 0
976 0
358 0
405 0
96 0
997 0
289 52 0
529 0
921 573 0
690 0
138 0
974 0
145 899 0
226 0
2 0
676 0
240 0
909 0
754 790 0
185 0
859 0
71 0
424 593 0
709 0
182 0
465 0
479 0
759 0
753 0
298 892 0
793 0
366 0
763 556 0
271 0
144 0
345 851 0
656 0
372 0
517 0
30 0
161 651 0
305 618 0
566 0
908 0
801 0
311 0
858 0
444 892 0
793 543 0
344 845 0
245 982 0
982 0
708 598 0
892 0
433 0
217 525 0
464 0
153 0
15 0
27 959 0
20 574 0
191 0
586 557 0
73 978 0
885 0
232 737 0
266 167 0
541 0
913 0
441 0
930 0
239 0
83 0
740 0
409 229 0
250 0
570 0
907 0
530 0
481 0
420 0
701 189 0
777 0
664 0
508 524 0
688 943 0
619 0
698 971 0
181 0
607 0
857 0
424 0
31 0
587 0
47 0
858 0
985 0
677 0
815 0
672 0
600 0
662 0
555 0
308 0
481 242 0
427 0
424 565 0
376 0
380 285 0
44 0
632 738 0
377 0
165 0
331 0
978 0
29 549 0
720 69 0
606 0
322 0
324 0
160 292 0
617 919 0
679 0
382 0
70 0
368 0
803 0
242 0
479 0
451 45 0
550 0
33 511 0
332 255 0
552 802 0
326 0
909 310 0
946 0
283 0
689 0
986 0
600 714 0
287 0
881 0
485 0
138 0
95 0
101 0
582 0
600 194 0
933 0
296 0
565 0
142 30 0
303 0
429 0
508 0
652 0
839 0
118 0
662 0
34 0
782 0
124 687 0
280 0
847 735 0
530 6 0
24 313 0
801 0
598 0
883 987 0
601 0
189 0
472 329 0
488 0
635 0
148 0
986 0
468 605 0
521 0
875 133 0
259 93 0
945 0
752 0
221 0
377 499 0
200 0
946 588 0
58 748 0
657 0
587 0
874 0
912 550 0
854 375 0
226 0
83 0
297 0
759 0
263 0
248 23 0
593 0
106 0
32 0
650 214 0
794 987 0
233 0
920 198 0
634 0
880 0
232 838 0
194 0
511 0
221 0
439 0
958 511 0
327 0
478 0
362 0
828 0
852 0
175 0
110 0
743 0
40 19 0
721 461 0
763 0
487 0
471 0
529 923 0
428 637 0
121 0
309 0
696 0
57 605 0
277 0
771 949 0
280 447 0
568 0
521 0
777 698 0
363 0
836 0
834 0
914 132 0
305 0
640 595 0
643 0
529 0
748 308 0
603 0
445 0
154 669 0
556 509 0
130 0
267 142 0
705 62 0
599 0
622 0
778 735 0
504 586 0
67 0
677 0
470 0
583 0
437 0
442 779 0
915 0
371 0
830 0
321 0
272 218 0
574 0
521 284 0
2 908 0
714 0
404 837 0
937 582 0
463 0
903 0
265 1 0
37 0
368 253 0
462 0
230 0
261 0
291 446 0
173 0
683 261 0
505 549 0
163 0
351 0
360 227 0
394 620 0
812 903 0
927 0
478 0
426 668 0
144 0
609 0
988 0
223 0
418 821 0
501 0
439 0
576 0
776 109 0
306 0
819 0
731 0
645 0
446 0
280 537 0
697 393 0
548 0
580 751 0
872 846 0
974 231 0
43 0
669 0
482 0
265 206 0
33 891 0
821 0
222 0
294 0
595 101 0
889 270 0
432 0
100 0
275 0
988 0
446 0
872 638 0
706 395 0
199 0
294 0
130 428 0
606 0
154 0
378 130 0
579 0
269 0
482 0
803 180 0
602 0
991 0
377 219 0
589 0
477 0
421 0
632 0
278 0
75 0
163 0
477 0
426 0
720 919 0
111 0
447 0
18 0
26 0
171 0
696 0
293 0
523 0
665 889 0
26 6 0
498 0
866 0
817 60 0
55 0
571 0
214 0
788 821 0
808 614 0
595 0
658 219 0
928 0
109 557 0
5 0
35 339 0
532 613 0
429 0
52 615 0
499 0
666 0
860 0
872 0
507 0
94 0
498 0
294 0
817 0
351 0
769 0
832 0
704 0
65 103 0
205 246 0
691 0
354 0
21 0
264 0
709 0
255 0
684 999 0
768 563 0
582 0
167 0
183 0
771 0
403 0
468 0
913 229 0
415 0
916 0
229 0
199 0
515 318 0
633 0
746 0
746 0
663 0
926 0
846 0
772 0
41 0
34 0
711 63 0
662 0
668 0
229 0
922 0
199 0
301 0
735 0
562 0
914 0
309 0
460 0
35 182 0
407 0
97 602 0
469 0
761 0
35 0
250 0
331 0
428 0
216 683 0
482 109 0
635 0
215 0
420 0
704 0
42 0
101 0
390 0
528 0
618 0
918 0
76 166 0
119 0
424 57 0
700 39 0
403 0
741 0
183 0
210 438 0
481 26 0
591 0
341 678 0
467 0
425 478 0
750 0
434 0
801 60 0
943 0
107 0
429 0
185 0
468 0
767 135 0
616 0
408 0
29 0
163 231 0
90 0
532 0
464 0
725 639 0
580 0
313 0
1 749 0
396 0
816 0
667 0
384 0
530 0
803 0
155 975 0
697 0
120 0
570 0
144 0
936 476 0
255 0
220 0
82 0
276 0
16 0
454 198 0
12 0
571 475 0
137 196 0
538 420 0
649 0
353 162 0
299 0
341 0
850 366 0
415 0
43 405 0
470 0
582 0
449 443 0
193 119 0
608 414 0
983 0
754 0
878 0
572 0
137 159 0
339 0
818 732 0
618 804 0
220 165 0
215 0
153 0
26 924 0
141 0
357 0
209 0
247 0
409 942 0
206 0
1 269 0
666 439 0
742 0
34 342 0
290 0
249 92 0
531 599 0
64 0
561 0
925 0
998 263 0
892 0
233 476 0
626 0
88 0
127 0
838 0
453 0
274 0
993 0
380 0
599 0
968 812 0
563 0
81 0
288 0
520 0
223 0
622 0
974 0
472 926 0
329 555 0
19 0
932 0
166 0
244 0
16 0
589 0
622 0
193 543 0
199 0
475 0
920 0
365 0
176 470 0
999 0
632 211 0
21 0
686 0
376 0
451 0
217 0
967 0
186 0
637 0
139 0
400 688 0
49 923 0
791 0
711 0
794 0
173 0
792 0
532 0
608 0
622 310 0
702 0
341 0
356 623 0
264 951 0
520 959 0
1000 723 0
203 0
114 0
930 331 0
460 0
795 0
832 0
95 0
185 0
118 0
82 330 0
281 0
916 0
338 775 0
527 0
84 52 0
650 28 0
664 108 0
394 102 0
843 0
468 757 0
593 0
220 0
704 990 0
252 0
629 0
563 0
557 0
123 134 0
531 0
930 458 0
596 0
281 0
110 0
585 0
952 0
985 0
586 0
558 0
168 0
690 613 0
8 0
185 574 0
532 0
354 0
235 0
241 0
408 219 0
802 0
183 0
221 566 0
741 0
592 558 0
950 0
993 556 0
657 0
892 0
299 0
899 421 0
920 61 0
158 0
328 388 0
371 823 0
49 0
638 0
221 374 0
491 0
396 855 0
170 115 0
947 0
150 0
979 831 0
83 0
617 0
611 326 0
896 0
859 52 0
33 794 0
996 0
812 991 0
169 0
71 0
791 0
541 0
199 0
674 485 0
184 47 0
710 0
256 0
419 0
747 0
304 0
297 0
725 494 0
970 0
976 31 0
384 0
506 0
334 0
721 38 0
381 101 0
641 0
436 333 0
976 644 0
178 0
566 0
777 12 0
529 586 0
569 0
937 831 0
942 86 0
904 774 0
641 0
158 6 0
446 0
162 0
233 214 0
878 0
228 0
678 0
409 382 0
304 0
465 0
571 0
713 0
333 0
501 0
900 965 0
42 0
968 0
515 0
14 0
177 527 0
274 0
623 0
939 0
545 0
644 0
449 0
980 0
668 28 0
717 927 0
572 0
513 131 0
452 0
437 0
48 191 0
642 36 0
155 0
21 677 0
5 0
455 0
427 0
700 0
224 0
686 23 0
356 0
980 0
63 0
935 0
807 0
740 0
570 906 0
561 499 0
844 0
592 0
254 0
473 990 0
384 0
592 417 0
58 0
941 902 0
394 213 0
875 0
687 0
226 333 0
842 0
779 997 0
676 151 0
655 0
299 0
418 0
50 370 0
583 0
88 0
660 0
843 0
204 0
536 0
444 206 0
258 0
955 182 0
987 0
448 231 0
524 0
603 0
353 0
780 0
766 0
955 366 0
483 0
257 0
474 875 0
354 0
902 0
68 0
136 0
570 699 0
402 0
263 0
177 0
551 0
957 0
341 0
843 0
503 0
868 485 0
27 0
540 847 0
547 700 0
995 0
956 0
408 0
743 0
336 153 0
386 0
909 0
356 0
978 630 0
401 0
409 0
142 0
296 621 0
9 874 0
879 0
357 0
987 71 0
841 0
662 0
898 85 0
769 730 0
180 596 0
835 0
856 641 0
90 236 0
789 0
826 61 0
353 0
740 0
777 956 0
754 807 0
733 485 0
737 0
956 220 0
368 0
426 562 0
856 0
225 251 0
468 0
740 0
59 0
874 52 0
621 487 0
686 0
389 0
205 565 0
64 477 0
641 0
381 0
226 0
608 474 0
279 0
278 0
149 0
555 0
760 0
297 828 0
849 0
294 990 0
506 267 0
77 0
960 0
285 0
644 0
842 0
511 0
826 163 0
98 868 0
235 0
944 662 0
538 0
989 0
676 303 0
914 0
648 498 0
588 742 0
806 0
658 0
36 0
960 0
437 0
340 0
9 0
677 0
670 0
110 470 0
390 6 0
581 141 0
43 183 0
851 733 0
245 0
804 0
265 508 0
673 163 0
509 0
521 250 0
583 0
362 111 0
792 0
560 765 0
597 0
489 0
795 0
684 0
718 0
202 0
9 43 0
850 455 0
677 0
660 974 0
660 0
124 919 0
788 0
805 975 0
863 0
483 0
231 0
37 0
917 0
898 620 0
178 0
684 612 0
562 0
340 0
589 0
911 0
242 701 0
214 0
12 0
812 0
362 0
485 117 0
970 854 0
218 0
87 959 0
700 0
978 0
984 0
708 0
220 0
911 0
91 0
157 0
330 0
39 0
871 463 0
123 0
178 0
25 933 0
468 0
171 12 0
608 0
930 0
794 0
920 0
37 0
729 685 0
883 0
482 773 0
892 500 0
168 140 0
714 0
200 0
641 0
811 0
847 0
189 558 0
515 0
516 479 0
419 941 0
721 0
114 0
831 0
841 38 0
713 0
55 0
573 0
523 0
425 0
591 0
843 501 0
934 0
136 837 0
610 246 0
909 239 0
8 0
391 0
203 0
784 0
763 0
792 0
267 0
706 0
211 532 0
616 0
445 0
939 127 0
126 0
723 0
525 0
51 0
624 642 0
441 0
922 0
124 678 0
464 0
539 0
18 0
37 0
533 0
806 0
560 0
733 0
926 0
738 0
145 651 0
45 0
119 0
256 0
80 0
592 0
901 0
687 0
920 0
505 277 0
433 783 0
890 0
118 0
828 0
426 607 0
539 925 0
63 0
549 0
852 0
684 0
25 227 0
578 0
65 0
232 0
115 0
699 0
262 0
452 703 0
328 0
562 860 0
495 0
205 863 0
621 0
180 805 0
474 0
720 0
333 183 0
431 0
275 0
94 758 0
153 0
585 605 0
735 0
407 0
178 151 0
509 0
283 0
275 0
948 0
219 251 0
287 0
777 674 0
691 0
369 309 0
504 481 0
498 819 0
153 0
75 0
807 0
527 0
252 0
686 0
723 0
773 0
660 0
4 0
829 0
577 998 0
620 0
177 119 0
1000 109 0
425 623 0
680 175 0
411 918 0
330 757 0
992 141 0
196 0
473 234 0
284 909 0
150 0
313 0
368 590 0
402 221 0
528 0
801 0
425 0
47 0
205 0
243 885 0
550 639 0
182 0
804 0
577 45 0
473 0
400 0
632 0
317 0
792 0
256 279 0
757 606 0
445 7 0
651 654 0
806 0
338 0
729 0
126 0
759 0
907 519 0
616 0
724 0
821 0
582 182 0
867 0
504 0
544 872 0
8 0
298 0
483 140 0
709 0
798 0
988 0
357 0
740 0
699 0
947 293 0
987 0
118 0
441 0
839 0
974 0
765 0
847 0
521 473 0
569 0
970 479 0
426 0
297 932 0
114 0
800 538 0
819 431 0
131 0
680 341 0
978 830 0
884 0
722 651 0
192 0
760 860 0
80 337 0
814 0
889 0
194 0
696 568 0
959 0
636 564 0
686 206 0
607 0
185 0
216 194 0
754 44 0
520 0
75 0
908 0
279 0
816 492 0
2 0
134 0
313 0
101 0
590 0
330 0
794 0
345 266 0
500 0
981 0
320 0
923 691 0
21 0
326 0
448 918 0
937 713 0
923 0
384 0
516 0
274 991 0
564 0
580 885 0
781 0
700 454 0
364 0
871 207 0
313 0
138 0
705 0
957 0
726 0
820 0
937 0
588 540 0
597 0
88 220 0
786 278 0
599 0
236 0
154 0
40 900 0
120 650 0
645 0
95 0
966 0
763 983 0
194 0
464 578 0
9 78 0
327 0
542 871 0
681 0
693 614 0
643 0
157 623 0
846 719 0
691 621 0
641 0
385 0
397 0
598 0
667 438 0
981 0
79 0
34 0
282 0
360 0
258 0
304 0
611 0
477 0
37 0
742 0
966 0
910 0
238 0
176 250 0
827 0
934 0
302 0
908 62 0
373 0
46 0
541 0
265 690 0
324 0
117 0
49 111 0
891 0
542 943 0
68 0
370 0
796 445 0
99 997 0
552 620 0
489 0
921 873 0
268 0
836 0
387 0
43 0
705 0
362 258 0
443 0
399 879 0
239 0
967 0
933 0
732 0
429 0
116 0
457 803 0
495 0
257 0
811 0
936 0
544 993 0
444 0
814 0
761 542 0
938 341 0
688 339 0
569 731 0
665 0
150 951 0
736 885 0
225 0
371 0
536 950 0
826 0
27 109 0
257 0
677 30 0
560 558 0
24 834 0
744 0
857 0
625 468 0
49 610 0
143 0
481 700 0
137 823 0
155 0
709 0
957 0
66 971 0
842 957 0
337 591 0
235 0
445 0
488 539 0
824 112 0
50 0
962 270 0
535 0
965 399 0
25 0
709 0
579 0
115 0
37 0
304 886 0
825 589 0
390 0
354 231 0
298 0
686 0
242 0
331 333 0
304 934 0
196 0
969 0
433 0
232 0
177 0
373 0
787 213 0
938 605 0
553 0
680 0
289 189 0
753 317 0
700 119 0
378 0
352 0
406 0
619 0
846 0
455 0
432 0
203 0
617 241 0
947 0
719 0
460 877 0
499 0
103 0
934 0
372 0
88 0
41 542 0
773 0
534 0
281 900 0
289 830 0
592 0
856 993 0
501 0
656 0
632 0
982 0
427 0
328 0
666 453 0
54 0
666 0
474 0
512 0
289 874 0
908 0
953 957 0
132 311 0
615 0
200 292 0
768 0
254 0
252 0
47 0
670 0
49 349 0
835 83 0
23 0
92 0
224 31 0
303 0
77 0
700 0
770 0
152 833 0
185 383 0
248 0
426 523 0
793 277 0
13 437 0
452 0
545 853 0
235 429 0
62 151 0
371 0
121 0
668 0
694 0
981 0
40 757 0
73 0
816 769 0
283 357 0
352 358 0
11 755 0
568 0
662 0
751 0
837 0
206 0
384 979 0
547 0
242 0
192 789 0
977 0
481 0
595 0
27 0
531 831 0
181 0
284 0
432 0
236 0
755 127 0
981 823 0
772 0
812 0
961 758 0
353 750 0
755 0
67 0
74 806 0
977 0
93 887 0
592 0
66 0
837 0
434 0
291 0
201 758 0
517 0
758 0
392 0
585 0
909 0
603 391 0
581 0
460 0
235 0
462 0
617 0
184 0
367 0
750 0
816 0
468 701 0
467 582 0
472 985 0
592 0
721 694 0
182 0
416 796 0
680 0
697 0
245 0
955 0
713 0
243 0
389 0
816 0
692 0
275 0
21 525 0
122 0
726 0
376 881 0
728 71 0
290 613 0
791 0
58 619 0
705 828 0
646 0
2 0
884 0
933 0
601 0
911 0
651 0
211 0
506 0
373 0
855 0
393 511 0
555 0
58 381 0
336 0
288 0
133 0
840 0
60 0
293 0
871 0
218 0
798 0
54 0
315 0
342 0
1 0
691 0
971 0
992 626 0
586 0
453 702 0
423 0
240 404 0
532 445 0
680 0
941 0
487 0
369 908 0
851 0
853 0
266 0
978 0
735 0
187 278 0
493 0
322 935 0
740 0
801 366 0
615 0
395 0
494 0
634 397 0
378 0
69 71 0
422 0
986 0
223 0
922 0
127 0
412 0
318 0
248 0
805 0
74 851 0
311 0
366 0
625 563 0
417 980 0
259 0
54 15 0
513 737 0
572 671 0
580 0
378 510 0
571 0
365 0
893 575 0
665 950 0
356 0
915 741 0
434 286 0
182 0
875 884 0
814 0
918 0
25 380 0
765 0
36 151 0
988 0
774 0
671 0
674 0
930 524 0
866 554 0
741 837 0
564 0
784 0
697 0
536 0
568 321 0
214 0
481 0
176 0
823 0
38 0
716 0
242 0
462 0
157 0
995 0
168 0
880 0
23 0
982 0
706 173 0
647 0
664 135 0
938 0
282 431 0
150 0
966 0
682 0
908 0
496 0
337 631 0
177 0
28 748 0
9 0
121 170 0
527 0
115 0
544 0
218 0
353 0
801 0
273 44 0
739 0
134 0
941 0
824 0
445 0
534 0
891 923 0
232 0
228 469 0
140 0
997 0
188 62 0
604 213 0
213 0
627 567 0
386 972 0
835 0
320 919 0
437 0
184 0
564 0
898 0
440 210 0
577 0
426 0
918 0
164 693 0
615 0
945 189 0
690 0
694 0
663 0
675 831 0
225 0
600 439 0
849 980 0
348 0
265 0
211 0
70 0
128 0
145 0
466 0
909 0
75 0
827 332 0
272 832 0
848 208 0
806 0
760 0
530 333 0
45 0
348 0
431 0
42 535 0
110 0
782 0
230 0
825 60 0
128 84 0
441 0
569 0
475 0
610 86 0
981 0
550 0
299 755 0
310 0
395 0
299 0
588 0
626 0
35 0
158 0
930 179 0
932 0
809 578 0
426 198 0
918 0
122 0
476 0
323 0
61 0
560 537 0
98 0
684 0
529 0
340 286 0
264 956 0
688 313 0
73 84 0
406 0
794 307 0
785 367 0
994 0
418 773 0
232 625 0
567 0
552 0
937 0
547 0
465 186 0
865 309 0
280 0
279 0
124 933 0
580 0
946 828 0
133 998 0
922 223 0
625 0
171 213 0
187 0
719 0
839 207 0
733 0
905 347 0
40 0
583 0
842 31 0
435 0
86 0
237 0
901 0
580 0
484 0
28 0
741 0
582 0
147 590 0
597 0
604 0
620 0
50 0
773 0
634 0
148 0
184 859 0
38 0
385 0
514 0
205 0
342 0
611 0
509 486 0
353 0
834 980 0
844 0
701 0
500 0
193 435 0
537 316 0
107 0
536 0
471 0
601 0
500 926 0
34 802 0
976 0
514 0
457 519 0
454 0
978 0
955 0
80 0
647 0
366 0
477 0
933 359 0
338 0
282 0
940 0
509 0
588 0
894 0
583 0
831 263 0
213 0
466 0
278 0
244 0
360 0
58 0
690 0
590 0
279 0
930 0
146 0
936 825 0
562 394 0
161 0
525 302 0
266 6 0
963 134 0
42 939 0
697 0
455 0
250 0
55 0
787 243 0
34 142 0
958 183 0
44 975 0
320 0
830 0
754 133 0
856 0
838 0
358 0
41 628 0
77 0
970 941 0
445 855 0
924 0
66 98 0
29 0
128 0
914 0
956 0
475 0
892 0
87 0
98 0
624 0
742 0
872 739 0
936 315 0
383 0
144 166 0
346 0
694 7 0
549 0
955 0
443 44 0
849 0
643 0
198 0
783 0
890 471 0
434 0
6 359 0
663 0
212 0
708 654 0
808 0
99 0
960 101 0
428 0
368 23 0
902 0
59 0
781 0
471 0
760 678 0
530 0
369 0
548 0
324 0
997 0
680 0
564 0
882 0
525 0
544 0
28 0
143 0
668 0
343 0
224 0
537 0
452 759 0
714 0
908 0
185 964 0
850 0
127 0
194 0
930 282 0
682 999 0
50 0
758 783 0
802 0
721 0
947 390 0
490 0
497 404 0
305 0
201 708 0
517 0
498 443 0
881 574 0
774 0
859 166 0
855 0
763 0
151 0
288 314 0
288 616 0
740 974 0
146 214 0
185 0
976 0
684 789 0
43 0
513 0
659 0
967 0
471 0
276 0
625 0
280 0
219 0
990 270 0
692 0
469 0
978 0
554 0
124 0
898 0
497 0
206 0
217 406 0
876 0
501 0
545 413 0
198 0
879 0
361 739 0
5 0
861 0
875 0
502 0
578 965 0
675 0
970 0
464 262 0
289 411 0
875 0
125 678 0
81 0
74 0
294 0
307 0
434 437 0
556 0
936 116 0
363 931 0
249 834 0
18 323 0
684 22 0
813 0
524 0
703 0
951 0
854 0
635 172 0
161 607 0
818 261 0
838 783 0
721 385 0
315 935 0
265 0
540 0
320 0
515 0
941 0
496 0
452 0
36 533 0
935 0
653 870 0
885 743 0
563 471 0
754 0
930 0
622 0
43 103 0
51 508 0
604 503 0
195 0
481 0
628 0
641 27 0
112 486 0
682 0
91 0
683 0
13 0
365 0
676 0
603 661 0
250 0
716 0
770 0
690 259 0
92 0
231 0
850 0
547 405 0
136 435 0
951 0
314 522 0
539 0
450 493 0
860 623 0
548 0
974 0
315 36 0
700 0
632 0
940 726 0
546 916 0
417 0
513 0
291 0
767 0
451 0
34 642 0
106 566 0
762 507 0
497 0
561 0
168 0
908 981 0
970 517 0
971 23 0
399 0
840 0
200 0
331 446 0
284 0
240 0
329 214 0
379 0
723 0
928 197 0
44 231 0
393 965 0
694 0
916 0
851 0
416 875 0
852 0
380 0
3 0
664 371 0
714 0
86 0
474 955 0
194 0
854 558 0
46 95 0
727 0
816 839 0
366 0
31 0
931 0
971 141 0
339 0
208 0
579 755 0
589 151 0
942 0
477 0
108 543 0
244 0
985 0
563 0
132 0
640 0
413 0
376 231 0
161 0
31 0
372 0
336 0
328 0
380 0
923 373 0
977 542 0
96 657 0
981 0
932 0
164 0
516 0
121 605 0
919 0
725 0
220 0
464 0
389 191 0
979 0
536 0
409 0
143 0
497 454 0
882 0
319 0
796 0
455 0
793 0
155 0
275 909 0
648 0
176 185 0
867 748 0
524 0
616 0
896 0
494 0
106 799 0
691 0
431 0
633 0
565 0
184 721 0
839 0
886 0
744 0
822 0
580 0
71 0
296 0
729 0
679 0
288 178 0
723 0
555 0
683 0
347 0
657 507 0
966 0
8 982 0
330 759 0
763 0
776 0
576 612 0
868 21 0
346 0
505 0
367 0
822 0
995 47 0
151 0
362 0
274 911 0
702 0
488 812 0
176 943 0
653 0
649 187 0
626 326 0
856 0
67 37 0
755 0
766 0
832 775 0
26 844 0
4 0
368 0
955 6 0
612 0
453 0
786 0
808 395 0
833 469 0
392 306 0
650 0
221 495 0
243 695 0
91 0
11 0
229 0
174 374 0
744 18 0
784 829 0
80 953 0
434 394 0
756 0
839 103 0
933 0
177 242 0
116 0
333 0
458 0
265 0
642 0
84 509 0
23 0
838 0
322 0
352 0
247 0
914 0
351 87 0
63 0
658 0
403 0
304 466 0
868 0
760 0
233 52 0
454 0
434 0
588 0
346 0
406 0
304 0
346 0
43 0
147 589 0
705 0
189 0
385 0
404 254 0
970 0
948 0
794 0
419 0
394 0
487 0
194 198 0
839 0
278 0
718 0
845 182 0
309 0
400 577 0
864 0
570 0
120 836 0
587 0
180 0
194 0
644 607 0
410 0
706 0
834 647 0
679 495 0
67 212 0
852 327 0
457 228 0
713 164 0
648 0
544 0
218 0
63 0
563 44 0
809 0
760 243 0
821 0
791 0
754 747 0
950 0
23 0
824 347 0
907 703 0
658 0
633 0
496 0
780 302 0
67 0
257 932 0
425 0
262 0
458 770 0
337 0
46 0
223 0
145 333 0
681 0
594 940 0
189 0
380 807 0
359 0
312 0
438 207 0
672 0
833 118 0
213 0
969 0
564 0
277 0
91 844 0
523 358 0
22 543 0
111 0
937 0
104 0
8 0
764 0
552 0
23 0
397 583 0
106 0
854 0
9 444 0
337 0
897 755 0
388 0
225 58 0
720 0
332 159 0
978 618 0
742 0
620 0
447 0
355 0
616 0
331 0
968 0
351 0
222 0
925 0
212 0
459 7 0
85 0
75 207 0
155 0
612 271 0
741 406 0
390 0
69 0
315 773 0
601 714 0
580 0
19 0
472 0
926 0
502 399 0
610 0
945 0
102 0
45 495 0
528 0
4 0
475 0
520 886 0
913 277 0
170 0
896 0
992 0
865 0
714 0
681 0
901 0
976 0
216 798 0
890 0
441 0
153 998 0
589 0
191 0
217 0
401 146 0
58 0
697 516 0
847 87 0
705 0
987 0
922 0
995 0
720 0
936 0
886 0
217 507 0
707 357 0
269 0
484 0
212 0
563 0
176 0
880 881 0
82 0
974 462 0
117 0
271 0
840 340 0
31 0
371 847 0
147 0
577 0
735 903 0
314 245 0
757 205 0
891 0
725 326 0
963 0
277 662 0
749 0
593 421 0
525 367 0
225 0
928 0
181 0
543 0
164 0
913 0
187 868 0
443 0
101 0
64 693 0
927 0
873 348 0
325 405 0
346 709 0
822 382 0
608 876 0
710 0
503 0
455 0
840 50 0
370 0
656 0
503 0
205 0
278 0
725 0
837 0
41 166 0
170 0
196 0
260 0
122 851 0
298 0
846 0
453 0
888 0
30 0
884 0
872 0
983 0
892 614 0
234 0
939 308 0
376 0
358 0
455 0
640 895 0
976 0
68 438 0
657 170 0
10 0
524 287 0
877 127 0
621 719 0
523 0
515 0
260 0
112 725 0
710 895 0
834 0
3 0
203 0
12 0
787 300 0
901 0
128 0
520 0
740 0
431 0
793 0
825 380 0
962 652 0
350 0
881 187 0
614 0
134 0
552 0
276 0
381 0
11 0
414 0
189 0
240 0
965 0
272 0
241 0
339 324 0
741 0
692 0
368 465 0
944 0
409 574 0
347 391 0
937 0
74 0
809 0
777 836 0
512 0
652 789 0
421 0
952 812 0
468 0
976 210 0
940 0
209 0
969 0
780 342 0
440 0
24 371 0
2 909 0
508 310 0
735 0
917 0
797 0
490 0
217 0
725 0
901 471 0
172 0
925 166 0
84 0
928 293 0
765 0
955 0
198 0
14 135 0
687 0
691 0
822 0
374 7 0
573 846 0
402 46 0
875 871 0
32 0
396 270 0
424 0
424 0
795 0
670 0
43 0
531 0
176 914 0
392 0
111 0
920 0
59 0
79 0
180 0
262 0
9 0
852 0
772 517 0
81 734 0
399 0
204 413 0
601 977 0
249 0
721 0
707 399 0
246 0
646 0
366 0
928 141 0
565 0
4 0
142 0
356 125 0
29 0
59 0
498 0
465 941 0
311 0
668 455 0
33 0
264 805 0
650 965 0
299 821 0
227 0
746 662 0
301 0
111 0
13 0
33 0
70 263 0
576 0
693 0
528 0
193 0
264 489 0
138 0
758 0
299 0
840 0
607 351 0
311 0
50 701 0
752 0
485 0
347 333 0
95 0
944 0
293 671 0
31 0
829 0
56 0
140 172 0
431 0
968 0
953 0
799 0
490 0
454 966 0
903 0
396 0
623 0
836 0
75 492 0
265 156 0
553 0
325 687 0
188 0
525 0
971 621 0
560 0
778 851 0
139 500 0
959 0
723 0
745 0
93 0
132 637 0
908 0
871 0
582 0
776 141 0
977 179 0
168 0
563 0
915 0
631 0
298 0
387 0
146 299 0
716 844 0
739 0
236 0
398 0
952 619 0
187 0
925 0
939 0
304 0
227 0
689 262 0
450 0
970 509 0
280 306 0
681 0
177 0
592 891 0
263 0
586 0
684 79 0
131 0
491 367 0
804 0
114 0
993 877 0
918 0
392 0
706 0
853 0
101 0
533 0
134 0
456 0
621 0
13 726 0
864 691 0
939 332 0
446 0
58 758 0
234 0
117 0
775 0
305 346 0
11 275 0
778 0
18 563 0
433 761 0
298 0
800 0
450 0
576 706 0
25 925 0
531 0
353 0
424 631 0
488 205 0
264 0
991 0
324 279 0
981 0
169 0
662 0
910 0
252 0
493 191 0
429 0
172 0
594 0
154 0
561 195 0
58 0
175 0
583 0
292 878 0
945 0
496 0
683 0
158 0
808 187 0
859 199 0
780 0
313 0
701 0
32 0
416 0
290 0
572 0
162 0
507 0
993 0
725 0
170 0
393 828 0
577 0
600 919 0
27 0
108 0
581 0
427 245 0
977 0
908 0
627 0
579 0
940 0
94 687 0
972 0
448 0
978 490 0
785 590 0
378 0
699 846 0
438 0
492 0
694 0
346 0
75 574 0
531 0
499 0
134 0
582 0
496 0
651 934 0
48 317 0
585 0
991 207 0
407 599 0
250 0
298 0
460 0
36 0
511 0
990 695 0
667 142 0
329 105 0
747 0
252 463 0
519 0
258 0
280 0
414 0
775 0
95 0
791 0
337 0
277 0
253 0
26 854 0
810 0
768 0
115 0
812 429 0
993 0
349 0
566 0
792 516 0
965 0
299 830 0
12 0
430 0
786 813 0
56 0
106 422 0
90 0
915 709 0
784 652 0
671 0
371 0
5 709 0
16 0
640 0
916 0
258 4 0
814 806 0
155 300 0
40 0
713 458 0
845 0
90 0
834 0
412 300 0
138 0
312 0
31 0
896 0
821 0
273 266 0
988 860 0
266 430 0
378 0
405 0
296 0
656 0
642 715 0
488 0
736 0
245 0
295 0
739 0
888 0
802 0
483 0
176 0
645 0
229 0
316 0
444 0
778 220 0
31 0
138 374 0
56 434 0
799 0
139 0
288 0
991 0
98 0
618 127 0
364 0
517 862 0
582 0
326 0
744 651 0
529 0
364 0
249 0
602 0
202 754 0
14 0
840 392 0
948 0
605 0
820 76 0
275 0
665 0
488 0
965 509 0
996 671 0
953 0
446 0
746 0
720 129 0
944 0
101 535 0
903 0
912 0
120 0
467 0
131 0
72 194 0
45 0
13 701 0
937 0
605 0
337 0
160 0
956 0
984 0
275 0
964 0
722 0
950 0
498 0
408 0
184 0
852 221 0
440 523 0
50 726 0
784 468 0
62 0
153 425 0
670 0
718 0
915 0
468 878 0
512 0
8 0
985 50 0
915 0
773 0
417 0
632 919 0
874 0
469 285 0
616 0
325 0
624 0
549 0
533 790 0
945 0
399 0
645 0
616 91 0
575 0
314 436 0
99 884 0
793 295 0
799 0
213 0
246 0
864 0
666 0
167 0
921 798 0
902 0
312 846 0
741 0
954 0
658 37 0
98 0
417 646 0
969 269 0
361 0
528 0
672 418 0
144 0
785 0
59 783 0
382 0
581 158 0
535 0
750 0
631 0
812 0
332 0
867 0
467 84 0
912 0
42 0
167 0
44 0
73 0
783 0
988 0
843 887 0
613 0
911 0
104 0
17 0
989 0
118 0
140 103 0
570 0
986 0
506 829 0
536 0
939 179 0
588 638 0
729 0
327 167 0
506 0
653 0
805 295 0
953 273 0
700 0
429 655 0
876 0
194 0
722 939 0
566 0
124 0
705 0
562 661 0
20 0
104 46 0
459 406 0
13 0
858 0
893 0
955 85 0
10 0
42 0
986 0
979 0
968 705 0
49 524 0
795 0
417 786 0
713 503 0
883 0
921 0
624 0
670 0
429 0
471 0
380 0
144 291 0
404 0
746 995 0
652 550 0
755 0
960 0
249 0
27 749 0
985 106 0
241 0
1 0
216 992 0
372 276 0
219 0
441 587 0
803 0
370 0
571 943 0
299 0
901 743 0
59 509 0
179 0
458 0
580 748 0
496 205 0
330 461 0
841 0
900 0
544 993 0
649 0
541 0
113 0
714 0
30 415 0
451 277 0
368 0
11 0
206 0
865 0
536 0
320 35 0
617 357 0
77 0
690 420 0
653 0
270 0
561 637 0
514 0
432 0
29 639 0
772 0
389 934 0
990 0
91 0
682 0
258 131 0
330 0
656 149 0
18 0
313 587 0
972 0
953 836 0
859 0
132 245 0
451 598 0
242 0
481 358 0
608 805 0
167 0
859 542 0
326 439 0
556 0
675 0
497 0
917 0
497 847 0
859 0
467 0
926 0
77 0
186 0
24 794 0
448 0
809 0
731 479 0
638 0
217 306 0
231 39 0
660 0
792 506 0
128 747 0
228 253 0
256 654 0
810 0
604 709 0
320 201 0
7 0
39 0
670 0
820 0
648 174 0
830 0
786 174 0
235 158 0
195 0
820 351 0
784 0
906 0
740 870 0
397 0
224 891 0
856 312 0
176 662 0
433 0
243 0
332 0
819 935 0
876 0
353 0
875 0
690 607 0
637 0
561 0
382 0
841 937 0
269 0
987 0
307 246 0
8 549 0
849 0
194 127 0
57 0
464 378 0
124 0
760 989 0
559 0
118 0
202 660 0
98 0
646 0
597 0
986 0
176 261 0
717 542 0
303 0
236 742 0
733 390 0
900 0
949 0
124 0
328 668 0
39 0
970 0
285 0
632 505 0
367 0
65 106 0
745 0
2 0
823 0
635 71 0
225 139 0
724 0
259 469 0
195 350 0
218 0
449 0
882 54 0
932 685 0
505 766 0
259 0
323 388 0
709 0
319 0
632 0
240 0
805 0
889 284 0
652 0
694 0
57 0
921 0
982 0
674 0
923 519 0
915 542 0
296 0
966 0
484 0
737 21 0
505 428 0
877 0
470 0
960 0
263 0
688 414 0
993 949 0
771 391 0
971 0
352 77 0
55 0
103 0
194 324 0
629 941 0
545 0
257 671 0
13 0
431 0
777 703 0
909 0
158 0
240 0
161 0
55 0
556 111 0
905 311 0
498 0
697 0
64 794 0
818 0
50 839 0
838 0
682 0
355 437 0
855 0
542 0
57 0
186 0
970 0
680 984 0
143 0
572 789 0
928 175 0
170 59 0
202 151 0
569 0
2 141 0
259 0
308 0
545 0
661 0
907 887 0
435 637 0
892 0
732 983 0
303 0
121 0
880 0
196 0
569 0
112 0
53 0
410 0
936 0
297 67 0
494 0
440 342 0
125 0
286 0
330 0
435 839 0
870 0
553 869 0
726 695 0
216 0
574 0
675 0
716 0
291 0
247 0
178 715 0
89 757 0
919 0
112 215 0
457 0
146 0
739 0
435 0
417 0
9 0
448 0
822 0
681 492 0
644 910 0
579 0
232 0
799 0
921 0
511 0
11 875 0
555 211 0
106 0
617 0
220 0
370 615 0
836 0
531 0
695 0
364 0
166 0
541 0
785 0
474 0
507 0
224 0
7 0
776 356 0
931 0
795 324 0
834 0
407 0
236 543 0
394 0
154 0
94 0
792 0
866 546 0
886 303 0
711 0
992 0
811 0
263 0
15 0
877 782 0
651 831 0
854 0
738 734 0
408 654 0
442 0
144 0
668 487 0
982 0
387 0
370 0
921 0
314 0
600 643 0
195 0
140 0
846 0
793 0
213 0
5 0
293 0
227 0
539 0
411 0
465 246 0
580 149 0
584 822 0
740 0
600 0
142 0
375 0
384 0
471 0
448 526 0
309 645 0
912 0
285 431 0
461 0
416 196 0
890 0
560 988 0
408 252 0
488 995 0
278 0
345 876 0
94 0
1000 0
788 0
729 0
100 215 0
401 511 0
273 517 0
836 0
267 695 0
349 773 0
446 0
189 0
835 475 0
939 252 0
240 0
795 415 0
345 850 0
847 0
789 909 0
387 0
442 0
53 0
689 0
28 22 0
8 0
218 132 0
20 0
729 0
793 0
276 0
953 0
381 0
693 0
662 0
683 0
280 0
921 954 0
231 0
241 0
217 340 0
634 0
425 0
262 0
476 0
356 0
462 0
294 0
710 0
76 0
763 876 0
162 0
40 0
716 0
474 726 0
648 79 0
587 0
309 0
138 0
330 0
72 774 0
573 957 0
676 0
766 0
909 0
349 0
747 0
406 0
480 0
30 0
530 757 0
514 0
156 0
517 0
940 0
643 0
781 0
67 579 0
410 0
471 0
756 325 0
20 0
906 0
775 0
536 0
88 0
596 0
996 0
912 0
446 0
169 0
432 0
657 450 0
611 0
538 0
508 0
90 829 0
322 0
336 0
603 0
218 34 0
883 220 0
11 0
720 0
457 0
293 615 0
328 850 0
106 717 0
719 0
567 0
824 0
649 738 0
67 181 0
297 0
792 0
701 0
324 374 0
620 0
188 0
305 990 0
961 911 0
524 85 0
228 46 0
952 0
571 789 0
886 0
129 0
712 0
836 893 0
139 0
849 797 0
888 0
904 0
339 476 0
826 0
503 0
3 879 0
49 957 0
968 0
84 0
42 0
226 0
404 0
669 0
726 0
685 0
654 0
896 0
364 0
234 276 0
460 204 0
911 0
737 0
870 158 0
793 0
953 205 0
102 0
581 0
27 0
818 942 0
190 398 0
36 694 0
925 0
324 389 0
380 0
223 0
670 0
791 0
751 0
725 0
438 0
981 0
411 685 0
115 731 0
439 0
749 366 0
441 470 0
440 0
881 0
949 0
142 0
430 0
228 0
539 0
135 0
56 396 0
722 0
768 287 0
821 0
593 0
80 693 0
768 546 0
498 0
557 0
783 0
175 0
355 0
32 0
950 0
124 71 0
478 0
905 599 0
671 0
794 0
557 0
849 0
944 0
909 0
801 739 0
862 0
690 639 0
520 0
754 812 0
894 0
644 0
474 0
243 0
725 239 0
843 958 0
570 0
561 108 0
1 0
395 0
927 0
321 150 0
230 0
97 0
792 0
633 663 0
578 0
690 0
105 0
137 250 0
35 0
495 0
88 0
88 30 0
884 0
928 865 0
885 0
636 0
634 0
554 324 0
808 0
22 0
82 0
24 0
683 0
867 0
57 0
703 0
563 0
849 0
291 0
714 0
744 0
31 0
418 0
455 0
258 0
76 0
112 527 0
939 0
681 627 0
819 869 0
730 0
207 0
180 0
372 0
764 998 0
555 0
138 0
376 0
206 0
191 0
845 0
1 0
568 0
441 0
78 0
344 0
290 0
289 0
374 0
764 823 0
956 46 0
269 0
814 0
4 517 0
752 50 0
849 0
182 0
850 0
562 259 0
294 0
161 62 0
582 0
866 0
913 0
690 259 0
571 427 0
901 0
787 0
361 746 0
600 71 0
277 294 0
369 0
724 0
655 0
178 0
83 679 0
274 0
569 779 0
451 0
388 0
202 662 0
329 0
792 0
843 557 0
741 631 0
882 998 0
920 99 0
698 634 0
392 0
325 0
734 0
196 63 0
274 44 0
717 0
945 0
107 0
378 148 0
946 847 0
250 0
691 36 0
141 966 0
747 0
38 0
553 0
405 0
788 0
412 0
674 0
240 0
903 0
881 0
768 0
868 0
799 0
589 0
389 0
230 0
588 0
832 570 0
687 0
532 0
675 0
825 407 0
690 0
195 0
933 0
858 0
239 0
177 0
986 0
186 0
955 0
540 0
4 597 0
759 0
722 534 0
477 0
193 967 0
333 0
880 616 0
712 0
19 0
821 0
754 117 0
55 0
288 0
489 3 0
918 0
382 0
323 0
695 0
123 0
486 0
699 0
458 623 0
667 0
527 0
355 262 0
742 0
299 133 0
434 261 0
697 0
329 454 0
54 0
107 469 0
635 204 0
923 0
385 0
408 0
452 0
514 572 0
791 0
372 415 0
33 0
568 0
852 159 0
337 0
17 0
338 0
300 0
600 0
785 2 0
847 0
19 0
987 0
713 718 0
721 0
100 0
880 0
370 0
164 950 0
314 775 0
801 0
640 495 0
687 0
559 0
414 0
456 0
755 0
413 0
359 0
640 0
225 0
767 0
254 0
432 53 0
922 0
767 0
422 0
689 0
694 0
716 0
658 947 0
515 686 0
654 0
99 301 0
423 0
513 372 0
867 717 0
152 638 0
671 0
626 53 0
2 52 0
933 118 0
785 0
480 0
747 0
487 0
531 0
232 0
209 0
312 844 0
858 0
119 0
944 0
3 0
602 885 0
76 0
410 0
975 0
153 767 0
292 0
30 0
92 197 0
879 0
320 0
142 0
393 0
430 0
469 999 0
766 0
178 389 0
821 0
692 0
956 716 0
496 0
450 780 0
135 0
904 196 0
393 0
31 0
184 0
482 0
978 149 0
596 206 0
214 0
161 0
979 0
484 0
795 0
924 0
162 0
74 0
855 487 0
204 0
756 0
934 0
485 0
987 332 0
877 0
363 589 0
185 0
266 228 0
286 0
20 646 0
201 0
935 0
483 0
835 0
4 0
428 0
394 0
492 564 0
639 0
206 0
986 619 0
969 0
889 0
216 325 0
890 637 0
902 358 0
768 0
291 0
411 0
300 0
912 954 0
251 0
212 0
480 883 0
642 490 0
301 0
541 0
307 0
121 0
405 0
1 0
682 0
319 0
328 0
746 373 0
381 0
221 0
332 0
449 0
457 902 0
141 0
628 814 0
48 96 0
466 508 0
145 0
437 0
523 591 0
382 0
843 451 0
538 245 0
471 0
948 0
995 0
217 0
84 637 0
772 69 0
36 663 0
495 0
802 0
809 0
352 317 0
932 0
295 0
133 22 0
246 0
841 0
272 364 0
540 0
602 0
700 0
404 0
50 0
409 0
584 0
44 0
667 0
233 0
498 410 0
488 891 0
649 493 0
869 0
273 156 0
748 0
385 902 0
980 0
911 0
649 316 0
928 0
559 0
873 206 0
27 342 0
49 0
752 0
740 0
607 0
83 0
615 0
583 0
305 146 0
119 0
363 196 0
773 0
953 0
187 0
686 0
814 0
747 0
610 0
789 0
82 252 0
71 319 0
81 0
251 0
740 0
706 685 0
780 805 0
970 107 0
376 0
297 0
636 0
669 686 0
112 204 0
584 692 0
592 0
159 0
149 887 0
437 0
723 911 0
14 0
79 0
998 0
557 77 0
20 495 0
958 0
445 0
280 595 0
214 0
921 62 0
541 0
631 0
332 285 0
569 15 0
875 0
507 862 0
765 0
82 767 0
856 0
866 0
413 0
233 0
727 0
553 0
784 411 0
139 0
815 0
543 0
827 495 0
901 0
553 373 0
340 0
120 283 0
260 54 0
925 0
485 0
288 0
298 444 0
880 0
282 0
211 333 0
424 0
12 0
581 0
539 0
364 0
489 647 0
483 0
636 0
34 942 0
675 0
941 0
319 0
368 0
533 0
672 987 0
16 899 0
77 653 0
838 0
688 473 0
9 590 0
377 727 0
696 0
65 0
915 0
349 0
912 775 0
383 0
251 933 0
293 0
169 473 0
886 903 0
558 662 0
154 0
537 715 0
462 46 0
947 607 0
228 0
868 0
994 0
26 0
680 0
386 0
952 13 0
486 0
880 0
44 413 0
683 499 0
514 0
680 0
946 87 0
668 228 0
960 0
674 990 0
326 0
738 0
920 625 0
220 0
590 0
993 836 0
883 492 0
88 801 0
92 0
70 0
526 0
186 0
589 0
690 0
976 0
443 0
130 781 0
111 0
833 0
209 0
656 0
672 0
823 0
190 751 0
850 0
334 0
10 0
541 805 0
332 0
240 757 0
590 0
398 0
811 788 0
48 926 0
725 7 0
84 735 0
784 68 0
538 0
656 390 0
240 0
44 0
121 26 0
901 0
140 0
598 550 0
785 735 0
619 0
865 370 0
18 839 0
569 795 0
188 0
610 0
593 703 0
753 0
626 0
849 0
870 0
696 845 0
704 0
616 0
992 0
336 177 0
478 0
554 395 0
840 772 0
228 855 0
50 0
136 0
701 135 0
408 567 0
29 0
900 0
265 0
308 837 0
281 0
415 0
805 0
480 11 0
930 54 0
62 0
568 0
309 0
128 0
123 0
181 0
434 534 0
578 0
629 750 0
163 0
168 862 0
972 0
576 0
345 0
561 47 0
700 0
82 0
969 0
246 0
466 876 0
910 0
774 0
639 0
538 0
960 810 0
16 781 0
602 0
365 198 0
373 0
793 898 0
849 530 0
347 638 0
544 419 0
760 0
329 243 0
170 79 0
823 0
874 0
281 348 0
264 0
625 0
278 0
268 0
224 461 0
821 0
17 607 0
717 623 0
571 0
577 913 0
771 843 0
357 0
202 0
897 638 0
960 793 0
562 0
70 374 0
220 445 0
287 0
717 0
406 0
984 290 0
90 0
443 0
714 951 0
153 0
562 0
430 0
209 708 0
920 29 0
621 263 0
328 753 0
115 0
992 127 0
885 0
569 179 0
460 183 0
137 0
541 95 0
109 485 0
946 0
873 0
725 0
395 604 0
443 0
197 949 0
831 0
765 0
155 540 0
304 0
711 0
765 62 0
315 453 0
765 0
159 0
563 211 0
147 662 0
715 231 0
898 907 0
889 0
345 914 0
722 0
603 0
330 0
871 0
192 453 0
619 251 0
516 0
514 0
183 0
503 0
468 341 0
518 0
816 716 0
371 0
803 0
591 0
353 0
635 220 0
793 0
8 681 0
259 0
463 0
307 0
889 0
216 899 0
522 0
136 854 0
83 0
314 380 0
421 934 0
540 0
745 0
824 0
753 0
975 0
785 713 0
170 0
616 0
375 0
339 0
976 34 0
312 0
857 180 0
809 791 0
603 0
527 0
794 0
530 0
328 0
386 371 0
494 0
587 0
708 0
681 0
632 0
738 0
342 0
229 0
287 0
477 0
358 0
215 0
514 66 0
646 87 0
550 0
990 399 0
491 0
267 0
821 0
788 0
242 0
942 735 0
397 0
641 0
627 0
176 252 0
715 0
83 243 0
833 0
440 339 0
959 0
761 923 0
752 778 0
196 0
476 999 0
449 0
727 0
937 0
900 0
700 118 0
829 0
71 0
947 0
997 0
708 0
160 763 0
702 0
517 303 0
602 0
800 698 0
608 0
276 0
349 117 0
350 0
756 0
542 0
307 0
656 0
702 0
722 284 0
383 0
825 0
864 0
615 0
75 583 0
17 346 0
980 0
535 0
445 0
411 333 0
538 0
569 0
544 51 0
892 0
986 0
23 0
163 686 0
596 0
743 0
301 0
770 0
857 148 0
774 782 0
952 495 0
878 0
932 0
337 0
750 0
876 86 0
19 0
189 0
671 0
664 0
566 0
177 977 0
347 687 0
715 0
760 436 0
58 516 0
649 137 0
896 0
134 0
314 883 0
953 0
508 0
907 68 0
77 0
852 0
621 0
725 0
561 0
444 0
929 0
63 0
668 758 0
975 0
736 0
755 0
791 0
116 0
810 430 0
24 0
552 0
302 575 0
357 0
849 961 0
637 0
249 0
873 0
674 484 0
841 54 0
35 0
58 243 0
514 0
111 0
18 758 0
499 0
570 679 0
409 564 0
146 220 0
475 647 0
208 373 0
774 0
30 0
938 0
221 0
504 53 0
352 872 0
574 0
817 0
136 0
696 858 0
285 0
325 0
483 183 0
485 0
189 0
653 0
492 549 0
609 707 0
702 0
73 0
446 0
271 0
498 0
786 0
83 0
928 0
914 0
70 0
765 103 0
12 0
984 0
932 639 0
252 0
999 0
483 14 0
311 0
421 286 0
605 0
730 0
138 0
731 375 0
422 0
953 404 0
499 0
941 0
719 0
825 0
2 695 0
477 318 0
337 0
264 0
862 0
194 44 0
173 0
367 0
756 0
817 0
593 93 0
146 0
739 0
581 0
991 0
332 0
216 0
198 0
131 0
794 0
123 0
114 0
243 260 0
856 0
836 0
207 0
401 0
137 0
447 0
359 0
557 775 0
216 0
81 700 0
942 0
268 0
78 0
981 239 0
412 0
923 0
548 0
441 778 0
545 0
533 0
913 179 0
84 821 0
208 0
647 0
80 0
356 0
292 0
575 0
662 470 0
394 92 0
222 0
35 0
538 957 0
894 295 0
650 0
187 879 0
869 0
336 0
392 515 0
582 0
916 215 0
884 0
188 0
621 0
558 0
430 0
712 0
953 962 0
950 0
37 0
722 0
766 151 0
70 0
151 0
683 949 0
212 0
498 748 0
673 0
504 0
843 117 0
221 0
322 531 0
241 0
82 0
407 0
639 0
679 0
153 817 0
424 0
269 342 0
258 294 0
155 0
347 0
855 0
921 0
890 0
290 0
570 998 0
952 707 0
357 0
212 0
853 0
37 0
715 899 0
660 0
456 431 0
157 0
987 775 0
145 0
738 0
652 55 0
658 0
415 0
558 0
862 0
747 500 0
727 0
522 623 0
667 0
143 0
314 0
77 0
748 0
634 122 0
954 0
613 454 0
387 0
207 0
457 0
418 0
640 330 0
55 0
721 0
83 0
182 0
553 0
30 0
942 814 0
691 614 0
776 0
226 735 0
499 613 0
283 0
233 0
938 723 0
657 945 0
733 0
353 0
126 270 0
307 0
789 110 0
396 420 0
683 0
722 670 0
695 0
160 488 0
485 0
673 430 0
511 0
485 0
217 0
157 527 0
570 0
15 0
469 591 0
860 0
848 0
375 0
501 0
472 0
257 0
664 0
534 0
867 0
638 0
123 0
582 0
99 0
15 0
556 565 0
380 479 0
489 0
902 0
423 0
459 0
104 18 0
980 684 0
814 0
168 499 0
89 778 0
280 0
649 0
266 0
825 0
602 0
496 284 0
834 0
992 0
38 0
630 0
153 0
737 0
908 0
614 166 0
291 0
353 131 0
121 0
368 370 0
27 0
350 0
354 611 0
83 0
377 245 0
570 671 0
164 0
758 0
72 0
448 0
60 0
134 0
425 0
987 0
246 0
268 0
178 159 0
73 0
291 701 0
954 0
185 495 0
72 619 0
58 358 0
445 0
636 230 0
341 0
315 254 0
137 483 0
545 726 0
734 0
771 291 0
497 0
827 0
825 60 0
913 76 0
944 0
561 0
89 0
931 0
292 397 0
446 903 0
677 0
273 0
283 0
984 0
876 0
742 0
500 0
652 0
556 367 0
648 0
586 0
640 901 0
907 0
520 0
763 0
188 0
732 492 0
841 0
131 0
474 0
805 0
324 711 0
604 580 0
871 0
763 534 0
491 0
547 0
333 525 0
639 0
690 627 0
817 485 0
296 0
137 421 0
706 922 0
484 0
737 118 0
726 0
737 0
52 0
616 0
115 543 0
172 0
604 799 0
584 0
61 421 0
347 0
207 0
271 0
788 0
593 846 0
630 0
773 182 0
836 422 0
861 0
982 0
564 94 0
337 730 0
830 806 0
281 485 0
457 676 0
456 0
215 0
124 526 0
445 0
86 0
233 0
187 939 0
148 0
462 958 0
497 231 0
223 0
778 796 0
92 0
850 475 0
569 0
67 635 0
397 0
25 0
221 309 0
710 0
999 0
848 0
394 0
936 0
881 215 0
584 993 0
321 729 0
765 0
734 0
109 0
406 335 0
841 116 0
426 626 0
667 701 0
873 0
854 0
851 111 0
888 329 0
694 0
968 801 0
248 0
692 277 0
685 0
907 0
834 0
469 0
291 0
287 0
970 269 0
132 637 0
568 0
931 0
428 718 0
668 0
427 494 0
243 103 0
547 206 0
506 0
128 810 0
312 733 0
2 0
613 389 0
103 0
749 0
954 0
515 623 0
902 0
822 0
577 0
248 0
936 0
114 0
594 0
10 597 0
984 66 0
13 894 0
723 733 0
781 0
939 358 0
149 0
104 0
502 0
136 13 0
997 0
379 293 0
124 781 0
516 0
708 949 0
805 0
69 0
780 573 0
753 58 0
339 0
977 0
308 0
981 766 0
305 0
899 0
760 0
609 0
204 0
91 0
45 0
884 0
281 39 0
410 0
884 92 0
887 0
312 0
246 0
800 258 0
655 0
69 0
269 0
885 0
178 0
774 0
420 0
453 958 0
525 0
344 0
535 0
91 812 0
649 0
818 0
333 0
587 828 0
953 118 0
974 0
291 0
604 0
186 399 0
312 293 0
337 0
146 0
737 582 0
580 359 0
376 0
464 0
729 890 0
488 631 0
905 265 0
880 0
19 469 0
528 363 0
160 0
468 0
286 0
257 258 0
755 0
82 0
965 0
671 0
889 0
637 0
502 615 0
401 0
333 0
433 53 0
323 0
919 0
62 0
132 159 0
136 599 0
144 989 0
481 170 0
52 655 0
40 0
890 0
562 773 0
249 0
383 0
664 84 0
632 0
254 0
318 0
180 0
95 0
425 0
823 0
136 0
763 639 0
264 345 0
564 0
536 595 0
221 445 0
732 0
136 0
876 0
674 783 0
175 0
969 0
997 30 0
591 0
643 0
278 0
620 0
460 133 0
221 0
966 0
905 0
479 0
299 0
233 781 0
394 0
689 885 0
918 0
99 36 0
158 0
328 0
896 0
338 0
545 0
440 910 0
348 286 0
12 0
345 770 0
699 277 0
86 0
235 0
316 0
633 0
377 717 0
316 0
728 471 0
338 0
823 0
449 0
900 0
313 0
664 298 0
357 0
541 0
833 148 0
989 703 0
978 0
630 0
644 0
26 45 0
628 0
24 0
793 0
409 0
617 0
124 0
450 687 0
543 0
715 0
204 0
42 958 0
176 0
64 0
359 0
11 0
606 0
197 254 0
528 0
547 0
82 211 0
184 0
890 4 0
770 242 0
8 0
91 0
537 914 0
111 0
414 0
844 0
50 0
148 183 0
78 0
426 0
803 374 0
809 0
456 332 0
769 364 0
153 628 0
788 5 0
920 0
938 982 0
248 623 0
155 0
163 303 0
564 0
254 0
65 0
564 0
600 0
784 0
273 517 0
752 0
368 892 0
287 0
45 0
956 0
437 0
193 12 0
49 0
815 0
570 998 0
953 773 0
160 0
4 0
840 71 0
113 91 0
334 0
148 0
401 422 0
765 79 0
370 0
868 790 0
516 533 0
745 741 0
745 132 0
648 0
816 0
464 0
102 0
384 527 0
689 0
665 0
745 962 0
763 0
555 0
896 0
836 0
659 0
62 0
502 0
188 0
650 725 0
961 850 0
193 0
318 0
176 0
467 0
694 0
921 943 0
459 0
574 855 0
572 0
180 86 0
843 452 0
734 0
487 0
698 163 0
298 748 0
564 751 0
678 0
770 267 0
943 0
917 423 0
324 0
544 29 0
772 308 0
228 0
175 0
431 0
97 211 0
901 0
100 0
180 0
760 0
782 0
12 588 0
318 0
534 0
208 0
576 0
935 0
145 875 0
779 0
171 703 0
861 0
332 127 0
964 0
994 935 0
976 0
154 20 0
4 894 0
927 0
227 0
368 966 0
68 0
448 150 0
430 0
117 454 0
912 266 0
375 0
18 0
904 322 0
206 0
555 0
342 462 0
428 0
526 0
663 0
738 0
916 708 0
615 0
974 0
353 374 0
333 422 0
272 27 0
689 0
73 325 0
391 0
105 0
715 558 0
340 0
382 0
299 0
570 0
806 0
440 0
345 0
731 919 0
362 0
971 0
11 0
714 373 0
798 0
258 0
565 0
641 0
99 77 0
468 0
329 449 0
544 0
457 743 0
706 771 0
516 860 0
921 242 0
699 589 0
228 0
882 0
240 0
136 48 0
525 383 0
164 414 0
434 83 0
800 0
517 0
632 0
480 175 0
213 990 0
721 0
453 0
761 0
453 0
661 0
674 0
41 0
928 0
57 910 0
539 675 0
491 902 0
414 0
611 0
756 990 0
541 901 0
361 0
537 0
126 0
324 0
890 0
710 0
919 0
570 195 0
758 0
790 0
538 356 0
410 535 0
209 741 0
637 0
360 0
546 0
731 0
123 662 0
826 660 0
664 247 0
816 0
407 0
331 220 0
742 0
850 0
65 0
961 827 0
237 0
12 0
950 0
104 771 0
965 0
99 0
25 0
27 0
758 0
262 0
266 0
260 0
107 755 0
708 0
21 0
823 0
787 219 0
837 0
450 0
105 0
773 0
231 0
792 0
81 0
192 557 0
558 0
536 0
56 521 0
478 0
700 0
652 405 0
981 535 0
858 0
760 0
128 928 0
173 0
970 0
333 0
726 0
330 0
535 0
192 354 0
96 0
362 147 0
930 6 0
331 0
363 159 0
539 462 0
232 0
497 0
68 0
787 0
108 0
919 0
252 23 0
570 965 0
479 0
403 0
800 68 0
992 0
964 302 0
995 831 0
818 863 0
405 0
762 0
710 0
233 0
775 0
605 0
608 0
153 382 0
448 0
45 0
389 0
911 0
479 0
987 0
38 0
591 583 0
241 15 0
877 0
153 492 0
316 0
454 0
972 0
81 181 0
201 0
793 0
44 0
211 0
458 231 0
409 859 0
39 0
948 556 0
672 0
369 362 0
639 0
505 0
593 921 0
681 0
946 0
883 0
274 0
872 0
678 0
922 363 0
625 0
252 0
845 663 0
752 593 0
111 0
790 0
377 0
619 247 0
208 837 0
626 0
762 366 0
540 0
269 0
911 0
654 0
866 300 0
421 0
589 0
641 0
777 0
424 0
28 94 0
666 0
184 0
254 0
697 514 0
158 0
501 0
400 958 0
695 0
36 0
787 0
920 724 0
100 148 0
772 0
582 0
926 0
378 29 0
192 878 0
312 0
81 390 0
178 0
537 0
793 0
481 806 0
431 0
740 0
173 0
431 0
283 830 0
928 0
515 0
37 0
733 0
913 670 0
738 0
599 0
534 975 0
38 0
984 0
980 0
541 0
596 0
404 0
817 0
112 454 0
406 0
23 0
682 510 0
719 0
272 0
427 0
508 0
737 261 0
993 0
581 997 0
163 0
321 145 0
79 0
995 0
713 627 0
881 0
201 986 0
722 0
199 0
964 0
944 0
154 188 0
83 0
37 0
2 0
17 0
126 0
884 0
461 0
28 0
265 0
985 829 0
638 0
544 0
493 0
601 0
843 148 0
950 0
832 616 0
36 342 0
673 0
739 908 0
93 0
833 0
902 351 0
516 806 0
388 327 0
848 706 0
961 95 0
37 0
412 0
692 669 0
205 0
56 51 0
896 0
698 757 0
584 298 0
586 0
44 0
940 0
320 184 0
993 0
663 0
403 0
755 685 0
872 781 0
168 0
359 0
417 0
446 0
202 0
529 0
80 0
744 345 0
63 0
994 0
556 0
651 0
528 0
468 0
603 367 0
60 0
971 0
315 635 0
212 885 0
360 0
667 508 0
381 0
528 0
418 0
905 0
961 0
810 0
416 0
665 658 0
57 0
37 0
878 447 0
211 0
75 0
515 0
15 0
861 0
277 0
45 262 0
650 0
774 0
539 787 0
906 0
861 0
36 0
212 0
622 0
812 838 0
693 0
432 0
309 0
697 0
786 0
68 0
737 946 0
969 827 0
983 0
534 0
23 0
644 0
628 0
835 228 0
130 212 0
977 0
265 0
291 0
495 0
688 0
658 845 0
220 398 0
954 0
820 0
970 0
107 0
296 953 0
23 0
302 879 0
26 0
699 0
736 845 0
668 0
224 21 0
562 604 0
584 959 0
580 0
896 909 0
622 0
52 0
752 867 0
63 0
614 0
794 0
200 916 0
360 784 0
475 0
58 591 0
374 0
296 901 0
192 0
47 0
210 836 0
784 631 0
994 76 0
937 467 0
527 0
869 0
99 0
110 0
451 479 0
300 0
2 0
785 0
875 244 0
495 0
311 0
825 318 0
141 0
575 0
906 325 0
666 0
944 0
714 0
100 0
414 0
714 654 0
703 0
836 309 0
400 0
846 0
357 0
538 799 0
125 0
860 0
419 0
165 0
842 0
940 0
326 0
619 21 0
88 111 0
389 0
552 730 0
117 294 0
411 0
786 0
817 0
34 756 0
258 0
652 0
809 0
977 0
213 95 0
548 0
523 519 0
796 0
336 0
161 779 0
729 838 0
166 0
753 956 0
768 0
81 0
571 0
609 0
79 0
708 388 0
854 0
776 0
359 0
164 0
740 0
979 997 0
814 0
553 0
669 0
71 0
234 0
964 919 0
575 0
29 606 0
225 0
788 0
368 321 0
266 46 0
498 0
684 0
103 0
962 0
399 0
346 0
533 0
2 0
252 367 0
428 0
323 755 0
991 0
91 254 0
508 0
745 180 0
702 742 0
900 0
124 0
942 0
687 0
188 0
618 0
248 0
401 988 0
600 179 0
11 750 0
355 795 0
733 0
325 0
241 0
277 0
544 285 0
327 0
186 317 0
112 789 0
463 215 0
472 628 0
209 0
25 0
185 0
50 0
715 0
563 909 0
783 0
181 0
301 0
472 594 0
746 51 0
685 0
435 0
832 0
33 0
659 0
574 190 0
377 0
175 0
667 0
267 134 0
761 0
530 0
874 421 0
650 0
134 0
492 0
990 0
407 0
34 611 0
280 0
599 0
787 454 0
641 0
914 437 0
670 0
573 0
163 463 0
601 822 0
567 0
666 613 0
126 0
79 0
105 0
979 212 0
449 156 0
384 273 0
748 0
91 0
228 0
254 0
921 0
643 0
698 725 0
189 0
600 979 0
318 0
344 0
449 0
513 0
704 0
636 0
117 102 0
158 534 0
967 0
822 0
39 0
903 0
914 0
380 0
61 0
950 0
425 0
912 457 0
245 0
172 215 0
515 645 0
70 0
748 0
17 0
412 958 0
803 0
704 432 0
569 0
642 0
521 0
155 0
304 0
664 0
972 0
764 0
236 0
421 0
825 371 0
958 535 0
558 0
777 0
770 0
592 397 0
100 0
523 0
949 0
269 0
779 247 0
513 373 0
687 0
742 0
714 450 0
719 0
24 349 0
571 0
228 0
480 0
315 0
325 0
484 0
18 0
812 0
182 31 0
785 930 0
474 701 0
125 405 0
517 911 0
643 0
781 0
595 390 0
297 661 0
523 0
424 0
970 0
419 0
196 0
762 0
345 578 0
709 0
760 881 0
980 453 0
941 0
928 2 0
287 0
557 0
739 0
685 374 0
560 223 0
866 806 0
547 0
671 0
553 55 0
585 0
334 0
773 0
806 0
134 999 0
175 0
531 979 0
766 0
358 0
863 0
435 0
643 0
822 0
861 0
638 327 0
366 0
355 0
529 0
407 0
225 0
425 327 0
536 134 0
227 0
334 0
199 0
305 0
118 462 0
789 0
691 0
514 0
916 692 0
476 0
998 0
859 876 0
686 0
74 259 0
283 0
490 0
593 388 0
343 0
213 0
505 891 0
668 0
452 0
475 0
953 738 0
242 0
801 0
777 394 0
318 0
978 0
832 935 0
615 0
399 0
517 0
525 685 0
512 0
595 0
80 987 0
699 755 0
234 0
12 0
426 484 0
697 759 0
720 0
981 0
227 0
787 0
898 38 0
74 53 0
967 0
162 0
953 0
655 0
827 132 0
952 0
172 653 0
168 890 0
547 0
797 0
902 863 0
388 0
962 0
83 884 0
219 892 0
891 0
864 0
850 0
919 0
369 0
187 0
363 413 0
982 0
201 0
630 879 0
60 0
729 0
114 0
421 0
627 0
72 285 0
538 629 0
153 0
308 0
484 151 0
873 174 0
635 0
674 0
612 0
509 0
374 0
681 0
856 0
473 287 0
334 631 0
328 0
81 0
986 0
242 0
371 0
144 0
784 794 0
556 0
982 0
853 0
757 0
963 0
721 762 0
982 910 0
689 0
999 0
291 0
901 0
386 0
956 886 0
88 223 0
182 0
289 0
103 0
260 0
921 198 0
3 0
490 0
947 333 0
417 539 0
449 0
966 974 0
569 289 0
276 0
496 361 0
354 516 0
78 0
853 397 0
187 0
743 0
12 0
205 0
412 0
120 0
753 0
259 0
131 998 0
397 0
152 540 0
64 0
931 732 0
419 0
331 0
274 0
312 318 0
869 0
972 0
704 778 0
683 0
792 0
820 742 0
754 0
428 0
589 0
626 767 0
479 0
958 0
563 0
468 0
187 0
99 0
391 0
117 0
919 0
545 347 0
328 992 0
783 0
57 0
203 0
720 0
435 0
657 114 0
97 62 0
122 411 0
409 362 0
149 0
115 0
225 380 0
40 95 0
425 0
772 0
46 0
112 563 0
815 0
233 0
758 0
549 0
382 0
478 0
918 182 0
253 423 0
414 0
674 0
282 0
998 0
761 492 0
640 0
812 749 0
747 0
594 0
487 0
687 0
789 765 0
835 0
865 0
521 0
752 0
339 340 0
122 0
675 0
893 0
897 220 0
651 0
169 351 0
759 0
441 0
489 917 0
593 895 0
652 0
188 0
720 0
229 319 0
42 595 0
894 0
685 791 0
124 0
77 0
696 213 0
706 0
560 838 0
99 245 0
114 863 0
378 0
122 0
679 0
172 0
707 855 0
98 0
347 0
877 0
192 0
591 0
873 0
218 876 0
198 0
590 0
106 0
270 0
629 0
855 0
309 495 0
731 0
108 950 0
238 679 0
857 0
813 0
693 0
196 0
430 0
694 486 0
333 0
19 782 0
185 0
197 0
586 573 0
88 0
117 438 0
851 191 0
517 94 0
717 0
591 0
545 782 0
938 0
612 116 0
789 0
74 957 0
999 0
758 0
1 420 0
463 0
283 0
300 383 0
508 0
531 0
633 578 0
649 452 0
234 94 0
831 0
318 0
858 300 0
569 0
588 599 0
951 0
301 0
714 443 0
281 0
129 0
531 0
94 0
73 0
142 39 0
417 0
691 0
896 0
34 766 0
823 0
611 0
755 926 0
665 794 0
805 0
781 511 0
323 0
416 0
661 743 0
27 702 0
441 0
72 0
719 0
392 541 0
228 0
15 0
783 0
260 0
824 0
267 943 0
277 0
745 0
939 0
804 0
412 422 0
993 991 0
990 0
106 122 0
144 0
25 378 0
652 0
841 319 0
363 0
204 0
770 966 0
650 891 0
633 68 0
175 0
907 0
550 0
274 0
272 0
164 0
933 0
52 109 0
44 0
766 0
105 587 0
544 0
480 604 0
625 0
292 0
69 0
78 0
573 0
791 0
44 223 0
85 0
872 230 0
44 0
146 700 0
212 0
893 0
175 0
525 0
684 22 0
141 0
46 31 0
417 0
377 466 0
450 0
164 0
951 0
698 980 0
428 0
129 0
834 0
502 0
528 0
744 141 0
270 0
901 0
104 0
322 0
61 0
225 0
379 661 0
73 572 0
526 0
85 0
423 0
579 0
207 0
930 895 0
261 0
33 930 0
99 493 0
589 789 0
218 997 0
851 108 0
175 0
509 342 0
68 295 0
852 0
788 0
836 0
394 334 0
446 0
205 0
118 0
575 0
570 0
274 347 0
92 0
956 0
27 0
583 0
441 334 0
10 371 0
761 0
935 0
277 0
436 0
70 199 0
525 0
978 0
753 341 0
462 0
543 143 0
15 0
955 0
771 156 0
76 0
58 0
790 0
372 0
664 0
877 423 0
1000 46 0
560 0
255 0
869 0
369 214 0
916 0
311 0
777 811 0
345 193 0
116 0
91 333 0
544 0
611 0
488 0
597 0
330 772 0
909 0
23 0
304 0
584 921 0
228 0
718 398 0
468 789 0
237 0
620 140 0
436 804 0
986 759 0
1000 0
877 0
242 348 0
275 0
656 702 0
738 939 0
871 0
347 0
525 0
522 982 0
473 0
690 0
329 0
850 0
780 0
768 298 0
481 0
44 0
768 791 0
80 75 0
337 0
872 778 0
297 0
498 0
485 0
568 0
867 0
530 844 0
925 0
241 271 0
453 575 0
624 0
457 0
275 196 0
730 0
475 364 0
261 958 0
492 0
733 0
758 0
176 0
227 0
856 254 0
878 0
918 0
140 325 0
486 0
94 0
363 0
273 0
79 0
337 674 0
516 0
521 690 0
709 0
783 0
709 0
784 0
392 731 0
919 0
522 203 0
401 84 0
95 0
856 65 0
432 939 0
602 0
322 707 0
284 0
267 0
585 0
849 0
209 818 0
639 0
187 0
657 697 0
483 309 0
644 0
486 0
614 0
130 610 0
600 804 0
142 0
713 0
488 0
508 0
110 0
34 845 0
792 928 0
401 0
595 0
801 0
224 0
17 641 0
113 695 0
18 282 0
574 519 0
112 299 0
316 0
933 0
783 0
67 997 0
570 0
87 727 0
619 0
396 0
290 0
480 793 0
380 0
24 0
898 0
720 0
525 0
563 167 0
334 0
496 0
721 0
2 563 0
385 239 0
820 351 0
276 0
172 0
218 0
48 0
726 0
257 250 0
239 439 0
596 0
890 807 0
455 0
185 0
843 0
756 181 0
915 596 0
168 428 0
38 823 0
552 0
161 0
654 0
322 0
339 380 0
453 0
714 0
666 502 0
194 0
975 0
508 45 0
233 0
48 455 0
541 445 0
92 0
888 385 0
537 0
349 0
800 0
841 0
704 761 0
257 0
370 106 0
440 134 0
522 0
393 597 0
658 173 0
88 0
173 0
31 0
433 102 0
156 0
632 884 0
389 0
64 0
830 0
879 0
539 0
361 855 0
365 0
497 0
460 372 0
850 935 0
347 0
949 0
960 105 0
115 0
447 0
617 838 0
157 0
777 0
440 0
281 0
946 0
322 0
657 526 0
18 0
932 0
541 774 0
8 0
345 0
274 934 0
833 645 0
609 134 0
757 0
97 0
399 0
271 0
247 0
845 0
734 0
40 655 0
511 0
309 0
684 0
685 0
455 0
632 557 0
340 901 0
55 0
655 0
622 0
382 0
170 782 0
368 362 0
964 254 0
230 0
749 0
360 163 0
60 870 0
542 0
357 0
26 0
198 0
341 0
209 0
231 0
119 0
373 0
273 0
855 0
191 0
593 0
944 676 0
73 0
898 739 0
730 0
603 703 0
626 0
809 0
965 0
158 111 0
501 0
712 97 0
402 963 0
980 0
800 111 0
978 227 0
550 0
797 0
250 0
26 0
280 0
354 0
443 190 0
340 0
718 0
855 199 0
864 0
169 0
13 0
57 0
509 0
705 0
536 0
987 940 0
540 0
146 183 0
732 452 0
91 0
786 79 0
432 392 0
563 0
37 0
302 0
48 0
81 0
501 0
88 0
595 951 0
869 0
722 7 0
535 0
913 507 0
266 855 0
309 0
789 0
313 422 0
898 766 0
696 0
280 0
193 0
359 0
993 446 0
654 0
299 252 0
826 0
753 0
21 694 0
62 0
131 285 0
252 0
250 154 0
706 0
386 687 0
889 17 0
500 0
452 941 0
90 803 0
288 0
488 742 0
985 677 0
555 0
699 815 0
413 0
860 0
912 0
304 0
56 220 0
512 0
225 789 0
511 0
911 0
716 0
189 54 0
919 0
63 0
908 0
865 0
685 0
189 0
912 0
361 983 0
232 374 0
761 0
257 870 0
125 0
624 332 0
905 0
905 0
656 0
116 0
340 0
627 982 0
907 0
527 0
746 0
650 811 0
73 962 0
795 0
550 0
106 463 0
827 0
98 6 0
797 0
332 0
420 508 0
779 0
685 0
382 0
841 0
859 0
165 0
769 13 0
75 924 0
770 227 0
500 0
420 478 0
19 0
785 0
475 139 0
3 0
6 0
397 0
505 6 0
773 0
837 0
443 0
23 287 0
643 599 0
741 0
654 718 0
405 0
443 0
851 0
240 884 0
496 831 0
616 262 0
270 0
305 60 0
24 955 0
969 0
656 0
258 0
432 0
425 0
26 0
906 0
77 0
700 0
660 565 0
104 895 0
774 0
936 390 0
309 0
584 0
637 0
204 0
827 663 0
581 0
600 73 0
937 0
152 964 0
593 113 0
58 882 0
740 0
202 271 0
745 0
993 0
939 868 0
719 0
110 447 0
574 0
974 447 0
783 0
236 0
433 0
683 0
98 0
656 0
204 941 0
338 0
259 0
458 90 0
623 0
691 0
385 0
286 367 0
824 0
762 60 0
718 0
836 0
102 583 0
641 0
641 0
175 0
912 0
219 0
275 316 0
6 0
371 0
157 0
579 0
967 0
634 0
178 0
54 0
689 0
665 589 0
145 163 0
122 707 0
884 46 0
690 791 0
148 125 0
609 0
512 0
122 0
114 0
95 0
936 909 0
220 294 0
128 284 0
608 223 0
386 372 0
960 0
353 641 0
845 0
225 0
516 885 0
274 0
320 527 0
329 245 0
300 334 0
913 0
993 0
532 0
880 0
227 0
937 0
335 0
284 0
53 446 0
152 0
136 959 0
257 0
619 790 0
33 0
37 0
201 0
466 4 0
497 0
858 0
401 0
233 117 0
833 317 0
972 0
539 0
320 0
80 0
324 0
949 0
123 915 0
1 0
708 286 0
150 0
985 0
113 0
552 0
739 0
106 517 0
899 0
353 0
841 0
359 0
416 0
119 0
597 0
913 226 0
812 0
57 561 0
376 0
84 0
26 519 0
92 990 0
492 0
627 0
145 567 0
916 580 0
101 0
109 0
654 0
434 949 0
117 390 0
908 0
409 499 0
727 0
651 228 0
384 43 0
770 797 0
144 771 0
617 0
34 0
323 0
333 0
962 150 0
751 0
749 0
572 0
238 0
466 0
843 135 0
422 0
778 0
962 398 0
48 0
739 0
32 510 0
409 0
171 0
638 0
291 190 0
997 0
184 540 0
16 0
95 0
499 549 0
273 0
811 0
907 428 0
461 391 0
102 415 0
580 0
236 199 0
146 0
161 0
718 0
174 0
777 52 0
975 0
313 106 0
263 0
876 342 0
265 0
707 389 0
120 793 0
113 82 0
427 0
13 0
468 0
508 0
358 0
742 79 0
368 0
102 0
440 0
963 455 0
275 0
713 394 0
159 0
414 14 0
493 0
766 0
929 943 0
98 251 0
690 0
685 0
356 567 0
49 0
271 0
153 0
952 0
557 0
64 323 0
902 0
718 0
531 13 0
567 0
708 261 0
722 0
796 0
312 0
634 0
876 0
112 0
40 0
916 0
305 0
372 0
492 0
755 676 0
263 0
105 0
792 0
192 0
395 0
350 0
162 571 0
130 47 0
835 476 0
857 686 0
534 0
595 0
248 160 0
978 0
750 0
309 0
979 0
217 0
11 0
867 0
745 0
372 0
908 932 0
722 37 0
863 0
249 0
601 0
661 0
67 0
971 0
441 0
918 0
910 502 0
388 0
987 7 0
770 0
182 0
836 686 0
9 0
781 0
859 0
424 0
600 45 0
34 0
288 162 0
803 0
762 0
438 0
958 0
912 0
600 612 0
709 543 0
249 0
844 0
406 0
962 0
13 0
929 0
122 727 0
711 0
379 0
777 0
126 942 0
815 0
689 0
496 0
541 0
336 0
162 163 0
675 405 0
372 0
499 0
904 0
494 0
825 43 0
141 0
624 0
240 490 0
170 0
674 0
762 138 0
786 0
699 0
324 236 0
259 341 0
786 51 0
312 0
543 0
387 0
630 0
485 0
903 0
344 1000 0
112 0
410 0
796 0
156 0
859 0
960 0
24 0
558 0
770 0
414 0
358 0
891 0
653 445 0
627 0
928 914 0
824 934 0
730 0
123 623 0
913 340 0
179 0
66 0
25 0
772 0
180 0
426 158 0
776 506 0
531 0
296 238 0
755 0
810 574 0
386 22 0
888 0
667 262 0
27 0
665 722 0
633 0
764 0
946 47 0
574 974 0
787 0
977 379 0
576 0
212 0
596 0
61 0
337 0
861 261 0
843 0
412 0
363 909 0
322 0
594 14 0
785 845 0
581 0
904 0
241 0
828 0
480 604 0
733 0
283 0
299 0
219 124 0
236 110 0
16 796 0
514 0
923 0
975 0
564 0
290 0
542 0
243 509 0
665 445 0
772 0
921 0
176 342 0
389 0
533 0
685 15 0
263 0
547 28 0
325 0
24 0
122 0
813 358 0
453 0
698 0
80 914 0
2 0
184 0
776 0
626 0
168 301 0
841 0
285 135 0
635 251 0
503 0
834 0
717 0
704 279 0
158 0
20 0
274 381 0
529 355 0
8 94 0
811 0
471 0
777 199 0
130 663 0
374 199 0
960 0
820 663 0
427 956 0
990 0
696 0
140 663 0
683 487 0
406 0
792 0
639 0
328 0
925 0
920 0
335 0
690 734 0
933 886 0
328 0
952 0
809 0
993 324 0
606 0
129 221 0
821 0
972 383 0
482 0
107 0
698 0
208 0
265 0
805 0
832 992 0
202 0
133 0
120 325 0
856 0
976 711 0
57 0
339 0
393 238 0
779 619 0
405 0
815 0
384 0
816 619 0
223 0
209 0
591 0
705 316 0
340 0
955 0
935 0
593 204 0
534 0
144 0
553 12 0
279 439 0
765 0
488 509 0
434 70 0
680 349 0
797 0
524 725 0
106 0
412 0
641 0
302 0
663 0
121 0
428 0
236 877 0
583 0
459 710 0
401 0
3 294 0
454 0
505 0
54 0
412 926 0
65 253 0
285 0
825 185 0
160 454 0
174 175 0
309 0
294 0
546 0
826 0
517 0
979 295 0
865 918 0
839 0
918 0
197 806 0
186 948 0
912 444 0
881 0
596 0
517 0
122 0
344 0
956 0
176 0
186 901 0
536 752 0
533 0
356 0
194 275 0
679 0
739 0
883 251 0
104 0
449 661 0
125 0
110 0
399 0
225 0
297 532 0
939 0
270 0
896 0
142 0
16 0
862 0
28 0
165 0
596 0
675 0
305 0
275 0
412 0
720 194 0
889 0
70 0
170 0
977 356 0
894 0
103 0
377 0
653 0
29 0
914 319 0
99 0
43 0
223 0
907 124 0
337 0
809 0
12 0
91 0
109 0
306 755 0
742 0
635 100 0
887 0
70 0
454 0
506 0
682 629 0
682 707 0
383 0
200 0
800 0
512 333 0
44 0
274 0
254 0
346 501 0
170 0
998 0
318 0
104 950 0
784 0
105 0
504 0
193 390 0
680 0
457 503 0
579 0
595 0
568 0
462 0
965 0
964 0
580 413 0
96 0
202 748 0
544 572 0
821 0
382 174 0
997 485 0
834 0
405 397 0
354 0
600 304 0
246 0
556 581 0
258 0
455 0
204 0
834 511 0
591 0
793 243 0
15 0
273 207 0
483 0
360 0
711 0
866 172 0
436 0
952 871 0
265 0
904 0
170 799 0
385 689 0
316 0
256 0
531 0
755 0
879 0
696 178 0
932 0
671 0
608 0
290 0
723 0
662 0
918 0
547 0
954 932 0
684 0
753 174 0
10 0
106 0
708 711 0
651 0
667 0
792 0
544 0
248 0
139 631 0
465 518 0
718 799 0
825 0
824 520 0
858 0
628 599 0
889 0
316 0
802 0
457 0
985 852 0
957 0
833 0
830 0
530 0
930 307 0
828 421 0
721 311 0
344 0
342 0
90 0
291 0
2 407 0
723 0
436 0
987 0
100 0
913 259 0
773 486 0
34 0
526 535 0
822 0
196 94 0
560 0
938 14 0
864 509 0
406 0
63 0
323 453 0
378 0
770 0
585 0
860 758 0
130 0
381 0
84 0
168 193 0
810 950 0
208 171 0
373 0
81 0
866 356 0
857 0
114 0
713 0
795 0
502 839 0
757 0
280 0
756 0
222 0
555 572 0
384 0
947 326 0
72 73 0
393 0
805 0
455 0
499 270 0
895 0
939 0
467 0
513 907 0
873 997 0
898 0
748 0
217 964 0
97 0
989 0
672 794 0
387 876 0
69 687 0
307 0
904 590 0
507 300 0
563 326 0
353 0
17 0
409 0
284 0
557 0
281 0
43 0
709 77 0
425 924 0
40 815 0
179 0
359 0
894 0
677 0
230 0
211 0
899 0
718 0
342 0
104 0
213 486 0
489 781 0
135 0
872 0
178 255 0
450 0
400 0
600 0
494 0
204 869 0
21 0
8 0
821 0
995 0
201 245 0
435 0
599 759 0
966 0
201 0
100 0
507 0
851 157 0
225 533 0
98 0
773 951 0
728 916 0
621 413 0
41 905 0
883 0
534 0
742 0
910 0
473 468 0
472 0
836 967 0
78 0
109 166 0
749 0
82 0
545 0
654 0
599 0
1 0
619 0
384 530 0
721 0
731 0
506 0
774 0
484 214 0
883 165 0
166 0
692 0
422 0
840 636 0
336 0
887 0
3 0
994 540 0
573 0
602 0
235 0
855 0
75 603 0
577 0
466 639 0
241 507 0
610 0
717 0
107 0
48 0
804 109 0
57 270 0
21 797 0
517 126 0
906 0
222 646 0
578 0
493 0
458 0
299 0
749 0
377 863 0
876 447 0
929 0
667 0
633 921 0
454 0
97 269 0
194 0
293 790 0
987 0
777 0
878 0
127 583 0
108 0
455 0
210 0
681 707 0
630 0
630 815 0
918 0
533 0
889 0
753 0
2 710 0
505 0
552 427 0
273 0
132 0
972 0
108 0
898 955 0
33 356 0
602 0
628 0
993 0
467 0
313 918 0
537 703 0
354 974 0
569 365 0
936 0
732 0
377 259 0
371 0
816 748 0
914 0
249 125 0
242 172 0
975 0
356 494 0
970 0
122 0
409 0
972 0
149 0
331 791 0
64 0
61 917 0
135 0
934 0
227 0
98 0
517 0
433 972 0
692 0
133 0
609 917 0
172 567 0
213 0
236 901 0
651 0
309 0
638 0
85 0
406 0
123 813 0
376 230 0
344 0
461 0
494 103 0
712 818 0
829 0
480 0
690 110 0
515 0
448 0
837 0
68 0
378 927 0
549 535 0
139 919 0
113 0
620 413 0
481 843 0
531 0
922 342 0
961 655 0
414 0
807 0
498 0
794 0
612 0
38 0
132 0
970 23 0
769 0
816 553 0
780 0
21 0
36 0
207 0
492 6 0
701 0
513 0
816 0
565 431 0
41 669 0
3 0
992 0
903 0
994 814 0
892 0
654 0
123 0
515 0
729 0
6 0
580 55 0
185 598 0
265 733 0
43 0
618 885 0
976 0
285 0
581 0
383 471 0
472 566 0
587 359 0
610 0
644 0
282 524 0
762 0
671 0
331 0
165 0
51 0
364 694 0
622 0
289 422 0
986 787 0
939 0
989 0
213 0
601 0
321 82 0
783 0
96 0
90 0
244 0
942 0
239 0
372 0
76 46 0
764 893 0
136 0
192 0
268 0
920 0
921 0
114 0
238 0
309 941 0
530 0
792 0
707 675 0
814 0
237 541 0
903 0
761 0
146 596 0
250 0
553 0
768 798 0
884 279 0
765 0
896 0
392 187 0
266 340 0
978 0
46 0
811 0
702 0
665 0
891 0
354 0
294 126 0
918 207 0
975 0
706 292 0
859 0
824 0
632 401 0
744 440 0
634 581 0
311 0
948 654 0
722 516 0
905 364 0
340 0
358 0
816 754 0
348 0
385 0
194 0
571 183 0
357 631 0
582 0
477 0
296 933 0
390 0
781 0
856 5 0
473 343 0
42 0
814 0
293 47 0
106 846 0
345 0
720 879 0
240 200 0
507 0
883 908 0
13 606 0
650 0
789 0
639 0
784 352 0
41 498 0
552 941 0
677 0
956 0
786 0
681 0
193 511 0
821 0
124 0
771 583 0
813 0
656 195 0
229 230 0
339 0
612 0
451 0
40 0
953 362 0
646 0
604 0
36 567 0
965 0
935 0
961 0
8 733 0
62 0
424 364 0
137 0
504 0
492 0
246 0
797 0
715 0
814 511 0
551 0
35 0
985 0
744 0
152 49 0
556 0
233 746 0
684 0
943 0
426 0
611 367 0
158 0
737 0
592 637 0
363 23 0
69 0
884 0
987 590 0
778 851 0
311 0
959 0
996 0
376 0
733 0
205 0
65 787 0
213 789 0
877 0
5 487 0
667 0
902 0
545 0
266 0
590 0
565 0
222 0
537 0
929 812 0
613 0
331 0
600 0
421 0
962 0
405 0
228 0
128 56 0
282 0
958 935 0
261 6 0
120 579 0
560 774 0
800 58 0
267 212 0
533 0
927 0
980 0
282 828 0
778 871 0
753 0
802 530 0
204 0
771 46 0
885 0
658 587 0
697 0
410 469 0
800 38 0
692 0
337 0
441 0
686 0
868 0
986 955 0
43 0
674 86 0
823 0
946 0
633 0
290 254 0
13 951 0
512 131 0
697 902 0
744 0
93 0
24 323 0
648 0
187 0
269 0
947 911 0
865 173 0
978 0
163 0
720 917 0
561 0
23 0
519 0
932 342 0
95 0
105 0
618 123 0
55 0
67 0
784 0
899 7 0
218 0
488 0
650 0
316 0
858 0
248 987 0
589 0
681 470 0
8 190 0
824 417 0
560 889 0
314 0
376 0
60 0
362 230 0
977 975 0
568 0
139 0
43 0
67 0
675 0
279 719 0
504 0
129 0
147 0
584 799 0
888 0
678 0
954 284 0
472 176 0
194 957 0
293 598 0
625 0
186 0
617 943 0
136 394 0
140 0
126 0
231 0
674 779 0
683 6 0
425 0
657 0
825 259 0
376 0
719 847 0
873 84 0
837 0
965 0
641 855 0
497 0
354 315 0
362 0
366 0
151 0
729 0
919 0
372 0
276 0
113 486 0
756 0
308 0
335 0
585 0
2 0
123 0
306 405 0
649 129 0
305 355 0
652 0
815 0
390 0
193 0
659 142 0
650 781 0
632 336 0
536 0
927 0
771 0
794 0
618 0
467 20 0
876 0
898 0
941 0
698 845 0
29 935 0
421 126 0
236 0
463 0
776 0
291 0
713 189 0
892 0
349 0
754 0
281 284 0
306 0
228 0
956 661 0
684 0
795 0
938 347 0
755 0
170 0
628 863 0
464 26 0
974 0
631 0
648 173 0
65 0
776 598 0
748 0
513 0
315 655 0
248 663 0
505 629 0
36 0
852 0
769 0
473 614 0
12 0
634 165 0
798 0
313 0
142 0
76 0
617 0
943 0
390 622 0
633 749 0
4 0
44 0
788 293 0
107 0
696 285 0
810 316 0
826 0
868 0
228 0
582 0
881 572 0
896 0
321 0
149 766 0
493 0
108 702 0
960 637 0
403 773 0
412 589 0
974 0
593 0
49 0
580 685 0
402 110 0
860 0
699 751 0
657 0
605 846 0
43 907 0
697 846 0
835 0
230 0
977 0
990 0
179 0
177 0
931 0
91 965 0
139 0
978 0
491 0
897 0
879 0
291 0
329 0
145 0
216 969 0
786 0
382 0
54 0
17 53 0
220 718 0
576 0
685 0
489 0
287 0
899 0
836 0
297 0
32 485 0
726 590 0
197 0
657 91 0
267 683 0
784 245 0
183 0
72 52 0
643 0
138 0
596 0
123 807 0
970 0
513 138 0
744 0
737 0
793 0
866 0
923 0
638 0
741 0
49 795 0
585 0
573 0
535 879 0
656 75 0
901 0
222 0
989 0
64 0
292 718 0
160 334 0
248 0
85 0
200 0
600 0
1 691 0
691 0
271 0
448 0
811 0
844 0
972 0
563 551 0
306 0
76 0
465 348 0
565 831 0
874 0
14 0
477 0
233 0
618 590 0
316 0
76 0
305 274 0
833 0
145 669 0
339 0
859 0
290 654 0
888 298 0
361 758 0
967 0
123 0
924 108 0
428 820 0
544 590 0
906 309 0
701 0
506 845 0
732 204 0
894 7 0
811 0
111 0
267 191 0
216 0
771 0
449 506 0
971 0
940 0
60 335 0
455 0
59 0
909 0
320 73 0
59 0
567 0
385 214 0
442 0
835 0
544 0
508 0
716 596 0
228 0
318 0
879 0
839 0
913 0
721 991 0
43 0
296 0
912 0
531 0
152 0
626 191 0
289 587 0
744 0
920 0
516 0
804 0
692 4 0
838 0
401 0
591 919 0
251 0
595 830 0
755 0
982 0
757 0
928 469 0
764 0
707 0
645 0
900 0
964 0
747 236 0
119 0
360 0
211 0
765 0
888 0
617 0
999 0
792 0
390 0
437 0
374 0
513 0
622 0
914 501 0
940 0
937 0
329 0
60 0
775 0
994 0
881 54 0
721 0
61 0
522 0
690 0
83 0
853 0
906 0
67 379 0
315 0
52 0
713 0
867 0
30 0
2 0
628 0
126 0
809 431 0
657 0
953 766 0
241 0
222 0
796 0
638 0
273 27 0
224 783 0
503 0
656 263 0
902 0
40 257 0
744 905 0
748 0
238 0
914 959 0
800 0
711 0
806 0
253 0
350 0
73 782 0
895 0
758 0
475 814 0
714 0
858 461 0
317 229 0
928 0
174 375 0
390 0
790 0
954 0
747 0
821 0
976 297 0
504 0
10 589 0
47 0
730 0
388 0
405 0
736 127 0
157 734 0
339 0
740 421 0
417 489 0
863 0
328 868 0
584 0
464 0
301 0
888 0
508 0
929 919 0
506 0
818 67 0
25 0
649 0
155 0
782 0
972 365 0
758 494 0
149 247 0
71 0
847 0
961 0
201 0
23 0
186 580 0
426 0
888 877 0
821 0
124 133 0
672 0
457 836 0
1 701 0
27 0
764 0
578 0
323 518 0
793 0
989 261 0
350 0
339 166 0
57 0
810 991 0
875 262 0
923 0
53 0
987 0
372 0
777 258 0
868 213 0
94 166 0
88 820 0
98 0
80 421 0
36 222 0
388 0
859 892 0
874 371 0
201 373 0
857 0
48 0
98 0
666 0
84 0
409 0
536 264 0
468 0
937 521 0
137 302 0
173 415 0
28 0
360 0
657 0
414 0
416 549 0
283 0
246 0
619 0
808 0
680 160 0
720 117 0
930 0
472 0
931 0
721 0
513 453 0
429 0
122 140 0
88 82 0
316 0
79 0
335 0
349 0
866 0
544 235 0
96 100 0
516 0
34 230 0
406 111 0
752 0
563 0
226 675 0
885 0
675 0
105 0
378 0
960 0
111 0
246 0
264 0
323 0
385 0
322 487 0
76 430 0
195 179 0
75 0
937 28 0
961 37 0
193 935 0
513 860 0
27 0
381 935 0
473 50 0
207 0
669 0
689 359 0
963 892 0
104 538 0
435 230 0
609 0
60 0
176 0
914 222 0
87 0
384 0
227 0
256 0
697 0
696 882 0
186 434 0
100 0
198 0
836 0
257 886 0
744 223 0
563 0
673 830 0
407 0
840 689 0
628 0
675 0
686 0
409 0
464 117 0
823 0
523 69 0
883 0
639 0
536 591 0
441 0
789 551 0
982 0
678 0
678 0
198 0
232 0
690 0
30 0
681 306 0
324 149 0
889 0
330 655 0
374 0
960 0
976 969 0
131 0
482 0
101 0
621 0
760 998 0
600 0
531 0
983 0
848 0
885 503 0
332 0
602 338 0
781 0
32 0
113 0
680 0
917 0
133 0
122 0
848 543 0
819 0
187 0
640 429 0
502 0
354 463 0
319 0
989 0
835 0
857 319 0
725 541 0
174 647 0
791 0
479 0
247 0
739 462 0
290 0
168 730 0
452 0
366 0
470 0
130 602 0
201 0
715 375 0
591 0
170 38 0
120 0
673 0
858 0
647 0
809 0
855 0
113 382 0
448 0
159 0
688 0
539 141 0
4 0
192 145 0
942 0
128 829 0
803 0
260 871 0
48 834 0
129 463 0
117 0
751 0
739 0
838 0
378 0
320 734 0
410 0
708 0
782 0
911 0
63 0
843 0
342 423 0
798 0
493 615 0
413 0
576 593 0
826 0
787 0
829 613 0
234 29 0
317 629 0
508 308 0
796 0
546 780 0
988 0
758 0
921 0
608 0
747 405 0
819 0
148 0
532 463 0
727 0
202 0
360 188 0
881 0
476 0
273 0
605 0
223 0
554 0
875 0
480 0
192 0
944 220 0
225 0
189 0
344 0
104 0
386 0
47 0
705 0
367 0
476 0
762 227 0
667 342 0
549 285 0
328 0
819 54 0
98 0
457 426 0
537 0
31 0
841 0
74 823 0
279 0
417 0
835 0
20 590 0
881 0
809 0
946 0
82 0
786 0
402 0
950 0
292 0
313 799 0
329 244 0
813 343 0
710 0
990 0
622 0
291 0
219 486 0
235 0
49 23 0
907 0
668 0
840 38 0
11 0
897 0
59 0
484 0
680 105 0
918 0
436 580 0
332 0
441 0
703 0
21 0
556 0
388 78 0
244 0
432 0
696 610 0
736 822 0
8 377 0
700 0
259 0
259 0
714 0
46 0
410 0
923 0
194 0
245 0
428 101 0
282 0
512 0
223 0
788 0
992 195 0
920 603 0
376 801 0
105 0
832 526 0
581 0
136 0
226 188 0
915 556 0
883 0
548 334 0
200 877 0
506 0
939 0
397 0
478 0
773 0
801 607 0
704 611 0
836 814 0
79 0
275 0
967 0
469 413 0
670 839 0
562 0
226 0
128 0
816 262 0
565 0
785 0
800 0
54 0
189 0
957 0
104 310 0
693 0
790 0
623 0
667 0
632 0
585 0
779 0
641 0
82 0
945 0
485 0
744 18 0
942 958 0
912 77 0
887 0
33 301 0
345 0
789 0
705 0
232 351 0
553 289 0
624 0
372 0
539 0
104 225 0
324 0
160 0
757 0
254 0
755 0
937 0
358 0
947 0
769 967 0
174 494 0
729 0
448 0
155 0
906 0
254 0
841 231 0
562 620 0
818 0
904 236 0
438 0
565 0
561 596 0
681 991 0
73 513 0
212 999 0
505 821 0
616 0
167 0
519 0
724 0
503 0
58 0
923 0
409 287 0
284 0
834 116 0
600 976 0
450 868 0
742 0
816 0
179 36 0
684 0
392 276 0
154 0
376 77 0
907 892 0
564 781 0
678 319 0
78 0
381 334 0
994 0
352 0
35 0
528 348 0
406 0
216 0
967 0
586 0
361 140 0
162 4 0
520 346 0
85 0
496 0
809 817 0
415 0
657 542 0
438 0
404 0
400 0
537 54 0
869 0
334 0
648 220 0
312 45 0
841 559 0
628 0
423 0
213 0
388 0
105 893 0
607 0
1000 0
829 431 0
728 31 0
998 79 0
698 101 0
817 171 0
81 796 0
752 635 0
74 0
363 0
165 942 0
900 0
409 938 0
600 951 0
131 127 0
452 0
134 0
513 227 0
836 263 0
723 732 0
826 0
901 0
468 0
332 759 0
258 0
815 0
449 0
315 0
559 0
71 0
416 0
68 0
839 0
931 0
805 0
635 271 0
72 19 0
713 252 0
861 0
311 0
95 0
488 70 0
872 0
81 0
680 0
222 0
829 159 0
368 767 0
465 0
23 0
122 855 0
994 0
529 68 0
351 0
888 269 0
287 0
351 0
786 949 0
981 0
354 0
399 0
650 106 0
244 0
921 7 0
529 0
795 0
624 0
189 0
61 0
130 0
455 0
178 106 0
684 621 0
25 116 0
730 500 0
790 0
98 0
372 0
384 0
545 0
437 494 0
264 0
849 0
720 555 0
129 0
698 725 0
301 0
116 0
658 0
176 153 0
640 807 0
16 1 0
220 0
115 749 0
126 0
420 0
130 0
460 0
665 199 0
342 590 0
175 0
27 0
325 822 0
680 0
981 0
417 0
929 0
551 0
739 797 0
700 0
655 0
714 0
452 0
346 0
50 638 0
539 0
643 0
677 0
922 0
64 0
376 0
103 0
300 0
660 356 0
810 386 0
190 0
801 0
236 0
844 0
731 69 0
640 0
976 396 0
355 0
146 926 0
169 0
181 0
32 162 0
815 0
290 419 0
22 671 0
829 0
379 0
586 748 0
666 0
261 0
629 742 0
592 0
845 294 0
327 0
900 0
367 0
753 267 0
317 0
938 0
121 479 0
802 0
951 0
41 970 0
792 0
352 0
162 0
292 0
513 0
846 0
987 0
600 0
253 0
431 0
311 0
569 0
494 0
723 0
154 0
618 179 0
976 651 0
945 453 0
136 938 0
310 0
745 711 0
653 0
780 0
310 0
642 0
873 654 0
258 299 0
168 0
343 0
497 14 0
855 0
38 0
907 423 0
985 0
66 0
680 538 0
266 0
309 0
344 0
353 654 0
723 0
872 0
202 102 0
387 22 0
417 735 0
980 149 0
200 530 0
585 0
670 0
493 0
213 0
440 0
539 895 0
537 0
163 839 0
19 492 0
663 0
677 0
72 0
659 0
559 0
800 238 0
736 670 0
307 0
445 0
324 0
572 0
440 145 0
65 889 0
20 559 0
877 0
989 741 0
354 0
306 0
590 0
512 985 0
7 0
704 0
153 878 0
769 0
320 0
578 635 0
120 856 0
587 861 0
961 0
508 942 0
184 201 0
820 0
727 0
810 0
874 0
626 0
7 0
80 55 0
11 0
545 150 0
866 0
576 463 0
33 0
418 526 0
977 0
571 0
700 605 0
263 0
106 0
44 127 0
745 193 0
200 527 0
890 702 0
156 0
406 0
774 0
209 0
384 0
264 419 0
969 0
608 0
937 211 0
457 347 0
104 0
24 514 0
708 582 0
520 947 0
30 0
899 567 0
141 0
430 0
202 0
342 0
488 955 0
400 0
729 0
605 0
854 0
252 0
482 0
329 0
923 0
920 0
112 526 0
220 0
444 0
779 668 0
177 17 0
326 0
193 0
567 0
752 0
710 0
595 0
467 965 0
366 767 0
180 0
75 0
889 0
837 0
38 854 0
823 0
406 0
563 0
978 0
664 468 0
381 351 0
556 0
196 0
729 0
745 0
518 0
861 0
977 681 0
602 0
714 0
930 0
920 0
5 0
797 431 0
179 0
603 0
760 0
379 0
409 0
470 0
698 0
407 0
838 0
529 0
954 0
208 0
539 0
746 607 0
410 556 0
855 0
927 0
858 0
907 36 0
428 0
692 198 0
387 0
654 199 0
376 201 0
89 0
203 12 0
86 0
263 0
198 0
761 42 0
995 0
957 0
109 317 0
132 0
979 31 0
999 0
904 0
120 507 0
237 0
413 454 0
425 284 0
567 0
880 0
372 0
857 995 0
817 0
381 0
257 910 0
731 0
464 393 0
694 0
560 0
381 0
2 0
58 0
7 0
121 0
939 0
399 47 0
61 0
106 0
911 0
213 0
377 605 0
427 0
669 0
499 892 0
761 0
850 796 0
698 0
472 818 0
813 0
97 0
132 0
248 0
892 0
572 0
387 0
833 644 0
418 0
274 0
273 199 0
977 796 0
32 115 0
315 0
280 0
758 0
313 0
19 0
765 0
60 0
637 0
418 0
764 383 0
994 0
982 0
481 63 0
256 0
140 0
282 0
134 0
60 0
926 0
560 466 0
653 0
21 959 0
384 0
282 0
450 698 0
539 0
97 742 0
105 0
737 685 0
617 0
245 0
698 0
905 0
347 0
428 293 0
681 436 0
559 0
682 0
394 0
914 563 0
684 0
489 0
268 0
162 0
648 367 0
778 243 0
737 0
358 0
622 0
178 402 0
235 0
905 426 0
269 743 0
232 0
259 652 0
731 0
956 0
910 0
740 0
634 0
823 0
282 430 0
530 982 0
160 0
352 185 0
891 0
472 0
1 0
965 94 0
35 0
361 203 0
766 0
5 0
981 0
202 0
185 0
273 0
714 197 0
134 0
516 0
944 0
221 158 0
888 315 0
916 190 0
144 0
508 0
757 0
303 0
129 223 0
109 0
396 0
431 0
997 45 0
852 0
505 0
656 738 0
687 0
883 0
873 371 0
931 0
330 781 0
772 0
180 0
572 0
787 0
353 0
990 0
456 532 0
799 0
186 0
455 0
409 660 0
74 2 0
185 198 0
899 293 0
983 0
655 0
799 0
436 0
890 0
161 0
474 0
996 230 0
132 717 0
523 0
857 0
508 173 0
155 0
81 0
699 573 0
136 205 0
515 0
185 0
526 0
300 0
914 0
890 671 0
83 0
918 0
325 0
27 667 0
151 0
868 932 0
628 0
536 609 0
191 0
536 0
468 566 0
715 0
998 0
505 0
514 0
271 0
534 0
896 672 0
38 0
841 623 0
371 0
770 0
17 415 0
561 28 0
384 0
432 151 0
323 0
652 62 0
485 0
145 0
413 0
989 0
349 0
896 0
18 926 0
949 0
851 0
969 0
646 503 0
869 0
26 110 0
187 693 0
378 0
836 989 0
499 940 0
987 491 0
658 0
968 317 0
143 0
352 887 0
685 0
896 0
65 501 0
819 0
40 353 0
905 838 0
913 742 0
549 93 0
572 0
525 0
336 430 0
380 0
410 0
376 0
268 174 0
607 0
561 0
619 0
659 0
8 17 0
944 390 0
19 229 0
617 0
465 0
770 535 0
398 0
207 0
200 0
323 0
961 0
203 0
554 0
265 0
736 0
373 238 0
875 0
150 0
656 0
177 677 0
359 0
147 755 0
243 844 0
55 0
563 0
366 0
234 358 0
82 469 0
949 806 0
105 0
161 614 0
969 41 0
586 0
930 0
146 0
451 0
570 0
554 0
553 0
250 581 0
430 0
147 855 0
271 0
149 0
786 555 0
220 237 0
498 979 0
518 0
41 172 0
663 0
856 0
379 363 0
176 256 0
296 0
956 316 0
787 780 0
929 398 0
219 0
717 685 0
868 261 0
994 0
49 87 0
32 255 0
121 0
731 845 0
270 495 0
928 0
319 0
69 0
39 0
587 190 0
50 0
754 163 0
328 0
789 0
857 0
174 254 0
370 0
66 0
827 0
458 0
292 0
563 284 0
333 0
179 686 0
769 0
146 0
984 987 0
61 0
955 0
449 0
215 0
296 0
928 640 0
430 0
715 0
651 0
126 0
205 0
215 0
133 0
233 0
537 946 0
670 790 0
707 0
811 0
40 0
211 413 0
160 615 0
850 0
185 895 0
404 0
153 210 0
859 948 0
658 692 0
41 607 0
413 0
818 0
149 302 0
955 0
181 0
698 259 0
712 0
706 0
230 0
149 0
826 423 0
480 0
648 0
676 0
10 0
450 0
995 991 0
268 0
109 0
658 0
661 0
807 0
487 0
651 0
972 429 0
630 0
599 0
304 635 0
473 0
772 0
278 0
735 0
857 740 0
704 0
923 0
51 0
883 0
861 0
795 797 0
369 198 0
392 0
603 0
169 0
695 0
316 0
216 713 0
616 0
763 0
948 711 0
550 0
488 658 0
838 374 0
882 148 0
363 244 0
545 0
688 0
679 0
278 807 0
697 236 0
355 0
596 0
295 0
744 426 0
400 963 0
142 0
426 318 0
430 0
695 0
773 215 0
728 0
401 341 0
782 0
498 0
954 196 0
520 0
522 172 0
917 86 0
798 0
442 743 0
953 0
773 0
541 751 0
72 0
34 0
313 0
979 0
993 0
520 271 0
59 966 0
404 102 0
288 0
355 467 0
108 0
171 0
74 0
392 731 0
608 0
209 343 0
54 0
653 0
960 0
257 333 0
796 0
333 0
482 678 0
523 0
254 0
990 0
289 0
508 903 0
57 141 0
641 0
931 0
780 0
186 167 0
77 0
627 0
570 0
15 0
383 0
498 772 0
105 0
357 0
355 0
537 0
64 0
952 0
403 0
740 0
981 0
198 0
742 0
782 847 0
797 0
528 0
183 0
44 0
155 0
949 0
586 0
686 0
495 0
589 0
576 0
209 333 0
185 2 0
964 0
504 623 0
165 0
754 0
5 0
654 0
49 0
616 0
541 0
483 52 0
647 0
466 0
32 0
256 637 0
508 0
499 0
439 0
139 0
137 0
819 0
851 623 0
797 927 0
801 0
774 0
96 0
194 0
906 923 0
288 0
556 0
606 0
14 0
730 0
440 0
729 0
680 0
906 0
385 0
298 175 0
364 0
611 815 0
659 764 0
335 0
562 389 0
559 0
789 0
329 835 0
326 0
347 0
124 295 0
192 428 0
943 0
184 829 0
815 0
609 0
520 0
426 0
888 115 0
757 951 0
689 0
351 0
631 0
513 298 0
89 966 0
846 0
251 980 0
789 358 0
438 0
73 107 0
343 0
941 0
377 426 0
150 0
175 0
767 0
414 719 0
172 525 0
513 0
860 71 0
623 0
358 0
930 0
367 0
497 631 0
462 663 0
724 0
206 0
550 0
918 0
183 0
328 0
635 0
330 0
907 527 0
793 0
646 766 0
511 0
353 0
903 0
18 0
91 309 0
201 31 0
805 0
20 0
968 0
280 889 0
387 0
875 391 0
834 0
492 37 0
883 0
4 0
72 331 0
992 706 0
780 38 0
714 0
274 0
187 0
133 0
484 0
368 0
873 0
74 423 0
644 589 0
537 0
992 0
301 0
997 495 0
706 0
71 0
669 0
16 0
582 0
397 0
298 0
230 0
137 0
600 921 0
179 774 0
520 85 0
921 0
474 260 0
847 0
186 46 0
366 0
269 0
554 0
436 0
114 779 0
806 0
270 0
633 299 0
148 0
122 0
239 0
816 0
610 0
265 954 0
547 0
353 0
791 0
357 390 0
301 455 0
727 0
835 12 0
757 333 0
217 929 0
366 0
228 0
769 99 0
259 0
292 316 0
976 0
362 0
757 854 0
232 0
540 0
258 0
789 0
481 0
154 0
848 0
840 0
289 0
14 0
547 0
748 0
276 0
411 0
632 156 0
705 157 0
906 0
594 387 0
315 0
987 862 0
91 0
171 0
225 127 0
182 0
363 684 0
904 0
445 0
760 0
275 0
1 0
360 284 0
138 0
90 150 0
697 395 0
379 750 0
535 0
800 0
846 0
379 0
496 0
889 0
128 440 0
813 0
656 750 0
639 0
250 68 0
623 0
336 0
938 0
304 944 0
677 574 0
495 0
851 83 0
384 0
360 0
664 216 0
668 0
888 630 0
773 0
764 0
218 909 0
901 0
170 0
219 854 0
855 999 0
932 0
186 971 0
176 916 0
169 0
545 0
994 0
35 943 0
144 305 0
965 623 0
480 694 0
748 0
15 0
649 331 0
217 0
860 0
710 0
239 0
660 0
881 933 0
574 0
625 563 0
539 251 0
122 204 0
946 0
779 0
615 0
786 0
560 0
327 0
118 0
866 0
597 142 0
643 0
378 37 0
688 627 0
451 0
833 332 0
380 951 0
359 0
801 582 0
670 871 0
19 0
71 0
55 0
99 0
152 308 0
366 0
864 673 0
113 358 0
185 492 0
790 0
796 0
881 0
991 0
709 326 0
29 0
134 0
884 647 0
643 0
322 0
435 807 0
518 311 0
775 0
457 0
984 0
852 0
938 522 0
43 84 0
261 951 0
522 0
917 0
696 0
827 879 0
203 0
446 0
987 0
371 0
792 662 0
867 645 0
681 0
306 0
726 447 0
648 0
511 0
674 0
291 0
377 0
643 0
111 0
136 143 0
147 0
496 0
676 0
133 0
928 0
786 0
475 0
62 0
902 318 0
940 348 0
773 0
486 0
600 44 0
839 0
638 0
224 381 0
411 739 0
693 0
417 225 0
673 532 0
689 796 0
178 0
987 444 0
476 0
267 0
839 0
785 0
426 0
680 0
172 0
484 983 0
470 0
106 436 0
345 678 0
88 651 0
848 845 0
590 463 0
641 0
729 859 0
644 0
753 962 0
246 0
275 0
910 0
62 663 0
883 0
107 0
688 0
417 674 0
149 0
793 4 0
323 0
812 76 0
703 0
162 594 0
899 77 0
729 727 0
966 0
511 0
963 0
133 39 0
387 0
449 0
646 0
734 0
680 991 0
165 0
635 0
577 0
893 0
287 0
624 0
430 0
722 0
129 0
758 0
552 0
166 0
394 0
545 110 0
458 0
29 0
463 0
812 686 0
987 0
987 0
203 0
649 802 0
18 0
149 0
857 113 0
198 0
511 0
510 0
508 0
543 0
369 0
740 0
1 549 0
485 0
515 0
38 0
809 181 0
592 228 0
40 409 0
875 0
193 0
845 0
923 0
55 0
688 116 0
593 0
580 0
938 0
471 0
105 831 0
104 738 0
531 0
327 0
326 0
695 0
396 181 0
530 692 0
678 0
228 0
239 0
20 941 0
889 607 0
752 0
359 0
426 876 0
792 0
986 123 0
385 0
513 0
456 0
139 0
6 0
358 0
489 0
616 378 0
995 188 0
328 0
848 95 0
444 0
286 0
266 822 0
68 0
677 0
925 0
49 0
840 111 0
179 830 0
736 232 0
650 557 0
907 0
605 742 0
959 0
38 0
260 0
430 0
872 137 0
191 0
710 0
71 0
472 0
769 0
674 0
768 0
69 0
632 455 0
21 0
449 844 0
990 558 0
442 0
636 0
73 518 0
385 5 0
394 0
237 782 0
912 563 0
539 207 0
316 0
632 0
688 0
893 959 0
352 0
2 0
224 0
2 0
994 0
843 559 0
881 0
570 0
209 0
184 627 0
426 0
673 294 0
245 0
101 0
540 0
91 0
885 0
780 0
97 214 0
549 0
565 0
100 0
988 0
487 0
504 0
618 3 0
490 61 0
673 727 0
104 0
274 638 0
96 0
780 0
231 0
87 0
284 669 0
307 0
886 0
267 247 0
993 0
764 0
929 0
727 0
149 0
85 0
51 999 0
142 0
985 0
453 0
162 659 0
461 0
961 0
93 0
985 652 0
675 295 0
713 0
545 519 0
759 0
208 157 0
155 0
784 285 0
192 240 0
796 557 0
670 0
917 0
964 334 0
632 302 0
625 0
915 0
859 756 0
636 0
456 0
24 0
687 0
402 0
706 0
552 0
736 244 0
273 405 0
19 205 0
207 0
959 0
680 0
619 0
226 0
195 518 0
86 494 0
989 0
250 0
123 0
818 0
873 0
451 925 0
615 0
699 0
43 181 0
160 0
563 0
302 0
657 820 0
707 0
792 987 0
862 0
93 0
975 0
267 518 0
216 683 0
35 0
851 707 0
329 0
872 932 0
383 0
436 278 0
865 900 0
472 0
411 0
62 0
68 0
140 0
591 0
718 0
737 789 0
946 818 0
240 511 0
150 167 0
234 199 0
702 383 0
208 797 0
985 0
218 834 0
180 0
534 527 0
73 0
364 76 0
444 0
338 389 0
489 318 0
284 0
780 0
141 0
810 183 0
161 886 0
854 0
218 0
811 166 0
934 0
852 0
765 0
908 0
684 0
879 0
371 0
18 0
370 0
880 0
192 337 0
935 0
666 0
175 0
215 0
658 331 0
60 0
749 0
611 237 0
604 0
654 927 0
513 0
855 0
359 0
156 460 0
9 475 0
994 933 0
64 0
507 647 0
69 0
246 39 0
966 0
201 387 0
282 911 0
42 0
944 529 0
909 0
510 0
624 340 0
242 0
397 0
809 0
834 351 0
906 15 0
264 0
236 431 0
491 821 0
19 0
801 316 0
977 0
262 0
943 0
806 0
701 0
826 134 0
372 0
881 169 0
929 281 0
195 949 0
110 0
445 0
252 0
817 0
87 0
307 0
877 0
99 0
701 0
576 0
475 0
949 0
480 671 0
304 553 0
720 0
225 0
884 0
592 0
154 879 0
160 326 0
170 851 0
148 646 0
530 0
68 0
520 0
128 0
699 311 0
840 929 0
598 0
819 0
640 0
110 0
417 322 0
236 0
604 727 0
961 0
857 125 0
629 0
915 0
551 0
70 0
257 583 0
257 0
839 0
876 236 0
777 0
263 0
12 0
213 0
773 791 0
450 0
57 55 0
188 0
684 0
456 542 0
98 6 0
538 461 0
408 42 0
680 0
891 0
328 0
402 0
544 0
733 0
749 0
461 0
414 0
641 0
111 0
473 0
922 284 0
573 0
110 0
88 0
490 667 0
802 0
420 0
749 0
380 812 0
369 356 0
37 183 0
399 0
872 380 0
985 855 0
886 0
675 0
147 0
553 0
241 0
493 0
846 0
957 0
122 227 0
89 849 0
984 926 0
20 0
800 906 0
808 820 0
796 0
296 174 0
704 0
559 0
560 0
843 477 0
153 0
964 0
544 130 0
599 0
484 127 0
348 0
870 0
494 0
849 0
433 0
807 0
826 55 0
61 0
533 0
171 0
940 0
148 0
344 783 0
390 0
938 0
632 635 0
31 0
925 0
241 300 0
125 0
456 786 0
89 0
158 0
253 0
545 191 0
972 0
478 0
368 0
561 855 0
231 0
593 845 0
271 135 0
60 285 0
916 0
40 0
510 0
536 433 0
256 0
512 0
503 0
955 0
768 798 0
465 0
212 0
542 0
913 0
34 0
66 0
506 0
686 0
815 0
234 325 0
818 0
22 151 0
499 284 0
967 751 0
920 372 0
689 897 0
609 0
201 0
233 0
948 372 0
108 0
810 42 0
870 0
556 0
129 895 0
319 0
389 422 0
585 303 0
48 29 0
169 0
908 0
130 0
483 0
56 0
626 0
97 9 0
500 0
247 0
193 292 0
881 927 0
620 0
959 0
50 75 0
134 0
695 631 0
209 0
762 0
517 0
688 288 0
942 0
819 142 0
247 0
53 0
24 0
818 789 0
163 863 0
334 0
556 133 0
415 215 0
448 255 0
737 0
114 885 0
689 0
657 0
923 572 0
978 550 0
808 0
192 907 0
300 0
611 0
569 0
363 501 0
812 61 0
32 0
285 0
31 0
979 0
984 0
355 0
583 0
946 0
532 0
392 971 0
866 246 0
592 0
355 733 0
777 0
179 0
896 0
442 0
245 0
927 0
90 0
489 863 0
460 516 0
515 0
322 0
853 0
923 643 0
707 647 0
959 0
775 0
733 0
398 0
768 0
43 772 0
561 0
652 0
896 805 0
195 0
330 0
780 0
848 310 0
792 689 0
594 0
238 0
721 0
48 497 0
770 0
395 0
1000 801 0
682 923 0
423 0
557 0
497 0
958 0
756 508 0
771 0
791 0
890 870 0
681 0
660 0
344 0
726 0
67 0
210 75 0
466 0
490 926 0
59 0
177 444 0
98 0
969 0
378 0
69 159 0
458 603 0
189 0
652 125 0
822 0
148 0
431 0
534 119 0
682 551 0
595 13 0
385 0
737 0
15 0
386 0
33 0
236 0
893 0
842 0
602 435 0
447 0
338 404 0
439 0
182 0
410 990 0
300 0
86 0
215 0
311 0
43 0
401 0
590 0
681 682 0
72 0
529 0
865 661 0
66 685 0
75 0
811 883 0
1 0
265 0
405 599 0
428 820 0
191 0
490 339 0
268 621 0
426 0
691 0
515 0
817 147 0
417 0
555 638 0
505 0
25 730 0
825 0
896 0
783 0
1000 352 0
769 246 0
271 0
817 639 0
912 444 0
867 0
435 0
429 701 0
52 0
114 0
651 0
119 0
932 0
596 0
809 0
381 0
613 0
844 0
967 0
530 0
137 0
232 0
19 0
163 0
427 0
567 0
813 0
150 0
253 901 0
710 0
561 0
504 0
135 0
830 0
965 0
264 0
428 0
886 846 0
785 0
849 762 0
564 0
240 514 0
100 486 0
600 561 0
795 215 0
385 580 0
524 599 0
534 0
311 0
350 0
442 0
435 0
615 0
829 0
56 0
67 0
288 551 0
968 922 0
520 841 0
514 0
716 0
807 0
794 467 0
364 0
407 0
118 0
308 0
150 399 0
408 332 0
850 0
647 0
451 135 0
929 0
316 0
214 0
218 0
519 0
927 0
928 0
527 0
664 359 0
377 722 0
360 754 0
379 0
58 0
420 0
65 0
193 282 0
581 622 0
724 0
885 0
816 0
721 0
741 438 0
321 586 0
207 0
279 0
982 0
251 0
632 0
518 0
623 0
307 829 0
685 0
841 0
345 0
564 0
354 0
626 0
125 0
576 0
176 981 0
885 143 0
223 0
298 508 0
392 306 0
217 245 0
94 0
444 0
306 999 0
876 0
228 0
984 967 0
455 0
356 0
633 917 0
166 0
938 0
741 999 0
343 0
358 0
130 0
243 0
209 566 0
363 86 0
449 36 0
836 0
626 101 0
359 0
962 0
999 0
198 0
811 0
603 196 0
460 0
604 0
169 67 0
444 0
706 0
102 0
213 0
697 0
107 661 0
414 0
150 0
725 0
848 105 0
943 559 0
261 0
992 0
327 0
621 0
996 0
932 0
483 0
279 0
122 223 0
610 0
115 0
97 0
664 913 0
639 0
882 765 0
84 0
410 54 0
820 0
968 0
412 0
343 0
600 0
157 0
332 0
111 183 0
696 0
631 0
712 379 0
322 0
546 0
731 0
19 0
858 439 0
897 0
933 462 0
73 0
497 0
899 0
505 794 0
958 0
443 0
283 0
274 0
861 0
753 0
350 0
730 790 0
790 0
376 0
416 140 0
527 135 0
968 367 0
11 795 0
129 86 0
598 302 0
405 679 0
772 478 0
281 265 0
818 543 0
547 0
191 0
149 0
588 0
970 535 0
255 0
31 0
573 0
598 0
9 381 0
264 172 0
831 0
379 0
820 342 0
430 0
609 0
161 340 0
65 860 0
722 0
51 0
408 375 0
865 0
834 0
850 0
456 569 0
720 0
154 0
507 0
910 0
170 0
304 260 0
675 0
58 607 0
307 0
626 0
853 0
180 0
241 0
418 0
226 518 0
920 0
18 77 0
82 0
941 462 0
574 0
983 0
386 0
606 0
986 0
806 0
149 0
712 0
242 742 0
168 622 0
354 635 0
17 0
89 271 0
672 0
746 0
601 0
481 719 0
813 0
516 0
425 876 0
223 0
275 507 0
228 0
60 861 0
53 0
9 0
226 0
762 0
343 903 0
768 0
595 131 0
273 0
813 0
534 0
303 0
576 996 0
375 0
147 0
339 0
552 561 0
863 0
280 802 0
368 0
930 0
729 686 0
219 0
842 876 0
76 533 0
828 0
71 0
675 0
729 511 0
729 0
345 0
50 0
440 37 0
224 0
59 919 0
236 0
694 0
466 3 0
916 589 0
396 0
339 0
567 0
82 0
717 0
964 0
819 0
100 935 0
574 823 0
724 0
350 0
796 0
997 0
986 532 0
497 0
514 997 0
739 0
906 0
620 0
227 597 0
620 757 0
744 0
604 223 0
73 0
90 0
171 805 0
731 0
608 0
757 877 0
180 47 0
373 0
777 0
40 514 0
692 0
32 438 0
238 0
832 0
266 0
528 0
59 0
769 0
286 535 0
704 0
41 0
448 425 0
499 0
726 0
667 0
857 0
280 0
247 0
819 452 0
289 0
508 0
437 0
540 0
308 0
418 565 0
943 0
261 0
745 0
91 100 0
3 0
336 885 0
158 0
96 0
637 0
408 0
335 0
190 511 0
802 804 0
537 671 0
949 0
363 11 0
565 0
489 830 0
434 0
665 0
469 398 0
961 0
920 0
543 0
697 954 0
984 552 0
511 0
494 0
659 0
48 0
437 758 0
206 0
979 0
211 0
665 0
776 231 0
176 409 0
382 0
812 0
577 521 0
828 23 0
378 0
116 0
294 0
436 0
173 0
502 0
663 0
50 543 0
619 0
477 783 0
269 295 0
857 737 0
290 0
11 0
396 287 0
134 0
854 0
159 0
728 0
248 0
367 0
745 0
648 182 0
605 0
65 425 0
216 0
143 0
274 0
290 0
352 0
161 0
979 0
310 0
746 0
48 575 0
721 0
539 310 0
937 0
661 0
717 0
395 0
491 0
419 140 0
977 0
520 959 0
502 0
441 0
669 0
531 860 0
46 727 0
138 0
446 0
938 0
882 891 0
472 0
348 269 0
446 0
533 0
476 0
304 0
667 221 0
277 510 0
809 292 0
49 270 0
37 0
924 0
452 0
939 0
617 21 0
992 223 0
857 0
640 803 0
57 0
802 0
775 0
258 86 0
987 805 0
298 0
752 73 0
807 0
754 0
64 472 0
954 0
806 0
928 0
936 0
195 0
928 50 0
341 775 0
40 247 0
414 0
865 0
251 957 0
633 754 0
843 0
469 0
586 34 0
420 0
468 0
467 38 0
977 0
226 831 0
9 478 0
711 0
851 0
42 0
586 927 0
734 0
241 602 0
752 0
299 852 0
110 0
116 0
49 0
313 0
356 949 0
299 0
121 956 0
606 0
356 469 0
920 427 0
123 0
208 507 0
317 837 0
128 924 0
184 0
594 788 0
199 0
905 0
436 0
780 788 0
550 0
152 135 0
113 282 0
475 173 0
240 0
633 0
219 0
192 269 0
695 0
309 0
165 0
593 388 0
508 0
64 0
387 0
37 0
746 341 0
156 862 0
661 0
448 333 0
670 0
716 0
736 0
789 0
980 0
840 0
192 850 0
563 622 0
345 0
255 0
582 0
318 926 0
246 0
654 0
681 941 0
188 0
125 0
496 943 0
936 284 0
276 0
825 0
97 539 0
367 0
204 477 0
240 0
794 0
993 0
722 0
194 618 0
117 0
467 0
739 542 0
850 0
623 0
884 588 0
929 0
771 0
434 0
997 0
74 0
145 0
207 0
881 437 0
643 0
314 114 0
270 47 0
995 559 0
576 0
161 929 0
964 0
960 0
570 0
89 745 0
740 0
814 0
248 0
805 0
391 0
248 141 0
237 0
621 0
784 0
273 814 0
913 500 0
748 0
156 404 0
177 0
873 678 0
392 29 0
488 246 0
729 0
493 0
207 935 0
6 0
64 0
216 0
969 0
425 582 0
501 0
316 0
489 0
520 151 0
893 837 0
400 0
586 0
466 0
100 724 0
49 0
115 629 0
321 519 0
841 0
667 0
289 0
762 0
688 0
924 0
61 0
304 0
37 0
385 0
742 807 0
444 0
185 257 0
387 0
144 0
695 599 0
348 695 0
485 621 0
513 0
479 0
753 0
951 0
224 0
800 0
529 203 0
677 0
935 0
440 721 0
585 0
400 0
892 965 0
957 0
862 0
574 0
86 0
281 397 0
908 550 0
155 791 0
275 262 0
645 0
20 0
572 758 0
204 422 0
433 900 0
200 0
824 0
915 0
260 166 0
769 0
638 191 0
665 0
482 0
690 964 0
395 932 0
521 0
187 0
542 0
487 0
235 46 0
985 534 0
650 0
507 62 0
880 932 0
356 983 0
456 0
222 0
648 940 0
404 0
202 0
879 0
71 0
993 0
75 958 0
655 0
605 495 0
326 543 0
613 0
65 785 0
558 0
876 470 0
861 247 0
1 0
718 598 0
794 0
464 0
733 727 0
628 782 0
889 281 0
75 0
650 618 0
817 0
536 0
610 325 0
481 0
802 0
155 0
488 0
945 0
868 0
426 570 0
896 57 0
368 518 0
864 107 0
560 542 0
870 0
727 0
697 0
434 0
738 0
731 0
729 0
652 0
194 0
76 0
217 598 0
347 691 0
596 223 0
416 0
220 0
589 0
579 0
672 0
91 0
621 0
787 0
785 0
354 0
251 0
177 299 0
240 0
642 543 0
737 250 0
749 0
99 0
836 0
304 0
393 340 0
568 741 0
992 0
173 862 0
166 0
395 0
455 0
435 0
812 903 0
470 0
295 0
196 183 0
556 0
746 0
753 0
828 0
449 407 0
549 0
896 0
221 0
584 0
484 0
366 0
688 0
364 0
996 389 0
531 0
577 0
431 0
225 839 0
62 0
704 0
705 910 0
142 0
626 0
299 0
204 0
782 0
173 0
486 0
138 0
1 0
256 594 0
665 0
106 212 0
840 0
498 0
788 0
710 623 0
41 0
611 557 0
508 141 0
931 0
941 0
408 342 0
545 55 0
320 0
243 0
197 782 0
894 0
489 941 0
797 0
60 0
63 0
320 0
658 0
489 0
489 363 0
486 0
219 491 0
707 0
25 726 0
384 0
338 0
569 266 0
326 790 0
706 0
583 0
696 415 0
571 0
536 0
21 0
372 0
305 956 0
421 0
328 11 0
867 0
348 0
417 0
799 0
934 0
799 0
232 0
836 45 0
976 986 0
939 718 0
524 0
161 0
636 0
46 0
174 0
262 0
515 0
927 0
759 159 0
873 0
400 63 0
977 269 0
155 0
81 0
485 0
868 540 0
730 310 0
191 0
9 809 0
945 0
262 0
17 767 0
240 749 0
839 0
850 652 0
812 294 0
50 0
807 0
827 0
839 151 0
101 14 0
400 0
695 0
333 0
524 0
92 0
95 0
715 0
417 0
104 998 0
643 0
348 0
880 551 0
76 0
804 0
70 0
124 542 0
288 277 0
660 668 0
151 0
588 0
645 0
876 111 0
666 0
872 0
541 270 0
390 0
451 390 0
549 543 0
249 0
51 0
602 0
649 0
733 0
409 804 0
798 0
880 161 0
60 0
682 629 0
188 0
243 87 0
295 0
570 0
225 0
979 829 0
791 0
76 198 0
258 0
313 119 0
476 0
628 895 0
26 0
808 879 0
479 0
588 0
664 0
745 0
716 317 0
868 0
346 383 0
386 197 0
989 558 0
697 282 0
106 0
30 286 0
697 995 0
748 0
307 847 0
274 0
550 247 0
477 0
929 990 0
278 263 0
760 0
174 0
712 0
454 0
384 0
479 487 0
461 0
758 0
889 826 0
445 0
736 0
125 0
24 856 0
872 652 0
698 0
219 829 0
209 0
128 0
189 0
288 570 0
949 0
42 0
397 0
626 956 0
290 0
360 845 0
281 0
978 348 0
8 807 0
814 0
150 0
932 495 0
304 107 0
459 0
81 0
572 0
99 0
945 0
20 0
191 0
767 0
402 0
235 0
58 718 0
887 0
730 0
854 0
281 0
141 0
597 638 0
827 363 0
537 0
363 0
988 293 0
531 0
437 0
122 574 0
404 0
972 269 0
474 122 0
641 0
633 735 0
163 0
42 0
992 919 0
279 0
658 0
946 0
91 0
922 566 0
712 0
369 486 0
626 0
907 0
555 0
805 0
1 0
473 41 0
74 595 0
248 0
102 0
617 803 0
127 0
170 0
704 377 0
737 0
584 0
96 147 0
738 0
193 947 0
589 935 0
199 0
763 0
324 223 0
727 0
561 461 0
626 0
190 0
673 0
300 375 0
68 0
474 0
81 0
722 0
773 198 0
864 0
256 474 0
382 0
727 0
469 335 0
862 0
750 0
328 433 0
664 556 0
279 0
300 0
769 46 0
691 654 0
385 0
282 0
21 0
784 0
137 0
64 694 0
786 797 0
916 0
896 0
168 303 0
124 0
670 358 0
358 0
102 270 0
864 612 0
616 0
969 0
445 958 0
281 798 0
566 0
610 0
121 670 0
353 109 0
238 447 0
538 0
474 0
442 575 0
935 847 0
858 0
32 0
646 0
756 831 0
92 0
897 0
440 375 0
497 0
559 0
682 0
866 0
142 0
213 0
592 370 0
473 814 0
460 0
360 0
450 725 0
138 0
582 0
930 0
282 0
745 0
539 605 0
985 0
514 213 0
697 969 0
983 0
931 0
908 0
774 0
428 53 0
466 191 0
526 15 0
986 0
466 0
93 0
640 267 0
972 389 0
805 262 0
718 231 0
69 790 0
445 230 0
664 0
975 0
196 0
396 157 0
152 0
798 0
566 0
486 0
848 0
93 0
162 686 0
508 0
318 0
308 0
360 772 0
421 0
55 0
581 671 0
371 475 0
721 437 0
756 0
652 942 0
890 0
70 127 0
559 0
569 0
957 0
657 0
587 0
597 119 0
915 0
66 0
458 790 0
914 274 0
509 0
105 0
503 0
339 990 0
49 207 0
666 0
802 0
401 0
113 625 0
235 0
203 0
438 0
754 390 0
32 889 0
946 0
570 0
362 0
185 595 0
89 203 0
650 0
421 0
171 0
43 0
96 0
247 0
488 0
835 0
980 845 0
44 0
461 375 0
307 0
517 0
530 0
856 488 0
844 0
784 933 0
519 0
910 0
383 0
722 0
161 814 0
111 0
370 0
159 0
268 0
712 965 0
46 0
419 0
203 900 0
841 0
761 258 0
553 0
105 611 0
192 220 0
286 927 0
673 570 0
738 292 0
405 0
209 0
273 146 0
813 623 0
165 0
27 156 0
258 135 0
537 274 0
746 0
715 0
960 0
959 0
365 943 0
305 0
915 0
944 0
994 0
109 0
19 499 0
779 0
518 0
460 0
434 0
646 0
935 0
136 0
404 846 0
989 101 0
53 0
787 427 0
390 502 0
178 924 0
664 0
909 503 0
187 0
819 0
491 0
365 0
462 0
34 0
417 454 0
858 0
131 0
498 453 0
812 559 0
325 0
213 0
100 981 0
281 0
517 470 0
935 0
720 0
294 102 0
120 463 0
285 0
842 0
484 0
792 0
922 0
75 0
867 0
327 0
921 0
81 345 0
448 0
378 0
80 706 0
908 686 0
929 82 0
955 318 0
746 0
516 0
469 695 0
939 435 0
253 0
741 0
489 0
313 614 0
591 0
112 247 0
468 0
292 0
155 0
521 958 0
809 165 0
456 0
219 0
90 415 0
635 0
821 0
258 634 0
205 0
938 0
943 0
674 0
832 0
314 292 0
495 0
432 0
251 950 0
283 372 0
752 0
88 347 0
39 0
610 195 0
960 326 0
266 0
98 0
637 0
734 110 0
279 0
789 0
436 630 0
870 0
514 0
453 0
140 0
717 0
590 0
721 0
210 0
5 0
247 0
779 163 0
499 0
977 789 0
664 0
632 353 0
952 0
434 0
313 0
991 0
689 0
826 0
423 0
968 894 0
4 0
309 0
606 783 0
825 0
901 182 0
903 0
500 167 0
906 647 0
949 0
835 675 0
280 0
187 0
522 0
430 0
974 310 0
394 0
111 0
577 0
497 0
441 323 0
9 388 0
357 0
788 0
412 157 0
315 0
534 0
502 143 0
119 0
972 0
60 0
58 0
908 0
915 317 0
562 390 0
27 0
935 0
879 0
954 0
604 0
276 0
904 491 0
182 0
816 0
359 0
177 655 0
680 42 0
206 0
492 0
541 0
556 711 0
496 0
501 0
446 0
723 0
608 0
826 142 0
80 0
685 0
669 0
813 0
1 437 0
679 0
768 0
259 0
807 0
818 861 0
388 511 0
710 0
202 853 0
445 0
497 0
378 15 0
220 0
890 133 0
69 0
176 0
928 0
843 0
352 0
106 0
463 0
619 0
506 247 0
879 0
119 0
863 0
135 0
885 494 0
564 0
209 533 0
34 286 0
419 0
308 0
356 589 0
125 0
309 701 0
877 0
912 407 0
13 0
90 0
437 0
275 542 0
441 36 0
164 613 0
780 0
113 687 0
96 386 0
744 0
430 0
837 0
798 0
293 0
426 0
388 268 0
976 0
666 0
745 0
527 0
716 0
477 0
565 63 0
261 0
361 356 0
683 0
881 0
187 0
866 0
264 93 0
27 54 0
560 0
111 0
483 764 0
384 0
848 0
444 0
634 0
637 0
95 0
421 0
660 0
612 655 0
174 430 0
162 0
28 0
338 0
856 0
899 0
735 0
747 0
514 879 0
828 0
794 398 0
76 0
962 419 0
1000 243 0
890 0
970 242 0
915 204 0
650 622 0
482 0
656 0
840 944 0
49 0
606 0
808 0
843 0
131 0
610 0
460 303 0
777 251 0
744 684 0
968 629 0
829 597 0
790 0
853 0
265 0
492 727 0
407 0
699 0
891 0
56 0
960 964 0
713 537 0
515 13 0
600 0
528 583 0
704 865 0
466 7 0
8 92 0
185 0
311 0
834 0
547 0
673 626 0
57 0
994 0
870 0
779 0
825 0
240 765 0
484 23 0
533 0
368 778 0
602 0
855 0
77 0
175 0
249 307 0
743 0
799 0
6 0
561 301 0
43 766 0
657 308 0
347 0
488 0
675 0
688 0
598 0
588 15 0
100 0
723 0
981 0
203 116 0
728 797 0
723 966 0
326 0
810 84 0
950 0
740 0
136 0
670 175 0
279 0
748 0
108 0
370 0
234 0
152 0
346 566 0
757 599 0
579 543 0
300 790 0
556 0
678 0
170 0
868 0
956 0
816 0
24 0
999 0
74 0
498 823 0
978 814 0
672 266 0
8 0
289 0
883 286 0
855 0
263 0
265 0
832 0
409 814 0
482 0
873 549 0
536 0
679 0
409 934 0
29 173 0
967 0
128 0
318 0
242 470 0
244 0
497 244 0
161 0
536 0
136 0
80 320 0
648 0
727 0
354 0
59 0
207 0
742 0
708 463 0
231 0
936 850 0
601 0
287 0
411 454 0
955 0
848 188 0
567 0
756 0
899 349 0
777 878 0
540 0
297 0
851 668 0
378 804 0
363 535 0
419 0
563 0
625 0
226 0
417 470 0
104 0
210 0
198 0
422 0
529 267 0
722 394 0
613 0
706 899 0
529 0
805 487 0
895 0
311 0
20 0
950 0
802 323 0
461 0
554 301 0
746 87 0
500 0
799 0
997 0
102 0
455 239 0
72 0
749 0
550 0
393 885 0
881 762 0
367 0
392 0
914 0
792 0
247 0
418 302 0
30 0
590 415 0
766 0
286 0
156 0
677 0
539 727 0
249 0
392 0
222 0
765 133 0
236 0
890 0
629 0
556 0
825 0
818 0
764 0
72 205 0
680 526 0
371 0
325 0
789 0
403 949 0
629 581 0
102 0
749 0
483 132 0
777 0
759 0
140 0
788 0
667 0
26 0
205 0
448 0
585 0
301 0
50 0
966 574 0
317 0
517 0
482 0
288 0
592 0
742 0
546 670 0
605 0
912 716 0
724 172 0
238 0
604 0
381 0
323 0
906 414 0
293 0
532 0
600 107 0
31 0
498 0
845 0
428 655 0
234 207 0
829 999 0
985 0
574 0
830 423 0
728 0
13 677 0
381 0
475 198 0
183 0
718 0
462 0
894 0
880 0
108 0
726 0
998 0
561 854 0
894 0
730 0
94 0
621 0
426 787 0
738 515 0
298 943 0
933 575 0
65 0
819 238 0
72 0
219 0
130 183 0
770 0
463 0
717 0
693 0
449 0
182 0
571 0
297 706 0
563 0
74 0
613 0
649 0
7 0
821 0
857 0
653 0
398 0
669 0
325 0
466 0
604 910 0
714 980 0
928 387 0
892 0
661 150 0
845 0
842 877 0
750 0
573 0
666 0
347 0
923 711 0
157 0
756 0
275 0
427 758 0
776 230 0
274 0
355 253 0
145 876 0
808 0
624 0
112 0
146 0
916 271 0
811 0
897 0
504 620 0
194 0
905 0
684 0
480 0
153 0
459 227 0
850 0
76 0
610 0
163 0
341 0
869 0
770 0
131 0
497 0
222 0
965 0
916 0
509 0
85 0
866 0
885 0
999 0
762 0
714 0
797 0
832 0
153 0
285 0
188 0
34 0
84 677 0
737 0
105 0
734 0
833 0
515 0
233 718 0
733 0
546 430 0
832 0
551 0
985 631 0
553 0
372 0
992 0
131 373 0
996 0
550 0
28 0
788 631 0
665 858 0
550 0
731 931 0
576 0
515 0
144 603 0
515 653 0
924 0
284 0
353 634 0
643 0
36 0
882 0
495 0
737 0
214 0
755 0
96 494 0
553 0
42 0
625 0
785 0
433 340 0
509 0
252 0
34 0
409 58 0
759 0
157 110 0
259 551 0
857 0
989 374 0
481 257 0
187 0
91 494 0
641 0
447 0
656 0
700 0
549 678 0
891 0
992 0
850 0
319 0
592 0
867 0
33 127 0
304 202 0
584 0
756 0
329 0
662 0
962 0
104 120 0
841 382 0
999 0
753 0
361 510 0
812 757 0
7 0
70 0
890 596 0
106 0
259 0
501 0
950 0
602 0
798 0
245 0
874 0
416 756 0
787 0
746 0
702 807 0
200 840 0
96 886 0
352 933 0
302 0
514 0
358 0
845 407 0
349 0
550 0
327 0
796 0
586 0
249 331 0
608 174 0
188 271 0
673 922 0
886 0
124 0
488 900 0
296 0
122 0
958 0
91 27 0
862 0
579 0
378 0
993 966 0
361 338 0
223 0
129 0
260 0
692 0
816 175 0
227 853 0
296 787 0
538 919 0
713 0
542 0
418 150 0
654 0
509 0
292 0
801 0
202 0
755 335 0
156 28 0
77 0
736 0
335 0
806 0
85 0
506 826 0
983 0
912 246 0
504 0
169 0
497 0
508 541 0
724 0
152 0
190 0
906 0
129 0
230 0
228 0
194 124 0
601 0
679 0
650 0
895 0
298 549 0
848 897 0
751 0
2 261 0
656 0
623 0
600 0
796 0
958 0
691 804 0
533 0
74 0
476 21 0
141 727 0
120 32 0
93 799 0
284 798 0
919 0
475 0
924 0
626 0
520 472 0
560 450 0
123 0
114 0
473 0
901 0
709 0
376 0
872 0
86 0
583 0
971 663 0
801 0
274 598 0
66 709 0
979 821 0
256 481 0
431 0
955 0
28 0
233 0
145 101 0
483 0
232 246 0
752 0
783 0
680 0
725 0
328 41 0
449 492 0
622 750 0
408 0
215 0
579 0
430 0
734 0
974 0
880 69 0
83 0
490 691 0
263 0
998 0
43 0
3 443 0
592 0
658 845 0
640 456 0
624 0
699 0
347 0
648 0
624 359 0
224 842 0
712 436 0
32 402 0
552 506 0
996 0
452 910 0
503 0
10 358 0
504 445 0
461 638 0
289 39 0
746 0
991 0
322 0
45 0
66 0
861 0
728 804 0
43 676 0
35 0
728 0
535 0
939 0
655 0
981 0
700 95 0
627 0
661 0
762 0
588 0
377 0
738 119 0
844 0
352 798 0
379 180 0
812 0
799 0
280 0
609 862 0
829 0
612 470 0
265 63 0
660 397 0
586 0
574 0
218 628 0
36 158 0
702 0
657 778 0
549 0
756 230 0
212 0
666 0
265 271 0
603 966 0
861 0
702 0
593 0
40 786 0
527 0
692 0
903 0
622 0
834 612 0
166 0
10 410 0
561 733 0
162 0
203 667 0
266 0
963 790 0
453 543 0
833 0
36 0
96 870 0
889 0
853 958 0
913 0
396 639 0
133 0
401 342 0
822 0
746 239 0
415 0
20 0
26 0
162 0
459 0
912 618 0
750 0
749 0
365 0
252 0
413 0
999 0
541 0
162 0
395 0
460 0
658 0
670 230 0
385 0
470 0
323 286 0
124 0
677 0
212 0
282 0
769 124 0
463 0
471 0
382 0
46 0
203 135 0
192 909 0
306 0
58 0
419 0
14 0
799 0
771 0
256 493 0
823 0
972 743 0
150 0
893 447 0
714 0
532 0
385 0
516 0
218 0
62 0
549 0
840 492 0
696 321 0
947 820 0
614 0
28 317 0
90 197 0
367 0
298 0
859 245 0
128 0
453 0
163 887 0
19 0
864 0
508 294 0
647 0
603 0
55 0
826 195 0
114 0
45 0
762 0
901 0
845 0
657 0
715 0
966 0
804 0
759 0
828 0
903 0
874 0
280 807 0
930 0
259 0
922 874 0
630 0
913 50 0
403 0
66 150 0
767 0
532 0
154 431 0
89 66 0
530 75 0
654 0
946 550 0
166 0
936 547 0
122 0
656 379 0
210 0
73 908 0
220 0
995 668 0
50 491 0
472 843 0
878 0
495 0
416 0
100 0
588 358 0
914 379 0
959 0
136 173 0
875 847 0
268 0
449 0
469 0
705 263 0
991 0
3 166 0
624 0
839 0
21 415 0
817 133 0
598 0
789 0
114 190 0
929 0
533 0
603 727 0
160 505 0
66 0
699 0
876 0
892 527 0
352 0
183 0
524 0
909 0
23 0
690 738 0
302 0
63 0
875 0
174 0
378 0
879 0
293 0
194 195 0
914 0
943 0
105 444 0
345 0
578 906 0
381 0
848 244 0
342 0
599 0
200 0
291 116 0
75 0
627 0
43 0
113 0
434 0
497 510 0
425 0
646 0
610 0
11 228 0
602 0
177 0
451 494 0
983 0
93 0
312 0
596 0
104 0
456 0
326 0
240 0
513 0
933 0
980 0
607 0
398 0
21 0
889 0
160 0
258 0
949 0
296 0
43 0
996 0
555 28 0
774 0
226 269 0
177 596 0
724 0
292 525 0
166 774 0
390 0
372 198 0
157 0
290 0
873 653 0
161 0
994 0
716 0
307 0
82 0
562 0
71 0
57 0
277 0
617 0
13 0
965 0
778 0
598 0
130 0
641 1 0
58 981 0
178 0
166 0
910 0
495 0
300 0
573 231 0
479 0
32 414 0
106 0
916 0
111 0
380 588 0
553 974 0
357 0
655 0
978 0
676 477 0
573 0
689 0
375 0
541 0
818 6 0
835 895 0
145 278 0
502 0
309 0
822 0
126 0
802 132 0
952 192 0
922 262 0
583 559 0
573 0
68 0
676 0
792 14 0
185 239 0
157 0
589 0
280 0
424 0
945 133 0
860 342 0
504 994 0
15 0
194 0
689 0
749 503 0
734 887 0
749 0
687 0
814 0
562 0
69 0
733 0
437 0
314 445 0
698 430 0
779 725 0
413 0
516 0
929 540 0
939 164 0
67 85 0
976 181 0
333 182 0
518 0
957 0
91 0
11 0
354 0
816 747 0
891 0
39 0
825 0
927 0
670 991 0
763 0
671 0
841 53 0
952 698 0
43 308 0
530 131 0
938 0
48 0
806 0
913 709 0
199 0
892 174 0
905 0
419 0
9 430 0
945 0
877 798 0
141 0
272 285 0
250 0
854 0
609 268 0
658 548 0
719 0
142 735 0
112 54 0
105 654 0
571 398 0
302 0
18 0
739 0
481 0
828 0
15 0
898 647 0
648 0
125 0
51 925 0
24 133 0
222 0
78 0
171 0
321 0
97 758 0
746 397 0
904 0
496 0
105 0
551 0
837 0
663 703 0
440 723 0
73 0
596 0
927 0
801 18 0
99 783 0
242 374 0
416 0
113 0
991 0
852 0
282 0
225 0
108 0
929 0
273 0
982 0
846 0
912 386 0
509 0
729 0
160 0
1 403 0
377 230 0
526 0
451 0
761 299 0
685 679 0
927 0
958 0
201 0
523 0
146 354 0
34 0
949 0
256 396 0
840 382 0
239 0
768 0
188 0
140 0
179 0
984 0
394 0
664 214 0
523 253 0
453 0
873 0
491 804 0
649 338 0
544 0
874 387 0
970 0
127 0
868 614 0
791 0
514 530 0
944 0
27 955 0
897 129 0
588 0
878 0
128 0
445 0
153 0
960 691 0
988 0
616 898 0
225 146 0
165 0
984 0
583 0
939 0
362 71 0
446 0
2 468 0
667 108 0
753 303 0
86 0
418 212 0
87 0
123 0
176 0
624 0
37 0
838 0
273 679 0
39 0
288 0
480 0
885 0
244 687 0
762 0
434 0
363 0
541 0
455 0
926 0
561 0
275 0
498 0
26 0
466 0
766 0
119 0
405 0
531 0
778 0
348 0
121 0
656 0
65 338 0
661 0
874 262 0
936 0
115 0
957 0
786 0
837 607 0
211 0
300 14 0
347 734 0
930 828 0
104 0
863 0
938 909 0
6 0
815 0
72 0
167 0
228 0
312 949 0
688 652 0
969 516 0
841 0
89 0
75 828 0
178 414 0
508 0
38 0
898 0
404 0
967 0
652 0
286 0
865 0
593 0
230 0
352 0
602 445 0
546 134 0
685 671 0
243 0
299 868 0
40 29 0
191 0
565 0
207 0
54 0
896 245 0
486 0
885 0
173 0
718 0
598 0
882 0
628 0
555 0
838 0
377 0
43 0
472 319 0
970 0
339 0
584 0
740 653 0
175 0
620 989 0
597 0
467 0
294 0
384 979 0
448 0
695 0
409 0
723 0
480 0
949 0
193 0
737 0
147 693 0
654 0
164 389 0
924 0
427 0
436 0
912 0
540 294 0
927 0
460 0
785 0
895 0
916 0
259 0
683 717 0
746 0
684 0
451 0
98 0
735 0
615 0
536 558 0
956 28 0
157 743 0
212 773 0
977 95 0
1000 0
788 0
668 0
443 263 0
976 533 0
153 0
650 0
546 86 0
409 868 0
752 365 0
215 0
458 595 0
766 0
135 167 0
909 910 0
98 0
113 0
564 0
484 0
618 309 0
1 0
399 519 0
560 0
442 0
842 0
442 325 0
313 0
467 221 0
312 0
994 0
167 0
836 0
961 261 0
860 0
31 0
531 0
695 0
318 0
684 0
78 703 0
321 270 0
613 213 0
220 0
96 341 0
581 0
474 47 0
877 0
724 0
226 0
120 216 0
657 0
404 100 0
280 173 0
988 0
126 710 0
4 0
383 0
828 0
88 0
752 35 0
581 902 0
50 0
35 0
180 0
28 422 0
681 722 0
937 0
136 0
629 205 0
898 11 0
397 214 0
59 0
738 0
549 0
195 0
641 0
408 0
745 789 0
993 0
546 133 0
673 0
671 839 0
889 13 0
657 0
89 841 0
635 0
251 262 0
740 0
264 628 0
499 247 0
393 0
886 0
37 109 0
90 532 0
943 0
600 0
187 0
908 0
404 0
905 388 0
834 0
861 0
931 0
612 0
633 0
544 0
322 666 0
304 0
331 527 0
39 0
528 0
359 0
137 987 0
512 711 0
360 0
302 0
765 0
113 0
85 0
241 0
435 0
481 0
922 0
857 0
188 0
143 343 0
840 303 0
523 967 0
794 0
283 0
506 0
830 0
912 0
569 295 0
896 132 0
568 0
654 543 0
622 0
723 348 0
413 0
214 0
400 579 0
559 0
524 0
441 0
629 0
87 0
983 0
948 0
803 55 0
234 0
612 0
230 71 0
643 0
617 0
365 0
331 989 0
899 0
648 63 0
207 0
129 0
843 295 0
331 854 0
791 0
249 0
963 0
948 694 0
278 0
254 0
563 0
839 0
9 482 0
523 0
488 0
6 0
93 47 0
560 931 0
891 0
137 187 0
175 0
489 541 0
127 0
8 0
979 0
445 0
57 286 0
576 0
146 734 0
71 0
851 148 0
608 581 0
432 0
671 0
834 0
34 0
43 0
265 0
591 0
201 0
172 0
403 0
555 0
72 0
12 0
400 0
73 0
346 0
580 268 0
824 818 0
657 0
361 0
74 878 0
362 570 0
407 0
344 0
425 436 0
20 0
209 0
798 0
279 0
417 0
368 0
487 0
655 975 0
391 0
972 805 0
258 0
511 0
293 0
211 551 0
373 0
692 0
756 0
373 0
595 0
344 0
966 327 0
538 0
264 0
534 0
509 0
577 453 0
578 444 0
323 0
625 375 0
780 0
854 0
283 141 0
357 0
322 77 0
282 0
638 0
177 0
261 279 0
381 0
873 0
84 0
361 0
664 0
816 975 0
600 908 0
184 851 0
788 0
931 0
498 0
928 0
979 0
448 0
198 0
730 0
546 0
568 0
813 0
66 0
769 137 0
857 453 0
625 498 0
408 0
489 0
476 268 0
188 773 0
939 0
781 0
472 87 0
523 0
985 271 0
613 853 0
959 0
267 0
882 0
646 0
97 15 0
749 175 0
97 673 0
646 0
88 319 0
756 0
437 310 0
639 0
40 0
403 0
531 419 0
523 550 0
979 0
954 0
513 0
440 0
466 0
628 0
842 94 0
6 0
721 597 0
829 991 0
588 0
630 0
279 0
606 0
272 0
632 0
111 0
827 0
834 252 0
900 0
826 0
420 0
432 0
934 0
39 0
212 895 0
863 0
898 0
426 506 0
66 917 0
1000 0
716 423 0
157 653 0
249 0
343 0
853 0
661 0
707 215 0
240 0
99 443 0
756 431 0
10 727 0
969 253 0
258 0
543 0
841 436 0
316 0
903 0
814 0
120 674 0
762 0
443 0
249 0
655 0
915 782 0
791 0
426 0
276 0
848 0
458 0
420 518 0
19 0
986 397 0
971 0
29 0
373 0
214 0
1000 531 0
784 596 0
136 0
227 0
293 0
531 759 0
476 0
113 0
634 709 0
304 602 0
381 0
371 615 0
316 0
531 0
117 294 0
810 0
887 687 0
971 0
507 0
372 879 0
690 0
139 916 0
765 0
858 0
314 0
189 815 0
740 0
237 0
964 0
753 589 0
256 0
221 0
67 0
860 0
729 0
672 0
368 989 0
100 862 0
301 0
849 794 0
378 0
206 0
545 0
523 0
840 0
133 375 0
770 0
967 0
46 0
957 0
544 0
613 558 0
997 0
479 0
586 85 0
99 0
925 0
517 0
478 0
657 0
282 124 0
377 0
970 0
864 0
122 835 0
156 0
928 0
891 0
9 825 0
304 0
515 0
835 0
779 0
762 0
604 0
659 0
895 0
922 0
755 623 0
592 0
698 0
135 0
26 0
542 0
724 0
254 0
253 0
412 318 0
779 767 0
483 869 0
642 0
945 0
588 0
889 0
864 192 0
366 0
513 0
31 0
655 0
304 483 0
877 0
130 900 0
104 0
952 198 0
912 655 0
363 903 0
817 0
224 538 0
559 0
167 0
221 855 0
963 0
603 70 0
37 470 0
149 0
283 767 0
408 653 0
846 0
24 0
176 0
746 0
812 0
193 0
840 0
509 0
951 0
764 0
993 0
22 159 0
428 125 0
436 717 0
310 0
747 0
717 0
841 0
331 0
448 0
859 0
30 0
706 0
740 629 0
951 0
366 0
269 919 0
536 0
331 0
733 0
326 0
657 164 0
694 0
65 349 0
962 0
388 0
498 0
274 587 0
469 287 0
135 0
983 0
189 0
674 0
632 0
811 0
222 0
712 0
849 271 0
987 0
362 0
730 0
875 0
257 0
834 0
707 0
658 0
515 0
178 0
460 0
19 0
713 0
520 51 0
931 0
384 737 0
464 349 0
365 0
818 102 0
675 0
753 0
964 5 0
779 479 0
85 0
261 821 0
112 359 0
160 0
322 0
832 0
945 0
674 0
724 4 0
471 0
115 62 0
514 0
180 0
120 180 0
143 0
502 0
264 0
560 953 0
55 0
379 0
425 0
180 0
217 0
523 300 0
251 694 0
73 0
795 891 0
7 0
496 0
388 0
211 0
925 959 0
425 0
847 0
778 75 0
666 0
85 15 0
148 0
802 645 0
966 0
286 0
54 0
406 0
554 972 0
724 613 0
816 231 0
755 0
149 0
172 430 0
536 855 0
864 0
375 0
909 0
15 0
788 0
1000 0
128 831 0
356 127 0
736 0
762 0
359 455 0
383 0
28 0
100 0
537 0
304 714 0
897 0
362 132 0
177 0
927 0
151 0
161 0
756 166 0
51 0
507 0
48 215 0
224 0
814 0
61 0
276 0
259 467 0
162 0
623 0
408 0
275 0
394 524 0
101 0
368 242 0
355 190 0
455 0
604 0
178 37 0
817 483 0
723 0
616 771 0
772 0
347 0
739 287 0
632 0
379 0
639 0
238 0
182 494 0
87 0
721 188 0
810 0
109 0
673 0
12 527 0
339 109 0
455 0
454 0
988 965 0
187 0
566 0
4 0
980 150 0
378 0
273 308 0
248 0
850 652 0
802 724 0
750 607 0
839 0
674 0
795 0
607 0
244 189 0
173 0
787 0
193 0
123 0
712 624 0
991 799 0
426 0
407 0
716 0
712 0
694 0
872 0
179 0
333 0
952 0
425 0
588 0
439 503 0
771 0
361 0
919 0
227 0
121 362 0
201 659 0
281 794 0
420 0
62 0
129 0
280 0
961 610 0
699 781 0
391 0
69 686 0
176 0
663 0
78 614 0
410 932 0
832 481 0
156 0
421 0
891 0
404 0
421 151 0
706 282 0
123 412 0
606 342 0
571 0
970 579 0
754 627 0
288 0
392 0
32 560 0
87 975 0
217 0
957 0
202 0
31 0
283 381 0
998 0
260 391 0
536 841 0
928 84 0
18 0
515 0
756 197 0
660 0
174 0
947 0
578 0
669 0
178 634 0
961 406 0
523 0
24 102 0
353 0
664 0
151 0
977 638 0
29 0
819 0
550 0
556 421 0
878 0
424 0
1000 0
887 151 0
553 452 0
549 0
363 845 0
882 0
25 757 0
937 0
784 8 0
834 310 0
230 311 0
184 0
948 0
448 0
541 0
485 0
723 327 0
17 228 0
338 670 0
648 908 0
65 0
980 0
107 495 0
668 0
682 855 0
797 0
979 0
783 0
316 0
266 0
17 0
808 0
805 0
884 269 0
729 603 0
128 0
208 0
125 0
538 703 0
109 0
665 0
139 0
369 947 0
964 0
26 540 0
115 579 0
663 0
233 332 0
843 260 0
645 294 0
724 0
666 0
552 0
616 944 0
208 0
109 0
400 644 0
248 619 0
898 39 0
644 0
717 895 0
268 0
537 718 0
133 0
989 0
618 0
951 0
341 0
284 0
936 511 0
312 0
659 0
961 421 0
84 0
540 462 0
250 915 0
301 855 0
389 0
336 116 0
4 462 0
344 534 0
379 0
513 0
738 0
153 262 0
201 899 0
561 0
456 0
746 0
92 0
715 0
609 0
463 0
135 0
307 740 0
570 0
464 451 0
466 787 0
148 239 0
618 501 0
154 829 0
482 0
767 0
741 0
492 847 0
428 0
364 0
511 0
558 0
177 846 0
273 0
419 0
421 654 0
180 0
966 0
5 0
595 0
947 420 0
504 0
823 0
61 317 0
493 0
659 0
728 274 0
801 82 0
109 0
353 0
528 154 0
401 0
918 0
976 161 0
355 755 0
638 247 0
451 0
574 975 0
386 231 0
32 0
33 0
190 686 0
247 0
271 0
445 0
113 463 0
188 0
329 0
271 0
827 0
665 0
964 0
399 0
223 0
576 375 0
633 0
84 0
518 0
18 0
864 806 0
363 0
547 0
306 0
884 0
810 559 0
36 701 0
706 0
521 0
809 647 0
163 0
205 0
619 0
513 0
301 493 0
86 0
523 0
221 0
968 36 0
658 0
266 0
377 628 0
679 0
509 871 0
962 157 0
387 0
745 250 0
290 0
438 0
358 0
364 0
474 0
721 479 0
190 0
698 559 0
650 933 0
383 7 0
337 0
836 975 0
290 0
861 0
421 0
160 100 0
496 477 0
484 0
224 500 0
535 0
664 710 0
651 0
661 0
180 0
298 0
677 0
289 61 0
475 0
99 525 0
320 826 0
499 0
782 0
725 0
581 0
298 0
95 0
132 0
235 901 0
550 0
275 0
785 0
132 0
279 0
140 862 0
369 0
168 518 0
886 255 0
757 0
711 0
720 0
354 378 0
385 0
61 351 0
266 0
828 0
606 0
233 0
31 0
266 0
756 0
805 0
185 862 0
818 0
153 0
818 341 0
443 0
265 0
506 267 0
368 202 0
461 325 0
925 0
416 697 0
768 0
226 205 0
457 182 0
675 0
96 0
927 0
109 0
713 113 0
398 0
393 0
165 0
672 0
225 388 0
624 0
877 0
125 46 0
812 0
121 551 0
81 229 0
109 0
903 0
689 780 0
528 0
137 0
756 789 0
246 0
153 780 0
364 0
252 0
182 0
763 599 0
361 0
29 0
767 0
656 149 0
711 0
211 446 0
793 165 0
893 0
13 0
137 0
773 0
924 0
909 0
291 0
247 0
525 7 0
384 0
121 905 0
96 921 0
282 892 0
291 701 0
563 0
121 108 0
912 0
78 0
661 0
898 0
296 0
372 156 0
820 839 0
780 0
504 136 0
106 667 0
940 0
432 912 0
160 214 0
670 0
249 0
789 0
961 799 0
955 268 0
159 0
427 0
767 0
119 0
862 0
551 0
103 0
554 0
416 0
106 0
63 0
450 547 0
806 0
647 0
351 0
778 0
235 742 0
397 0
620 0
967 527 0
105 829 0
42 0
768 107 0
114 143 0
564 0
837 0
210 277 0
855 279 0
793 166 0
551 0
631 0
105 0
998 0
390 0
767 0
845 0
333 535 0
202 0
861 0
579 843 0
210 0
938 732 0
143 0
904 332 0
411 659 0
458 0
186 206 0
540 0
883 0
917 0
844 0
860 0
873 0
919 0
828 0
792 0
903 0
312 0
769 0
818 0
887 0
75 907 0
176 636 0
475 0
396 0
899 443 0
954 139 0
179 239 0
568 806 0
431 0
476 0
725 0
754 0
951 0
222 0
98 263 0
492 0
726 271 0
323 0
144 891 0
968 287 0
491 461 0
520 661 0
898 683 0
72 418 0
210 0
714 0
107 0
33 0
174 0
175 0
568 285 0
329 754 0
307 0
121 0
694 0
500 0
301 0
531 156 0
265 0
491 605 0
335 0
568 739 0
597 0
12 0
729 711 0
762 0
458 0
982 0
20 0
514 887 0
428 830 0
167 0
365 0
692 0
122 0
633 0
263 0
940 0
349 0
729 0
164 636 0
650 700 0
666 0
987 0
70 0
767 0
737 370 0
635 0
738 292 0
960 946 0
675 0
555 0
359 0
907 0
631 743 0
188 335 0
889 0
154 0
502 0
954 0
483 0
45 0
612 0
864 0
691 0
250 0
130 0
831 0
718 0
954 764 0
65 0
609 470 0
454 0
144 747 0
988 757 0
795 0
225 0
75 324 0
385 0
202 0
832 0
205 0
142 0
606 0
645 0
915 0
397 0
672 223 0
113 346 0
910 0
160 640 0
108 964 0
121 931 0
211 271 0
502 0
941 143 0
564 0
231 0
662 0
954 0
397 166 0
437 0
899 0
350 0
138 21 0
69 0
494 0
940 0
745 635 0
896 386 0
88 0
833 218 0
904 0
848 449 0
710 0
60 0
730 0
375 0
829 0
470 0
511 0
739 519 0
657 0
801 0
118 0
110 0
331 0
976 821 0
778 66 0
82 731 0
531 0
476 0
479 0
450 0
635 0
962 0
102 0
201 847 0
67 0
432 364 0
555 645 0
950 0
443 0
713 0
472 235 0
892 222 0
652 0
300 0
881 330 0
905 0
505 767 0
581 998 0
479 207 0
470 0
579 0
364 0
480 954 0
656 385 0
172 0
311 0
519 0
341 606 0
425 0
803 0
679 0
499 0
100 0
69 0
779 742 0
985 0
138 669 0
650 898 0
4 0
809 0
608 746 0
320 0
759 0
542 0
66 253 0
213 0
976 0
121 622 0
104 0
751 871 0
918 0
593 100 0
939 0
896 402 0
652 0
29 0
379 0
987 0
102 0
639 0
93 0
326 0
589 0
396 0
755 0
873 0
962 627 0
231 0
994 198 0
566 0
904 0
658 269 0
572 0
224 128 0
386 0
145 549 0
983 0
505 37 0
887 0
589 959 0
725 0
592 0
762 645 0
904 650 0
754 822 0
759 0
90 0
550 0
976 0
595 0
988 0
93 503 0
372 0
727 0
515 0
202 0
649 797 0
745 20 0
621 0
422 0
112 0
984 651 0
609 182 0
81 0
824 0
986 111 0
604 0
81 0
651 0
466 0
198 527 0
951 0
699 917 0
238 0
991 0
542 0
649 0
381 0
612 262 0
200 852 0
592 0
703 0
834 484 0
781 0
209 469 0
978 0
907 0
794 0
222 0
584 229 0
489 0
648 0
143 0
407 0
293 0
331 807 0
765 0
667 0
881 0
248 0
285 0
518 0
567 0
648 0
609 0
626 85 0
77 719 0
536 0
264 276 0
634 335 0
439 0
644 588 0
27 853 0
135 0
892 0
112 0
271 0
754 988 0
31 0
561 0
971 404 0
572 239 0
291 0
725 261 0
550 0
298 0
965 0
835 0
577 0
872 905 0
233 0
597 0
753 55 0
148 372 0
145 0
85 0
485 413 0
315 558 0
969 263 0
296 360 0
848 883 0
767 0
345 388 0
920 0
48 0
225 892 0
327 0
924 0
341 0
684 245 0
139 580 0
898 0
306 471 0
748 0
240 618 0
502 0
599 231 0
820 0
732 0
183 0
313 0
582 0
437 0
961 311 0
776 0
220 0
528 402 0
480 490 0
509 0
722 501 0
641 0
961 0
525 0
476 734 0
27 879 0
120 17 0
26 0
110 0
323 566 0
48 329 0
896 0
615 0
194 3 0
171 0
984 0
109 0
11 0
347 0
849 0
992 0
805 0
460 0
512 0
322 0
681 0
470 0
553 55 0
902 0
546 540 0
793 0
50 484 0
447 0
697 442 0
379 0
752 897 0
344 0
402 0
943 0
704 0
606 0
866 0
481 354 0
847 0
594 0
801 0
721 0
360 0
138 355 0
533 0
815 0
356 62 0
164 0
773 0
463 0
424 880 0
8 842 0
339 0
268 0
840 383 0
237 0
764 0
276 0
1000 233 0
606 0
844 0
530 670 0
963 732 0
366 0
261 0
357 975 0
725 0
880 0
972 877 0
642 0
354 639 0
274 0
681 770 0
566 0
797 0
562 0
578 836 0
568 785 0
955 0
531 846 0
257 0
509 0
490 244 0
123 171 0
810 527 0
645 567 0
494 0
888 0
240 0
822 0
589 0
15 0
290 423 0
757 0
879 0
578 0
210 780 0
355 0
6 0
824 136 0
789 0
658 394 0
596 572 0
497 0
34 0
154 42 0
835 0
655 0
242 831 0
99 0
133 0
70 0
145 0
121 138 0
394 0
911 0
56 0
819 0
371 671 0
942 934 0
303 0
251 0
5 0
933 390 0
212 0
321 0
806 0
464 899 0
333 0
321 0
326 0
426 967 0
511 0
248 0
767 0
46 230 0
145 0
347 0
528 0
912 170 0
417 0
770 0
291 0
480 957 0
526 31 0
130 0
96 120 0
648 401 0
344 0
665 0
450 0
190 0
161 50 0
59 0
397 0
521 0
552 0
719 0
967 0
150 0
114 462 0
862 0
113 931 0
862 0
732 0
903 0
959 0
512 0
749 0
720 0
161 450 0
562 0
857 75 0
265 931 0
439 0
956 0
16 0
304 0
276 271 0
912 854 0
305 62 0
93 0
354 172 0
95 0
179 0
293 0
628 0
498 0
366 0
441 867 0
2 0
531 703 0
400 0
795 556 0
164 173 0
193 503 0
304 0
680 0
506 0
639 0
84 0
159 0
550 0
298 383 0
138 0
10 915 0
377 0
937 0
9 0
755 165 0
108 0
264 461 0
560 995 0
22 0
299 910 0
374 0
857 916 0
418 0
11 0
432 0
389 0
796 0
751 0
921 0
980 0
931 0
204 0
294 0
95 0
957 0
195 0
963 0
187 0
244 0
759 0
424 0
984 0
418 0
991 0
369 26 0
371 0
300 0
871 0
410 798 0
247 0
21 0
605 173 0
69 0
946 914 0
716 0
144 0
463 0
306 628 0
624 922 0
323 0
406 0
112 222 0
831 0
226 0
651 0
632 31 0
250 919 0
531 405 0
135 0
74 54 0
163 195 0
261 0
486 0
514 654 0
664 766 0
81 459 0
413 206 0
648 0
466 55 0
760 0
285 0
645 0
508 0
404 0
513 35 0
559 0
484 0
95 0
800 255 0
902 831 0
879 0
355 381 0
539 0
900 0
1 0
755 0
954 0
82 63 0
745 988 0
802 546 0
947 0
351 0
768 0
776 0
262 0
711 0
488 798 0
124 189 0
985 0
68 0
810 68 0
304 0
95 0
274 0
563 0
112 308 0
214 0
683 0
796 71 0
570 429 0
56 0
448 0
360 0
722 0
563 0
634 6 0
502 0
168 767 0
501 893 0
503 0
903 0
564 0
441 498 0
719 0
107 0
824 0
711 0
226 0
977 61 0
793 0
255 0
540 0
967 0
140 118 0
576 0
919 0
331 0
201 0
146 0
29 0
266 0
545 0
484 175 0
361 98 0
992 0
864 0
750 0
647 0
490 28 0
943 0
70 590 0
654 0
782 863 0
980 0
211 894 0
44 487 0
421 103 0
613 0
652 957 0
88 228 0
740 917 0
417 908 0
981 397 0
844 486 0
32 412 0
765 454 0
715 0
467 0
800 127 0
96 0
363 0
67 767 0
839 0
339 35 0
671 0
949 0
588 0
102 0
825 0
742 183 0
704 873 0
281 188 0
790 0
300 687 0
833 0
661 0
865 0
952 414 0
285 0
208 257 0
641 0
247 0
65 0
440 0
71 0
355 854 0
281 195 0
454 0
89 834 0
548 13 0
675 0
741 0
48 175 0
585 0
565 0
334 0
960 981 0
502 0
825 0
715 893 0
154 0
400 0
556 0
355 0
17 245 0
545 34 0
186 0
488 0
227 0
386 211 0
695 0
941 974 0
892 0
989 0
300 0
384 242 0
224 0
56 692 0
754 78 0
984 0
573 591 0
683 252 0
455 0
266 0
753 0
358 0
673 0
783 0
928 0
968 0
218 0
794 0
775 0
968 0
290 0
77 21 0
504 0
89 19 0
703 0
368 372 0
553 0
537 186 0
384 321 0
110 0
634 557 0
209 0
906 994 0
65 375 0
978 0
541 0
595 0
58 383 0
688 925 0
853 0
327 0
721 845 0
935 0
262 0
944 650 0
326 0
903 0
553 0
736 629 0
906 0
701 159 0
39 0
304 0
97 0
291 692 0
293 0
689 0
866 0
478 0
364 0
793 0
483 0
444 0
558 0
660 983 0
530 860 0
796 927 0
425 0
378 407 0
300 0
863 0
28 0
137 0
601 0
152 473 0
178 0
878 0
847 0
123 0
169 0
984 919 0
154 358 0
114 0
858 0
637 0
216 265 0
556 764 0
416 0
652 0
825 0
339 0
16 2 0
158 0
969 0
203 0
44 0
155 271 0
455 0
379 279 0
616 436 0
896 0
332 0
252 0
519 0
196 0
144 407 0
544 0
866 230 0
984 0
571 799 0
696 0
523 0
853 0
300 0
849 204 0
578 0
704 0
883 229 0
15 0
181 566 0
27 0
620 0
384 0
43 0
289 847 0
826 0
401 106 0
923 623 0
89 0
810 0
528 0
674 0
585 774 0
198 0
800 449 0
828 0
644 558 0
376 0
504 0
515 0
755 0
731 0
745 773 0
138 911 0
667 979 0
507 116 0
711 0
204 0
209 797 0
653 0
960 0
277 0
119 0
916 678 0
632 169 0
433 0
515 655 0
577 927 0
977 0
724 0
720 0
833 223 0
426 612 0
677 0
61 0
204 0
676 0
801 0
525 478 0
402 339 0
659 0
832 364 0
110 0
733 0
56 0
34 587 0
109 0
505 947 0
467 428 0
281 754 0
741 0
310 0
33 0
652 0
412 0
626 0
184 230 0
684 0
67 167 0
999 367 0
861 0
662 0
303 0
557 0
134 0
66 0
551 0
839 0
632 0
369 0
265 0
236 0
202 0
75 540 0
383 0
656 0
399 0
114 0
54 0
88 616 0
450 34 0
76 0
174 0
833 807 0
589 0
362 919 0
848 0
786 974 0
940 268 0
978 0
332 0
843 607 0
75 0
182 0
264 0
766 719 0
592 0
195 0
198 0
440 309 0
61 951 0
642 527 0
310 0
520 0
369 0
469 0
250 75 0
228 0
74 850 0
279 0
436 0
320 967 0
304 0
907 0
579 487 0
704 0
18 835 0
102 0
57 0
604 0
729 0
848 0
982 0
474 0
571 364 0
777 310 0
329 0
846 0
886 0
288 0
562 0
915 0
409 243 0
206 0
99 979 0
613 327 0
992 0
87 0
397 0
595 0
385 0
202 262 0
277 0
701 102 0
112 0
630 0
623 199 0
402 166 0
602 0
939 0
851 0
358 198 0
387 0
268 0
472 123 0
395 862 0
112 127 0
442 0
203 0
619 837 0
240 597 0
804 0
652 0
64 553 0
649 514 0
578 0
754 0
355 451 0
777 676 0
368 0
192 507 0
634 386 0
575 0
921 0
508 0
132 670 0
523 0
237 0
297 0
664 687 0
608 889 0
137 308 0
523 894 0
208 0
535 0
293 0
263 -1001 0
-253 -1001 0
-263 253 1001 0
127 -1002 0
667 -1002 0
-127 -667 1002 0
527 -1003 0
-260 -1003 0
-527 260 1003 0
-380 -1004 0
282 -1004 0
380 -282 1004 0
-764 -1005 0
155 -1005 0
764 -155 1005 0
-444 -1006 0
4 -1006 0
444 -4 1006 0
922 -1007 0
201 -1007 0
-922 -201 1007 0
-403 -1008 0
587 -1008 0
403 -587 1008 0
975 -1009 0
-812 -1009 0
-975 812 1009 0
936 -1010 0
624 -1010 0
-936 -624 1010 0
951 -1011 0
234 -1011 0
-951 -234 1011 0
-681 -1012 0
746 -1012 0
681 -746 1012 0
-938 -1013 0
75 -1013 0
938 -75 1013 0
722 -1014 0
9 -1014 0
-722 -9 1014 0
691 -1015 0
-950 -1015 0
-691 950 1015 0
94 -1016 0
892 -1016 0
-94 -892 1016 0
571 -1017 0
570 -1017 0
-571 -570 1017 0
271 -1018 0
-919 -1018 0
-271 919 1018 0
931 -1019 0
-221 -1019 0
-931 221 1019 0
742 -1020 0
737 -1020 0
-742 -737 1020 0
854 -1021 0
-279 -1021 0
-854 279 1021 0
599 -1022 0
555 -1022 0
-599 -555 1022 0
950 -1023 0
961 -1023 0
-950 -961 1023 0
891 -1024 0
-334 -1024 0
-891 334 1024 0
525 -1025 0
100 -1025 0
-525 -100 1025 0
807 -1026 0
-611 -1026 0
-807 611 1026 0
854 -1027 0
-565 -1027 0
-854 565 1027 0
345 -1028 0
281 -1028 0
-345 -281 1028 0
216 -1029 0
-805 -1029 0
-216 805 1029 0
-937 -1030 0
574 -1030 0
937 -574 1030 0
406 -1031 0
-694 -1031 0
-406 694 1031 0
-844 -1032 0
82 -1032 0
844 -82 1032 0
-409 -1033 0
130 -1033 0
409 -130 1033 0
567 -1034 0
97 -1034 0
-567 -97 1034 0
-496 -1035 0
360 -1035 0
496 -360 1035 0
693 -1036 0
491 -1036 0
-693 -491 1036 0
-892 -1037 0
498 -1037 0
892 -498 1037 0
-538 -1038 0
291 -1038 0
538 -291 1038 0
-219 -1039 0
21 -1039 0
219 -21 1039 0
-375 -1040 0
513 -1040 0
375 -513 1040 0
-475 -1041 0
60 -1041 0
475 -60 1041 0
-570 -1042 0
467 -1042 0
570 -467 1042 0
558 -1043 0
596 -1043 0
-558 -596 1043 0
995 -1044 0
-958 -1044 0
-995 958 1044 0
-312 -1045 0
940 -1045 0
312 -940 1045 0
896 -1046 0
497 -1046 0
-896 -497 1046 0
440 -1047 0
460 -1047 0
-440 -460 1047 0
-898 -1048 0
427 -1048 0
898 -427 1048 0
84 -1049 0
-887 -1049 0
-84 887 1049 0
487 -1050 0
921 -1050 0
-487 -921 1050 0
-409 -1051 0
356 -1051 0
409 -356 1051 0
-760 -1052 0
213 -1052 0
760 -213 1052 0
-945 -1053 0
68 -1053 0
945 -68 1053 0
-513 -1054 0
529 -1054 0
513 -529 1054 0
220 -1055 0
-190 -1055 0
-220 190 1055 0
76 -1056 0
268 -1056 0
-76 -268 1056 0
-417 -1057 0
859 -1057 0
417 -859 1057 0
319 -1058 0
-595 -1058 0
-319 595 1058 0
88 -1059 0
-231 -1059 0
-88 231 1059 0
55 -1060 0
-99 -1060 0
-55 99 1060 0
-474 -1061 0
916 -1061 0
474 -916 1061 0
156 -1062 0
306 -1062 0
-156 -306 1062 0
903 -1063 0
-158 -1063 0
-903 158 1063 0
330 -1064 0
274 -1064 0
-330 -274 1064 0
239 -1065 0
-327 -1065 0
-239 327 1065 0
585 -1066 0
657 -1066 0
-585 -657 1066 0
618 -1067 0
41 -1067 0
-618 -41 1067 0
478 -1068 0
636 -1068 0
-478 -636 1068 0
584 -1069 0
-93 -1069 0
-584 93 1069 0
345 -1070 0
-175 -1070 0
-345 175 1070 0
261 -1071 0
-559 -1071 0
-261 559 1071 0
693 -1072 0
996 -1072 0
-693 -996 1072 0
624 -1073 0
361 -1073 0
-624 -361 1073 0
-625 -1074 0
675 -1074 0
625 -675 1074 0
976 -1075 0
665 -1075 0
-976 -665 1075 0
-809 -1076 0
90 -1076 0
809 -90 1076 0
371 -1077 0
-255 -1077 0
-371 255 1077 0
839 -1078 0
-495 -1078 0
-839 495 1078 0
-656 -1079 0
97 -1079 0
656 -97 1079 0
234 -1080 0
897 -1080 0
-234 -897 1080 0
936 -1081 0
464 -1081 0
-936 -464 1081 0
924 -1082 0
-14 -1082 0
-924 14 1082 0
31 -1083 0
-820 -1083 0
-31 820 1083 0
-540 -1084 0
705 -1084 0
540 -705 1084 0
-281 -1085 0
250 -1085 0
281 -250 1085 0
80 -1086 0
-65 -1086 0
-80 65 1086 0
760 -1087 0
-817 -1087 0
-760 817 1087 0
648 -1088 0
-970 -1088 0
-648 970 1088 0
-318 -1089 0
945 -1089 0
318 -945 1089 0
248 -1090 0
69 -1090 0
-248 -69 1090 0
733 -1091 0
-150 -1091 0
-733 150 1091 0
509 -1092 0
-500 -1092 0
-509 500 1092 0
328 -1093 0
-145 -1093 0
-328 145 1093 0
-646 -1094 0
577 -1094 0
646 -577 1094 0
-930 -1095 0
972 -1095 0
930 -972 1095 0
861 -1096 0
852 -1096 0
-861 -852 1096 0
-13 -1097 0
371 -1097 0
13 -371 1097 0
-484 -1098 0
481 -1098 0
484 -481 1098 0
348 -1099 0
467 -1100 0
-957 -1100 0
-467 957 1100 0
85 -1101 0
402 -1101 0
-85 -402 1101 0
616 -1102 0
511 -1102 0
-616 -511 1102 0
262 -1103 0
313 -1103 0
-262 -313 1103 0
-912 -1104 0
355 -1104 0
912 -355 1104 0
981 -1105 0
-196 -1105 0
-981 196 1105 0
-604 -1106 0
809 -1106 0
604 -809 1106 0
301 -1107 0
-285 -1107 0
-301 285 1107 0
-801 -1108 0
29 -1108 0
801 -29 1108 0
525 -1109 0
-468 -1109 0
-525 468 1109 0
128 -1110 0
800 -1110 0
-128 -800 1110 0
791 -1111 0
-39 -1111 0
-791 39 1111 0
842 -1112 0
914 -1112 0
-842 -914 1112 0
335 -1113 0
585 -1113 0
-335 -585 1113 0
944 -1114 0
180 -1114 0
-944 -180 1114 0
-64 -1115 0
173 -1115 0
64 -173 1115 0
-241 -1116 0
161 -1116 0
241 -161 1116 0
-346 -1117 0
69 -1117 0
346 -69 1117 0
431 -1118 0
-178 -1118 0
-431 178 1118 0
611 -1119 0
-127 -1119 0
-611 127 1119 0
748 -1120 0
-365 -1120 0
-748 365 1120 0
626 -1121 0
257 -1121 0
-626 -257 1121 0
358 -1122 0
147 -1122 0
-358 -147 1122 0
-770 -1123 0
779 -1123 0
770 -779 1123 0
-733 -1124 0
895 -1125 0
30 -1125 0
-895 -30 1125 0
-801 -1126 0
291 -1126 0
801 -291 1126 0
749 -1127 0
-228 -1127 0
-749 228 1127 0
44 -1128 0
770 -1128 0
-44 -770 1128 0
936 -1129 0
301 -1129 0
-936 -301 1129 0
906 -1130 0
-447 -1130 0
-906 447 1130 0
-816 -1131 0
106 -1131 0
816 -106 1131 0
-74 -1132 0
805 -1132 0
74 -805 1132 0
636 -1133 0
601 -1133 0
-636 -601 1133 0
770 -1134 0
-423 -1134 0
-770 423 1134 0
734 -1135 0
-135 -1135 0
-734 135 1135 0
-91 -1136 0
266 -1136 0
91 -266 1136 0
87 -1137 0
-654 -1137 0
-87 654 1137 0
335 -1138 0
-838 -1138 0
-335 838 1138 0
448 -1139 0
887 -1139 0
-448 -887 1139 0
284 -1140 0
540 -1140 0
-284 -540 1140 0
-98 -1141 0
291 -1141 0
98 -291 1141 0
116 -1142 0
-54 -1142 0
-116 54 1142 0
944 -1143 0
-475 -1143 0
-944 475 1143 0
158 -1144 0
459 -1144 0
-158 -459 1144 0
808 -1145 0
-575 -1145 0
-808 575 1145 0
-786 -1146 0
707 -1146 0
786 -707 1146 0
455 -1147 0
834 -1147 0
-455 -834 1147 0
220 -1148 0
276 -1148 0
-220 -276 1148 0
72 -1149 0
-210 -1149 0
-72 210 1149 0
690 -1150 0
-215 -1150 0
-690 215 1150 0
-991 -1151 0
129 -1151 0
991 -129 1151 0
-937 -1152 0
882 -1152 0
937 -882 1152 0
855 -1153 0
820 -1153 0
-855 -820 1153 0
955 -1154 0
-703 -1154 0
-955 703 1154 0
255 -1155 0
623 -1155 0
-255 -623 1155 0
-337 -1156 0
938 -1157 0
-622 -1157 0
-938 622 1157 0
811 -1158 0
10 -1158 0
-811 -10 1158 0
31 -1159 0
-709 -1159 0
-31 709 1159 0
-24 -1160 0
260 -1160 0
24 -260 1160 0
-122 -1161 0
282 -1161 0
122 -282 1161 0
167 -1162 0
-30 -1162 0
-167 30 1162 0
278 -1163 0
-508 -1163 0
-278 508 1163 0
-797 -1164 0
721 -1164 0
797 -721 1164 0
-169 -1165 0
546 -1165 0
169 -546 1165 0
708 -1166 0
522 -1166 0
-708 -522 1166 0
-756 -1167 0
451 -1167 0
756 -451 1167 0
232 -1168 0
325 -1168 0
-232 -325 1168 0
390 -1169 0
-586 -1169 0
-390 586 1169 0
640 -1170 0
-557 -1170 0
-640 557 1170 0
48 -1171 0
27 -1171 0
-48 -27 1171 0
-606 -1172 0
585 -1172 0
606 -585 1172 0
-536 -1173 0
886 -1173 0
536 -886 1173 0
-339 -1174 0
732 -1174 0
339 -732 1174 0
-249 -1175 0
23 -1175 0
249 -23 1175 0
110 -1176 0
-428 -1176 0
-110 428 1176 0
799 -1177 0
-339 -1177 0
-799 339 1177 0
835 -1178 0
-695 -1178 0
-835 695 1178 0
-361 -1179 0
205 -1179 0
361 -205 1179 0
440 -1180 0
579 -1180 0
-440 -579 1180 0
522 -1181 0
9 -1181 0
-522 -9 1181 0
-27 -1182 0
43 -1182 0
27 -43 1182 0
-968 -1183 0
456 -1183 0
968 -456 1183 0
558 -1184 0
363 -1184 0
-558 -363 1184 0
672 -1185 0
667 -1185 0
-672 -667 1185 0
239 -1186 0
599 -1186 0
-239 -599 1186 0
480 -1187 0
-540 -1187 0
-480 540 1187 0
927 -1188 0
799 -1188 0
-927 -799 1188 0
117 -1189 0
-687 -1189 0
-117 687 1189 0
828 -1190 0
915 -1190 0
-828 -915 1190 0
443 -1191 0
785 -1191 0
-443 -785 1191 0
-196 -1192 0
817 -1192 0
196 -817 1192 0
712 -1193 0
576 -1193 0
-712 -576 1193 0
900 -1194 0
818 -1194 0
-900 -818 1194 0
950 -1195 0
505 -1195 0
-950 -505 1195 0
462 -1196 0
146 -1196 0
-462 -146 1196 0
58 -1197 0
497 -1197 0
-58 -497 1197 0
-805 -1198 0
578 -1198 0
805 -578 1198 0
-936 -1199 0
438 -1199 0
936 -438 1199 0
-116 -1200 0
970 -1200 0
116 -970 1200 0
-763 -1201 0
731 -1201 0
763 -731 1201 0
-19 -1202 0
876 -1202 0
19 -876 1202 0
-810 -1203 0
633 -1203 0
810 -633 1203 0
528 -1204 0
201 -1204 0
-528 -201 1204 0
-124 -1205 0
722 -1205 0
124 -722 1205 0
660 -1206 0
217 -1206 0
-660 -217 1206 0
14 -1207 0
-247 -1207 0
-14 247 1207 0
504 -1208 0
884 -1208 0
-504 -884 1208 0
404 -1209 0
129 -1209 0
-404 -129 1209 0
428 -1210 0
218 -1210 0
-428 -218 1210 0
-741 -1211 0
826 -1211 0
741 -826 1211 0
548 -1212 0
-655 -1212 0
-548 655 1212 0
765 -1213 0
-541 -1213 0
-765 541 1213 0
-115 -1214 0
237 -1214 0
115 -237 1214 0
444 -1215 0
498 -1215 0
-444 -498 1215 0
62 -1216 0
563 -1216 0
-62 -563 1216 0
-724 -1217 0
684 -1217 0
724 -684 1217 0
-48 -1218 0
356 -1218 0
48 -356 1218 0
191 -1219 0
285 -1219 0
-191 -285 1219 0
64 -1220 0
72 -1220 0
-64 -72 1220 0
-840 -1221 0
593 -1221 0
840 -593 1221 0
334 -1222 0
-430 -1222 0
-334 430 1222 0
638 -1223 0
730 -1223 0
-638 -730 1223 0
528 -1224 0
794 -1224 0
-528 -794 1224 0
-858 -1225 0
59 -1225 0
858 -59 1225 0
687 -1226 0
260 -1226 0
-687 -260 1226 0
618 -1227 0
313 -1227 0
-618 -313 1227 0
237 -1228 0
180 -1228 0
-237 -180 1228 0
403 -1229 0
-783 -1229 0
-403 783 1229 0
-216 -1230 0
191 -1230 0
216 -191 1230 0
-582 -1231 0
73 -1231 0
582 -73 1231 0
80 -1232 0
-259 -1232 0
-80 259 1232 0
512 -1233 0
935 -1233 0
-512 -935 1233 0
136 -1234 0
310 -1234 0
-136 -310 1234 0
-904 -1235 0
523 -1235 0
904 -523 1235 0
487 -1236 0
-251 -1236 0
-487 251 1236 0
221 -1237 0
284 -1237 0
-221 -284 1237 0
-5 -1238 0
115 -1238 0
5 -115 1238 0
230 -1239 0
774 -1239 0
-230 -774 1239 0
-692 -1240 0
699 -1240 0
692 -699 1240 0
-936 -1241 0
965 -1241 0
936 -965 1241 0
-19 -1242 0
825 -1242 0
19 -825 1242 0
-293 -1243 0
498 -1243 0
293 -498 1243 0
855 -1244 0
101 -1244 0
-855 -101 1244 0
-451 -1245 0
241 -1245 0
451 -241 1245 0
46 -1246 0
153 -1246 0
-46 -153 1246 0
207 -1247 0
555 -1247 0
-207 -555 1247 0
292 -1248 0
-22 -1248 0
-292 22 1248 0
798 -1249 0
3 -1249 0
-798 -3 1249 0
-137 -1250 0
145 -1250 0
137 -145 1250 0
579 -1251 0
866 -1251 0
-579 -866 1251 0
822 -1252 0
-506 -1252 0
-822 506 1252 0
327 -1253 0
598 -1253 0
-327 -598 1253 0
678 -1254 0
-707 -1254 0
-678 707 1254 0
-235 -1255 0
451 -1255 0
235 -451 1255 0
-834 -1256 0
651 -1256 0
834 -651 1256 0
879 -1257 0
476 -1257 0
-879 -476 1257 0
807 -1258 0
-677 -1258 0
-807 677 1258 0
685 -1259 0
-231 -1259 0
-685 231 1259 0
-344 -1260 0
650 -1260 0
344 -650 1260 0
540 -1261 0
-453 -1261 0
-540 453 1261 0
784 -1262 0
-534 -1262 0
-784 534 1262 0
-867 -1263 0
740 -1263 0
867 -740 1263 0
846 -1264 0
-438 -1264 0
-846 438 1264 0
-626 -1265 0
748 -1265 0
626 -748 1265 0
-88 -1266 0
436 -1266 0
88 -436 1266 0
1 -1267 0
113 -1267 0
-1 -113 1267 0
102 -1268 0
989 -1268 0
-102 -989 1268 0
280 -1269 0
-630 -1269 0
-280 630 1269 0
891 -1270 0
34 -1270 0
-891 -34 1270 0
183 -1271 0
345 -1271 0
-183 -345 1271 0
-577 -1272 0
469 -1272 0
577 -469 1272 0
501 -1273 0
860 -1273 0
-501 -860 1273 0
303 -1274 0
-540 -1274 0
-303 540 1274 0
966 -1275 0
-79 -1275 0
-966 79 1275 0
702 -1276 0
-260 -1276 0
-702 260 1276 0
259 -1277 0
226 -1277 0
-259 -226 1277 0
848 -1278 0
899 -1278 0
-848 -899 1278 0
102 -1279 0
-533 -1279 0
-102 533 1279 0
887 -1280 0
-901 -1280 0
-887 901 1280 0
19 -1281 0
34 -1281 0
-19 -34 1281 0
534 -1282 0
413 -1282 0
-534 -413 1282 0
126 -1283 0
-518 -1283 0
-126 518 1283 0
454 -1284 0
-772 -1284 0
-454 772 1284 0
701 -1285 0
267 -1285 0
-701 -267 1285 0
792 -1286 0
599 -1286 0
-792 -599 1286 0
-281 -1287 0
470 -1287 0
281 -470 1287 0
-595 -1288 0
26 -1288 0
595 -26 1288 0
-505 -1289 0
366 -1289 0
505 -366 1289 0
-320 -1290 0
764 -1290 0
320 -764 1290 0
607 -1291 0
180 -1291 0
-607 -180 1291 0
362 -1292 0
129 -1292 0
-362 -129 1292 0
46 -1293 0
-614 -1293 0
-46 614 1293 0
927 -1294 0
505 -1294 0
-927 -505 1294 0
919 -1295 0
347 -1295 0
-919 -347 1295 0
-109 -1296 0
129 -1296 0
109 -129 1296 0
714 -1297 0
-727 -1297 0
-714 727 1297 0
-184 -1298 0
46 -1298 0
184 -46 1298 0
-658 -1299 0
636 -1299 0
658 -636 1299 0
235 -1300 0
290 -1300 0
-235 -290 1300 0
-635 -1301 0
860 -1301 0
635 -860 1301 0
460 -1302 0
-309 -1302 0
-460 309 1302 0
52 -1303 0
946 -1303 0
-52 -946 1303 0
-648 -1304 0
988 -1304 0
648 -988 1304 0
302 -1305 0
345 -1305 0
-302 -345 1305 0
528 -1306 0
-136 -1306 0
-528 136 1306 0
349 -1307 0
818 -1307 0
-349 -818 1307 0
598 -1308 0
5 -1308 0
-598 -5 1308 0
-963 -1309 0
75 -1309 0
963 -75 1309 0
-427 -1310 0
531 -1310 0
427 -531 1310 0
320 -1311 0
464 -1311 0
-320 -464 1311 0
550 -1312 0
633 -1312 0
-550 -633 1312 0
31 -1313 0
345 -1313 0
-31 -345 1313 0
-113 -1314 0
774 -1314 0
113 -774 1314 0
440 -1315 0
800 -1315 0
-440 -800 1315 0
-63 -1316 0
225 -1316 0
63 -225 1316 0
496 -1317 0
204 -1317 0
-496 -204 1317 0
664 -1318 0
-645 -1318 0
-664 645 1318 0
-5 -1319 0
11 -1319 0
5 -11 1319 0
-698 -1320 0
161 -1320 0
698 -161 1320 0
183 -1321 0
875 -1321 0
-183 -875 1321 0
-380 -1322 0
122 -1322 0
380 -122 1322 0
346 -1323 0
353 -1323 0
-346 -353 1323 0
134 -1324 0
-477 -1324 0
-134 477 1324 0
-712 -1325 0
510 -1325 0
712 -510 1325 0
968 -1326 0
701 -1326 0
-968 -701 1326 0
504 -1327 0
-567 -1327 0
-504 567 1327 0
744 -1328 0
695 -1328 0
-744 -695 1328 0
591 -1329 0
-615 -1329 0
-591 615 1329 0
158 -1330 0
-573 -1330 0
-158 573 1330 0
48 -1331 0
817 -1331 0
-48 -817 1331 0
-767 -1332 0
745 -1332 0
767 -745 1332 0
746 -1333 0
-759 -1333 0
-746 759 1333 0
752 -1334 0
-748 -1334 0
-752 748 1334 0
604 -1335 0
569 -1335 0
-604 -569 1335 0
712 -1336 0
620 -1336 0
-712 -620 1336 0
-605 -1337 0
265 -1337 0
605 -265 1337 0
-896 -1338 0
97 -1338 0
896 -97 1338 0
896 -1339 0
-442 -1339 0
-896 442 1339 0
833 -1340 0
169 -1340 0
-833 -169 1340 0
140 -1341 0
-391 -1341 0
-140 391 1341 0
584 -1342 0
-498 -1342 0
-584 498 1342 0
-648 -1343 0
247 -1343 0
648 -247 1343 0
992 -1344 0
-132 -1344 0
-992 132 1344 0
-274 -1345 0
91 -1345 0
274 -91 1345 0
-724 -1346 0
276 -1346 0
724 -276 1346 0
860 -1347 0
113 -1347 0
-860 -113 1347 0
798 -1348 0
569 -1348 0
-798 -569 1348 0
760 -1349 0
463 -1349 0
-760 -463 1349 0
918 -1350 0
627 -1350 0
-918 -627 1350 0
-975 -1351 0
289 -1351 0
975 -289 1351 0
528 -1352 0
555 -1352 0
-528 -555 1352 0
-841 -1353 0
187 -1353 0
841 -187 1353 0
-40 -1354 0
107 -1354 0
40 -107 1354 0
-376 -1355 0
427 -1355 0
376 -427 1355 0
4 -1356 0
-413 -1356 0
-4 413 1356 0
481 -1357 0
-951 -1357 0
-481 951 1357 0
-206 -1358 0
218 -1358 0
206 -218 1358 0
78 -1359 0
-380 -1359 0
-78 380 1359 0
-931 -1360 0
698 -1360 0
931 -698 1360 0
792 -1361 0
-893 -1361 0
-792 893 1361 0
616 -1362 0
-35 -1362 0
-616 35 1362 0
262 -1363 0
-254 -1363 0
-262 254 1363 0
-203 -1364 0
337 -1364 0
203 -337 1364 0
-944 -1365 0
742 -1365 0
944 -742 1365 0
437 -1366 0
-955 -1366 0
-437 955 1366 0
59 -1367 0
34 -1367 0
-59 -34 1367 0
527 -1368 0
-963 -1368 0
-527 963 1368 0
564 -1369 0
963 -1369 0
-564 -963 1369 0
468 -1370 0
353 -1370 0
-468 -353 1370 0
23 -1371 0
-866 -1371 0
-23 866 1371 0
804 -1372 0
-791 -1372 0
-804 791 1372 0
861 -1373 0
-212 -1373 0
-861 212 1373 0
376 -1374 0
799 -1374 0
-376 -799 1374 0
564 -1375 0
-701 -1375 0
-564 701 1375 0
598 -1376 0
-999 -1376 0
-598 999 1376 0
-250 -1377 0
931 -1377 0
250 -931 1377 0
21 -1378 0
-863 -1378 0
-21 863 1378 0
540 -1379 0
-831 -1379 0
-540 831 1379 0
-153 -1380 0
717 -1380 0
153 -717 1380 0
864 -1381 0
-909 -1381 0
-864 909 1381 0
173 -1382 0
259 -1382 0
-173 -259 1382 0
383 -1383 0
106 -1383 0
-383 -106 1383 0
112 -1384 0
-266 -1384 0
-112 266 1384 0
766 -1385 0
874 -1385 0
-766 -874 1385 0
94 -1386 0
-939 -1386 0
-94 939 1386 0
-11 -1387 0
13 -1387 0
11 -13 1387 0
-70 -1388 0
81 -1388 0
70 -81 1388 0
181 -1389 0
178 -1389 0
-181 -178 1389 0
440 -1390 0
-435 -1390 0
-440 435 1390 0
111 -1391 0
-677 -1391 0
-111 677 1391 0
245 -1392 0
813 -1392 0
-245 -813 1392 0
635 -1393 0
66 -1393 0
-635 -66 1393 0
-448 -1394 0
546 -1394 0
448 -546 1394 0
-248 -1395 0
443 -1395 0
248 -443 1395 0
-328 -1396 0
323 -1396 0
328 -323 1396 0
-818 -1397 0
485 -1397 0
818 -485 1397 0
327 -1398 0
-610 -1398 0
-327 610 1398 0
967 -1399 0
529 -1399 0
-967 -529 1399 0
87 -1400 0
-737 -1400 0
-87 737 1400 0
360 -1401 0
71 -1401 0
-360 -71 1401 0
496 -1402 0
-146 -1402 0
-496 146 1402 0
239 -1403 0
-846 -1403 0
-239 846 1403 0
567 -1404 0
-868 -1404 0
-567 868 1404 0
896 -1405 0
-806 -1405 0
-896 806 1405 0
-682 -1406 0
252 -1406 0
682 -252 1406 0
739 -1407 0
-902 -1407 0
-739 902 1407 0
495 -1408 0
819 -1408 0
-495 -819 1408 0
-928 -1409 0
394 -1409 0
928 -394 1409 0
-824 -1410 0
740 -1410 0
824 -740 1410 0
-613 -1411 0
314 -1411 0
613 -314 1411 0
344 -1412 0
781 -1412 0
-344 -781 1412 0
-234 -1413 0
876 -1413 0
234 -876 1413 0
-498 -1414 0
412 -1414 0
498 -412 1414 0
590 -1415 0
270 -1415 0
-590 -270 1415 0
175 -1416 0
-866 -1416 0
-175 866 1416 0
48 -1417 0
22 -1417 0
-48 -22 1417 0
743 -1418 0
-894 -1418 0
-743 894 1418 0
876 -1419 0
-607 -1419 0
-876 607 1419 0
-363 -1420 0
836 -1420 0
363 -836 1420 0
768 -1421 0
-257 -1421 0
-768 257 1421 0
84 -1422 0
-157 -1422 0
-84 157 1422 0
-657 -1423 0
674 -1423 0
657 -674 1423 0
568 -1424 0
-846 -1424 0
-568 846 1424 0
-522 -1425 0
515 -1425 0
522 -515 1425 0
166 -1426 0
217 -1426 0
-166 -217 1426 0
21 -1427 0
716 -1427 0
-21 -716 1427 0
24 -1428 0
-447 -1428 0
-24 447 1428 0
-707 -1429 0
628 -1429 0
707 -628 1429 0
-274 -1430 0
196 -1430 0
274 -196 1430 0
306 -1431 0
289 -1431 0
-306 -289 1431 0
496 -1432 0
321 -1432 0
-496 -321 1432 0
999 -1433 0
-615 -1433 0
-999 615 1433 0
-858 -1434 0
850 -1434 0
858 -850 1434 0
-283 -1435 0
441 -1435 0
283 -441 1435 0
870 -1436 0
-838 -1436 0
-870 838 1436 0
874 -1437 0
-631 -1437 0
-874 631 1437 0
3 -1438 0
-910 -1438 0
-3 910 1438 0
890 -1439 0
-246 -1439 0
-890 246 1439 0
-558 -1440 0
658 -1440 0
558 -658 1440 0
390 -1441 0
-615 -1441 0
-390 615 1441 0
166 -1442 0
-629 -1442 0
-166 629 1442 0
-62 -1443 0
874 -1443 0
62 -874 1443 0
888 -1444 0
-846 -1444 0
-888 846 1444 0
605 -1445 0
-566 -1445 0
-605 566 1445 0
686 -1446 0
571 -1446 0
-686 -571 1446 0
399 -1447 0
130 -1447 0
-399 -130 1447 0
789 -1448 0
-877 -1448 0
-789 877 1448 0
948 -1449 0
809 -1449 0
-948 -809 1449 0
629 -1450 0
986 -1450 0
-629 -986 1450 0
952 -1451 0
371 -1451 0
-952 -371 1451 0
824 -1452 0
-522 -1452 0
-824 522 1452 0
945 -1453 0
-919 -1453 0
-945 919 1453 0
288 -1454 0
-501 -1454 0
-288 501 1454 0
432 -1455 0
190 -1455 0
-432 -190 1455 0
365 -1456 0
235 -1456 0
-365 -235 1456 0
216 -1457 0
-185 -1457 0
-216 185 1457 0
-681 -1458 0
927 -1458 0
681 -927 1458 0
-152 -1459 0
311 -1459 0
152 -311 1459 0
166 -1460 0
-742 -1460 0
-166 742 1460 0
982 -1461 0
565 -1461 0
-982 -565 1461 0
155 -1462 0
538 -1462 0
-155 -538 1462 0
-450 -1463 0
132 -1463 0
450 -132 1463 0
-637 -1464 0
498 -1464 0
637 -498 1464 0
854 -1465 0
161 -1465 0
-854 -161 1465 0
-309 -1466 0
371 -1466 0
309 -371 1466 0
227 -1467 0
913 -1467 0
-227 -913 1467 0
152 -1468 0
348 -1468 0
-152 -348 1468 0
31 -1469 0
483 -1469 0
-31 -483 1469 0
463 -1470 0
-133 -1470 0
-463 133 1470 0
764 -1471 0
972 -1471 0
-764 -972 1471 0
-4 -1472 0
394 -1472 0
4 -394 1472 0
707 -1473 0
42 -1473 0
-707 -42 1473 0
792 -1474 0
-424 -1474 0
-792 424 1474 0
-633 -1475 0
557 -1475 0
633 -557 1475 0
728 -1476 0
690 -1476 0
-728 -690 1476 0
518 -1477 0
812 -1477 0
-518 -812 1477 0
-380 -1478 0
796 -1478 0
380 -796 1478 0
435 -1479 0
-397 -1479 0
-435 397 1479 0
112 -1480 0
427 -1480 0
-112 -427 1480 0
726 -1481 0
-739 -1481 0
-726 739 1481 0
483 -1482 0
777 -1482 0
-483 -777 1482 0
954 -1483 0
193 -1483 0
-954 -193 1483 0
856 -1484 0
737 -1484 0
-856 -737 1484 0
-209 -1485 0
159 -1485 0
209 -159 1485 0
-192 -1486 0
218 -1486 0
192 -218 1486 0
-42 -1487 0
29 -1487 0
42 -29 1487 0
807 -1488 0
879 -1488 0
-807 -879 1488 0
96 -1489 0
-826 -1489 0
-96 826 1489 0
408 -1490 0
42 -1490 0
-408 -42 1490 0
-806 -1491 0
641 -1491 0
806 -641 1491 0
995 -1492 0
571 -1492 0
-995 -571 1492 0
-688 -1493 0
754 -1493 0
688 -754 1493 0
164 -1494 0
-119 -1494 0
-164 119 1494 0
683 -1495 0
-693 -1495 0
-683 693 1495 0
628 -1496 0
569 -1496 0
-628 -569 1496 0
676 -1497 0
-599 -1497 0
-676 599 1497 0
532 -1498 0
-654 -1498 0
-532 654 1498 0
634 -1499 0
882 -1499 0
-634 -882 1499 0
136 -1500 0
-827 -1500 0
-136 827 1500 0
152 -1501 0
379 -1501 0
-152 -379 1501 0
999 -1502 0
-899 -1502 0
-999 899 1502 0
687 -1503 0
310 -1503 0
-687 -310 1503 0
680 -1504 0
12 -1504 0
-680 -12 1504 0
655 -1505 0
131 -1505 0
-655 -131 1505 0
695 -1506 0
-982 -1506 0
-695 982 1506 0
679 -1507 0
-942 -1507 0
-679 942 1507 0
-555 -1508 0
955 -1508 0
555 -955 1508 0
217 -1509 0
105 -1509 0
-217 -105 1509 0
-740 -1510 0
250 -1510 0
740 -250 1510 0
654 -1511 0
516 -1511 0
-654 -516 1511 0
-665 -1512 0
628 -1512 0
665 -628 1512 0
-596 -1513 0
410 -1513 0
596 -410 1513 0
599 -1514 0
89 -1514 0
-599 -89 1514 0
-492 -1515 0
922 -1515 0
492 -922 1515 0
-826 -1516 0
180 -1516 0
826 -180 1516 0
534 -1517 0
930 -1517 0
-534 -930 1517 0
715 -1518 0
699 -1518 0
-715 -699 1518 0
96 -1519 0
367 -1519 0
-96 -367 1519 0
488 -1520 0
556 -1520 0
-488 -556 1520 0
-952 -1521 0
856 -1521 0
952 -856 1521 0
-546 -1522 0
361 -1522 0
546 -361 1522 0
437 -1523 0
-167 -1523 0
-437 167 1523 0
687 -1524 0
579 -1524 0
-687 -579 1524 0
786 -1525 0
778 -1525 0
-786 -778 1525 0
878 -1526 0
899 -1526 0
-878 -899 1526 0
911 -1527 0
-229 -1527 0
-911 229 1527 0
654 -1528 0
-235 -1528 0
-654 235 1528 0
-840 -1529 0
141 -1529 0
840 -141 1529 0
719 -1530 0
-563 -1530 0
-719 563 1530 0
610 -1531 0
-766 -1531 0
-610 766 1531 0
-657 -1532 0
444 -1532 0
657 -444 1532 0
-2 -1533 0
25 -1533 0
2 -25 1533 0
861 -1534 0
813 -1534 0
-861 -813 1534 0
104 -1535 0
274 -1535 0
-104 -274 1535 0
-644 -1536 0
795 -1536 0
644 -795 1536 0
77 -1537 0
731 -1537 0
-77 -731 1537 0
-970 -1538 0
307 -1538 0
970 -307 1538 0
179 -1539 0
-493 -1539 0
-179 493 1539 0
-581 -1540 0
122 -1540 0
581 -122 1540 0
-129 -1541 0
97 -1541 0
129 -97 1541 0
448 -1542 0
258 -1542 0
-448 -258 1542 0
390 -1543 0
-773 -1543 0
-390 773 1543 0
200 -1544 0
-694 -1544 0
-200 694 1544 0
140 -1545 0
-212 -1545 0
-140 212 1545 0
-510 -1546 0
153 -1546 0
510 -153 1546 0
348 -1547 0
-686 -1547 0
-348 686 1547 0
288 -1548 0
243 -1548 0
-288 -243 1548 0
813 -1549 0
-461 -1549 0
-813 461 1549 0
581 -1550 0
755 -1550 0
-581 -755 1550 0
-84 -1551 0
362 -1551 0
84 -362 1551 0
791 -1552 0
998 -1552 0
-791 -998 1552 0
-272 -1553 0
305 -1553 0
272 -305 1553 0
39 -1554 0
28 -1554 0
-39 -28 1554 0
-213 -1555 0
987 -1555 0
213 -987 1555 0
-25 -1556 0
425 -1556 0
25 -425 1556 0
704 -1557 0
-252 -1557 0
-704 252 1557 0
853 -1558 0
788 -1558 0
-853 -788 1558 0
368 -1559 0
-325 -1559 0
-368 325 1559 0
-834 -1560 0
353 -1560 0
834 -353 1560 0
-872 -1561 0
501 -1561 0
872 -501 1561 0
-481 -1562 0
993 -1562 0
481 -993 1562 0
904 -1563 0
874 -1563 0
-904 -874 1563 0
214 -1564 0
-455 -1564 0
-214 455 1564 0
12 -1565 0
227 -1565 0
-12 -227 1565 0
839 -1566 0
-87 -1566 0
-839 87 1566 0
436 -1567 0
121 -1567 0
-436 -121 1567 0
361 -1568 0
-55 -1568 0
-361 55 1568 0
976 -1569 0
374 -1569 0
-976 -374 1569 0
-930 -1570 0
781 -1570 0
930 -781 1570 0
-200 -1571 0
726 -1571 0
200 -726 1571 0
407 -1572 0
234 -1572 0
-407 -234 1572 0
328 -1573 0
977 -1573 0
-328 -977 1573 0
69 -1574 0
-695 -1574 0
-69 695 1574 0
860 -1575 0
713 -1575 0
-860 -713 1575 0
791 -1576 0
370 -1576 0
-791 -370 1576 0
989 -1577 0
594 -1577 0
-989 -594 1577 0
-80 -1578 0
681 -1578 0
80 -681 1578 0
525 -1579 0
427 -1579 0
-525 -427 1579 0
-81 -1580 0
202 -1580 0
81 -202 1580 0
-609 -1581 0
668 -1581 0
609 -668 1581 0
763 -1582 0
-189 -1582 0
-763 189 1582 0
-79 -1583 0
841 -1583 0
79 -841 1583 0
745 -1584 0
801 -1584 0
-745 -801 1584 0
-709 -1585 0
554 -1585 0
709 -554 1585 0
792 -1586 0
750 -1586 0
-792 -750 1586 0
64 -1587 0
-999 -1587 0
-64 999 1587 0
511 -1588 0
68 -1588 0
-511 -68 1588 0
-752 -1589 0
911 -1589 0
752 -911 1589 0
614 -1590 0
-142 -1590 0
-614 142 1590 0
525 -1591 0
797 -1591 0
-525 -797 1591 0
534 -1592 0
899 -1592 0
-534 -899 1592 0
-849 -1593 0
399 -1593 0
849 -399 1593 0
-502 -1594 0
617 -1594 0
502 -617 1594 0
-904 -1595 0
567 -1595 0
904 -567 1595 0
607 -1596 0
868 -1596 0
-607 -868 1596 0
420 -1597 0
538 -1597 0
-420 -538 1597 0
-956 -1598 0
44 -1598 0
956 -44 1598 0
797 -1599 0
450 -1599 0
-797 -450 1599 0
63 -1600 0
-537 -1600 0
-63 537 1600 0
150 -1601 0
899 -1601 0
-150 -899 1601 0
917 -1602 0
564 -1602 0
-917 -564 1602 0
-809 -1603 0
810 -1603 0
809 -810 1603 0
-161 -1604 0
893 -1604 0
161 -893 1604 0
552 -1605 0
-43 -1605 0
-552 43 1605 0
-489 -1606 0
748 -1606 0
489 -748 1606 0
886 -1607 0
148 -1607 0
-886 -148 1607 0
231 -1608 0
638 -1608 0
-231 -638 1608 0
811 -1609 0
-383 -1609 0
-811 383 1609 0
14 -1610 0
-91 -1610 0
-14 91 1610 0
-152 -1611 0
342 -1611 0
152 -342 1611 0
-922 -1612 0
577 -1612 0
922 -577 1612 0
-57 -1613 0
564 -1613 0
57 -564 1613 0
332 -1614 0
-613 -1614 0
-332 613 1614 0
942 -1615 0
-221 -1615 0
-942 221 1615 0
400 -1616 0
279 -1616 0
-400 -279 1616 0
-368 -1617 0
612 -1617 0
368 -612 1617 0
680 -1618 0
424 -1618 0
-680 -424 1618 0
719 -1619 0
638 -1619 0
-719 -638 1619 0
280 -1620 0
477 -1620 0
-280 -477 1620 0
614 -1621 0
-686 -1621 0
-614 686 1621 0
677 -1622 0
298 -1622 0
-677 -298 1622 0
616 -1623 0
-827 -1623 0
-616 827 1623 0
535 -1624 0
458 -1624 0
-535 -458 1624 0
-178 -1625 0
556 -1625 0
178 -556 1625 0
639 -1626 0
99 -1626 0
-639 -99 1626 0
-254 -1627 0
537 -1627 0
254 -537 1627 0
-18 -1628 0
493 -1628 0
18 -493 1628 0
437 -1629 0
-509 -1629 0
-437 509 1629 0
-480 -1630 0
361 -1630 0
480 -361 1630 0
-330 -1631 0
148 -1631 0
330 -148 1631 0
665 -1632 0
209 -1632 0
-665 -209 1632 0
-510 -1633 0
825 -1633 0
510 -825 1633 0
508 -1634 0
-69 -1634 0
-508 69 1634 0
-944 -1635 0
23 -1635 0
944 -23 1635 0
-2 -1636 0
714 -1636 0
2 -714 1636 0
100 -1637 0
-959 -1637 0
-100 959 1637 0
160 -1638 0
122 -1638 0
-160 -122 1638 0
381 -1639 0
395 -1639 0
-381 -395 1639 0
-162 -1640 0
90 -1640 0
162 -90 1640 0
-280 -1641 0
919 -1641 0
280 -919 1641 0
365 -1642 0
196 -1642 0
-365 -196 1642 0
-48 -1643 0
662 -1643 0
48 -662 1643 0
-872 -1644 0
247 -1644 0
872 -247 1644 0
8 -1645 0
249 -1645 0
-8 -249 1645 0
581 -1646 0
-923 -1646 0
-581 923 1646 0
-933 -1647 0
497 -1647 0
933 -497 1647 0
527 -1648 0
-898 -1648 0
-527 898 1648 0
303 -1649 0
820 -1649 0
-303 -820 1649 0
278 -1650 0
923 -1650 0
-278 -923 1650 0
37 -1651 0
843 -1651 0
-37 -843 1651 0
-536 -1652 0
387 -1652 0
536 -387 1652 0
335 -1653 0
426 -1653 0
-335 -426 1653 0
180 -1654 0
-733 -1654 0
-180 733 1654 0
-610 -1655 0
42 -1655 0
610 -42 1655 0
231 -1656 0
502 -1656 0
-231 -502 1656 0
-923 -1657 0
530 -1657 0
923 -530 1657 0
-729 -1658 0
660 -1658 0
729 -660 1658 0
102 -1659 0
-695 -1659 0
-102 695 1659 0
326 -1660 0
-558 -1660 0
-326 558 1660 0
294 -1661 0
-934 -1661 0
-294 934 1661 0
-30 -1662 0
945 -1662 0
30 -945 1662 0
-394 -1663 0
12 -1663 0
394 -12 1663 0
539 -1664 0
-967 -1664 0
-539 967 1664 0
685 -1665 0
93 -1665 0
-685 -93 1665 0
85 -1666 0
-286 -1666 0
-85 286 1666 0
-190 -1667 0
417 -1667 0
190 -417 1667 0
187 -1668 0
-173 -1668 0
-187 173 1668 0
757 -1669 0
-230 -1669 0
-757 230 1669 0
-945 -1670 0
601 -1670 0
945 -601 1670 0
275 -1671 0
-517 -1671 0
-275 517 1671 0
-729 -1672 0
42 -1672 0
729 -42 1672 0
-322 -1673 0
411 -1673 0
322 -411 1673 0
-960 -1674 0
310 -1674 0
960 -310 1674 0
-603 -1675 0
68 -1675 0
603 -68 1675 0
-541 -1676 0
722 -1676 0
541 -722 1676 0
710 -1677 0
-915 -1677 0
-710 915 1677 0
117 -1678 0
-661 -1678 0
-117 661 1678 0
368 -1679 0
143 -1679 0
-368 -143 1679 0
-123 -1680 0
595 -1680 0
123 -595 1680 0
-109 -1681 0
618 -1681 0
109 -618 1681 0
487 -1682 0
-70 -1682 0
-487 70 1682 0
-784 -1683 0
985 -1683 0
784 -985 1683 0
-292 -1684 0
692 -1684 0
292 -692 1684 0
719 -1685 0
660 -1685 0
-719 -660 1685 0
17 -1686 0
-311 -1686 0
-17 311 1686 0
-469 -1687 0
825 -1687 0
469 -825 1687 0
-720 -1688 0
815 -1688 0
720 -815 1688 0
95 -1689 0
-855 -1689 0
-95 855 1689 0
-349 -1690 0
131 -1690 0
349 -131 1690 0
-570 -1691 0
285 -1691 0
570 -285 1691 0
-340 -1692 0
881 -1692 0
340 -881 1692 0
992 -1693 0
564 -1693 0
-992 -564 1693 0
606 -1694 0
266 -1694 0
-606 -266 1694 0
487 -1695 0
-905 -1695 0
-487 905 1695 0
302 -1696 0
-167 -1696 0
-302 167 1696 0
479 -1697 0
170 -1697 0
-479 -170 1697 0
-384 -1698 0
726 -1698 0
384 -726 1698 0
-482 -1699 0
441 -1699 0
482 -441 1699 0
800 -1700 0
-12 -1700 0
-800 12 1700 0
374 -1701 0
-196 -1701 0
-374 196 1701 0
-560 -1702 0
162 -1702 0
560 -162 1702 0
15 -1703 0
28 -1703 0
-15 -28 1703 0
-930 -1704 0
677 -1704 0
930 -677 1704 0
596 -1705 0
753 -1705 0
-596 -753 1705 0
-581 -1706 0
819 -1706 0
581 -819 1706 0
957 -1707 0
-295 -1707 0
-957 295 1707 0
-730 -1708 0
588 -1708 0
730 -588 1708 0
530 -1709 0
-591 -1709 0
-530 591 1709 0
752 -1710 0
982 -1710 0
-752 -982 1710 0
468 -1711 0
330 -1711 0
-468 -330 1711 0
544 -1712 0
-684 -1712 0
-544 684 1712 0
293 -1713 0
962 -1713 0
-293 -962 1713 0
528 -1714 0
-810 -1714 0
-528 810 1714 0
-384 -1715 0
105 -1715 0
384 -105 1715 0
-806 -1716 0
618 -1716 0
806 -618 1716 0
950 -1717 0
-247 -1717 0
-950 247 1717 0
-761 -1718 0
478 -1718 0
761 -478 1718 0
503 -1719 0
773 -1719 0
-503 -773 1719 0
-850 -1720 0
466 -1720 0
850 -466 1720 0
968 -1721 0
-659 -1721 0
-968 659 1721 0
-866 -1722 0
177 -1722 0
866 -177 1722 0
235 -1723 0
-951 -1723 0
-235 951 1723 0
271 -1724 0
805 -1724 0
-271 -805 1724 0
-425 -1725 0
27 -1725 0
425 -27 1725 0
480 -1726 0
-671 -1726 0
-480 671 1726 0
710 -1727 0
-927 -1727 0
-710 927 1727 0
395 -1728 0
898 -1728 0
-395 -898 1728 0
940 -1729 0
162 -1729 0
-940 -162 1729 0
768 -1730 0
-615 -1730 0
-768 615 1730 0
-556 -1731 0
698 -1731 0
556 -698 1731 0
31 -1732 0
-988 -1732 0
-31 988 1732 0
632 -1733 0
839 -1734 0
673 -1734 0
-839 -673 1734 0
304 -1735 0
961 -1735 0
-304 -961 1735 0
-578 -1736 0
162 -1736 0
578 -162 1736 0
861 -1737 0
-815 -1737 0
-861 815 1737 0
582 -1738 0
-850 -1738 0
-582 850 1738 0
-980 -1739 0
122 -1739 0
980 -122 1739 0
400 -1740 0
-171 -1740 0
-400 171 1740 0
808 -1741 0
950 -1741 0
-808 -950 1741 0
872 -1742 0
46 -1742 0
-872 -46 1742 0
591 -1743 0
-388 -1743 0
-591 388 1743 0
899 -1744 0
-703 -1744 0
-899 703 1744 0
280 -1745 0
467 -1745 0
-280 -467 1745 0
419 -1746 0
-6 -1746 0
-419 6 1746 0
-612 -1747 0
804 -1747 0
612 -804 1747 0
382 -1748 0
-362 -1748 0
-382 362 1748 0
502 -1749 0
171 -1749 0
-502 -171 1749 0
184 -1750 0
49 -1750 0
-184 -49 1750 0
351 -1751 0
281 -1751 0
-351 -281 1751 0
127 -1752 0
-83 -1752 0
-127 83 1752 0
390 -1753 0
-622 -1753 0
-390 622 1753 0
-725 -1754 0
169 -1754 0
725 -169 1754 0
133 -1755 0
-596 -1755 0
-133 596 1755 0
-97 -1756 0
277 -1756 0
97 -277 1756 0
584 -1757 0
-62 -1757 0
-584 62 1757 0
-384 -1758 0
964 -1758 0
384 -964 1758 0
-284 -1759 0
482 -1759 0
284 -482 1759 0
904 -1760 0
-981 -1760 0
-904 981 1760 0
847 -1761 0
-762 -1761 0
-847 762 1761 0
720 -1762 0
-591 -1762 0
-720 591 1762 0
544 -1763 0
-644 -1763 0
-544 644 1763 0
693 -1764 0
689 -1764 0
-693 -689 1764 0
-322 -1765 0
657 -1765 0
322 -657 1765 0
-571 -1766 0
113 -1766 0
571 -113 1766 0
607 -1767 0
189 -1767 0
-607 -189 1767 0
-641 -1768 0
305 -1768 0
641 -305 1768 0
-226 -1769 0
690 -1769 0
226 -690 1769 0
740 -1770 0
139 -1770 0
-740 -139 1770 0
183 -1771 0
399 -1771 0
-183 -399 1771 0
152 -1772 0
-53 -1772 0
-152 53 1772 0
-305 -1773 0
377 -1773 0
305 -377 1773 0
428 -1774 0
866 -1774 0
-428 -866 1774 0
568 -1775 0
421 -1775 0
-568 -421 1775 0
-730 -1776 0
137 -1776 0
730 -137 1776 0
-802 -1777 0
729 -1777 0
802 -729 1777 0
896 -1778 0
293 -1778 0
-896 -293 1778 0
-476 -1779 0
801 -1779 0
476 -801 1779 0
-408 -1780 0
622 -1780 0
408 -622 1780 0
856 -1781 0
-354 -1781 0
-856 354 1781 0
-98 -1782 0
922 -1782 0
98 -922 1782 0
445 -1783 0
979 -1783 0
-445 -979 1783 0
166 -1784 0
412 -1784 0
-166 -412 1784 0
496 -1785 0
754 -1785 0
-496 -754 1785 0
987 -1786 0
-183 -1786 0
-987 183 1786 0
454 -1787 0
-559 -1787 0
-454 559 1787 0
-872 -1788 0
662 -1788 0
872 -662 1788 0
-385 -1789 0
78 -1789 0
385 -78 1789 0
-824 -1790 0
651 -1790 0
824 -651 1790 0
-968 -1791 0
650 -1791 0
968 -650 1791 0
-99 -1792 0
836 -1792 0
99 -836 1792 0
611 -1793 0
273 -1793 0
-611 -273 1793 0
-273 -1794 0
243 -1794 0
273 -243 1794 0
406 -1795 0
-612 -1795 0
-406 612 1795 0
88 -1796 0
-527 -1796 0
-88 527 1796 0
-112 -1797 0
805 -1797 0
112 -805 1797 0
95 -1798 0
982 -1798 0
-95 -982 1798 0
-147 -1799 0
329 -1799 0
147 -329 1799 0
-475 -1800 0
588 -1800 0
475 -588 1800 0
663 -1801 0
-265 -1801 0
-663 265 1801 0
-177 -1802 0
301 -1802 0
177 -301 1802 0
695 -1803 0
-147 -1803 0
-695 147 1803 0
72 -1804 0
314 -1804 0
-72 -314 1804 0
-834 -1805 0
877 -1805 0
834 -877 1805 0
-251 -1806 0
732 -1806 0
251 -732 1806 0
44 -1807 0
891 -1807 0
-44 -891 1807 0
828 -1808 0
850 -1808 0
-828 -850 1808 0
315 -1809 0
921 -1809 0
-315 -921 1809 0
830 -1810 0
-572 -1810 0
-830 572 1810 0
986 -1811 0
962 -1811 0
-986 -962 1811 0
-916 -1812 0
298 -1812 0
916 -298 1812 0
908 -1813 0
-983 -1813 0
-908 983 1813 0
792 -1814 0
17 -1814 0
-792 -17 1814 0
219 -1815 0
-327 -1815 0
-219 327 1815 0
111 -1816 0
-981 -1816 0
-111 981 1816 0
-265 -1817 0
141 -1817 0
265 -141 1817 0
-681 -1818 0
548 -1818 0
681 -548 1818 0
564 -1819 0
153 -1819 0
-564 -153 1819 0
639 -1820 0
-963 -1820 0
-639 963 1820 0
-457 -1821 0
670 -1821 0
457 -670 1821 0
-585 -1822 0
987 -1822 0
585 -987 1822 0
696 -1823 0
208 -1823 0
-696 -208 1823 0
207 -1824 0
-887 -1824 0
-207 887 1824 0
935 -1825 0
-690 -1825 0
-935 690 1825 0
-720 -1826 0
499 -1826 0
720 -499 1826 0
616 -1827 0
-662 -1827 0
-616 662 1827 0
920 -1828 0
-647 -1828 0
-920 647 1828 0
765 -1829 0
-406 -1829 0
-765 406 1829 0
788 -1830 0
-324 -1830 0
-788 324 1830 0
-121 -1831 0
486 -1831 0
121 -486 1831 0
-981 -1832 0
866 -1832 0
981 -866 1832 0
904 -1833 0
-808 -1833 0
-904 808 1833 0
-441 -1834 0
493 -1834 0
441 -493 1834 0
-801 -1835 0
958 -1835 0
801 -958 1835 0
-978 -1836 0
258 -1836 0
978 -258 1836 0
743 -1837 0
473 -1837 0
-743 -473 1837 0
895 -1838 0
901 -1838 0
-895 -901 1838 0
61 -1839 0
465 -1839 0
-61 -465 1839 0
-443 -1840 0
251 -1840 0
443 -251 1840 0
-107 -1841 0
898 -1841 0
107 -898 1841 0
-387 -1842 0
585 -1842 0
387 -585 1842 0
658 -1843 0
-183 -1843 0
-658 183 1843 0
-346 -1844 0
652 -1844 0
346 -652 1844 0
919 -1845 0
217 -1845 0
-919 -217 1845 0
-863 -1846 0
681 -1846 0
863 -681 1846 0
180 -1847 0
203 -1847 0
-180 -203 1847 0
659 -1848 0
-831 -1848 0
-659 831 1848 0
222 -1849 0
-543 -1849 0
-222 543 1849 0
28 -1850 0
-564 -1850 0
-28 564 1850 0
988 -1851 0
-702 -1851 0
-988 702 1851 0
367 -1852 0
482 -1852 0
-367 -482 1852 0
318 -1853 0
-799 -1853 0
-318 799 1853 0
-704 -1854 0
598 -1854 0
704 -598 1854 0
263 -1855 0
709 -1855 0
-263 -709 1855 0
159 -1856 0
-419 -1856 0
-159 419 1856 0
918 -1857 0
-710 -1857 0
-918 710 1857 0
611 -1858 0
378 -1858 0
-611 -378 1858 0
-528 -1859 0
613 -1859 0
528 -613 1859 0
154 -1860 0
345 -1860 0
-154 -345 1860 0
143 -1861 0
-589 -1861 0
-143 589 1861 0
367 -1862 0
-434 -1862 0
-367 434 1862 0
214 -1863 0
-182 -1863 0
-214 182 1863 0
808 -1864 0
-387 -1864 0
-808 387 1864 0
490 -1865 0
889 -1865 0
-490 -889 1865 0
-612 -1866 0
923 -1866 0
612 -923 1866 0
-908 -1867 0
284 -1867 0
908 -284 1867 0
-346 -1868 0
197 -1868 0
346 -197 1868 0
-19 -1869 0
361 -1869 0
19 -361 1869 0
-632 -1870 0
996 -1870 0
632 -996 1870 0
-963 -1871 0
563 -1871 0
963 -563 1871 0
284 -1872 0
435 -1872 0
-284 -435 1872 0
312 -1873 0
-433 -1873 0
-312 433 1873 0
752 -1874 0
-859 -1874 0
-752 859 1874 0
-864 -1875 0
116 -1875 0
864 -116 1875 0
-997 -1876 0
706 -1876 0
997 -706 1876 0
-8 -1877 0
50 -1877 0
8 -50 1877 0
132 -1878 0
948 -1878 0
-132 -948 1878 0
646 -1879 0
-942 -1879 0
-646 942 1879 0
685 -1880 0
787 -1880 0
-685 -787 1880 0
363 -1881 0
514 -1881 0
-363 -514 1881 0
16 -1882 0
955 -1882 0
-16 -955 1882 0
364 -1883 0
723 -1883 0
-364 -723 1883 0
416 -1884 0
492 -1884 0
-416 -492 1884 0
660 -1885 0
-230 -1885 0
-660 230 1885 0
616 -1886 0
364 -1886 0
-616 -364 1886 0
798 -1887 0
-299 -1887 0
-798 299 1887 0
965 -1888 0
637 -1888 0
-965 -637 1888 0
749 -1889 0
-555 -1889 0
-749 555 1889 0
655 -1890 0
425 -1890 0
-655 -425 1890 0
-898 -1891 0
857 -1891 0
898 -857 1891 0
590 -1892 0
-883 -1892 0
-590 883 1892 0
-970 -1893 0
685 -1893 0
970 -685 1893 0
893 -1894 0
4 -1894 0
-893 -4 1894 0
987 -1895 0
218 -1895 0
-987 -218 1895 0
32 -1896 0
221 -1896 0
-32 -221 1896 0
749 -1897 0
643 -1897 0
-749 -643 1897 0
807 -1898 0
-275 -1898 0
-807 275 1898 0
221 -1899 0
427 -1899 0
-221 -427 1899 0
51 -1900 0
-686 -1900 0
-51 686 1900 0
229 -1901 0
499 -1901 0
-229 -499 1901 0
366 -1902 0
338 -1902 0
-366 -338 1902 0
154 -1903 0
473 -1903 0
-154 -473 1903 0
-648 -1904 0
697 -1904 0
648 -697 1904 0
950 -1905 0
453 -1905 0
-950 -453 1905 0
-945 -1906 0
77 -1906 0
945 -77 1906 0
-321 -1907 0
578 -1907 0
321 -578 1907 0
862 -1908 0
-422 -1908 0
-862 422 1908 0
-619 -1909 0
16 -1910 0
-929 -1910 0
-16 929 1910 0
710 -1911 0
282 -1911 0
-710 -282 1911 0
-283 -1912 0
52 -1912 0
283 -52 1912 0
430 -1913 0
841 -1913 0
-430 -841 1913 0
750 -1914 0
497 -1914 0
-750 -497 1914 0
624 -1915 0
-914 -1915 0
-624 914 1915 0
168 -1916 0
-695 -1916 0
-168 695 1916 0
-241 -1917 0
126 -1917 0
241 -126 1917 0
184 -1918 0
-321 -1918 0
-184 321 1918 0
-312 -1919 0
77 -1919 0
312 -77 1919 0
483 -1920 0
569 -1920 0
-483 -569 1920 0
606 -1921 0
-814 -1921 0
-606 814 1921 0
-206 -1922 0
738 -1922 0
206 -738 1922 0
160 -1923 0
66 -1923 0
-160 -66 1923 0
-745 -1924 0
589 -1924 0
745 -589 1924 0
-412 -1925 0
633 -1925 0
412 -633 1925 0
-153 -1926 0
370 -1926 0
153 -370 1926 0
776 -1927 0
575 -1927 0
-776 -575 1927 0
160 -1928 0
-106 -1928 0
-160 106 1928 0
540 -1929 0
-957 -1929 0
-540 957 1929 0
435 -1930 0
482 -1930 0
-435 -482 1930 0
867 -1931 0
314 -1931 0
-867 -314 1931 0
-628 -1932 0
793 -1932 0
628 -793 1932 0
543 -1933 0
732 -1933 0
-543 -732 1933 0
-569 -1934 0
877 -1934 0
569 -877 1934 0
440 -1935 0
215 -1935 0
-440 -215 1935 0
-920 -1936 0
681 -1936 0
920 -681 1936 0
-390 -1937 0
281 -1937 0
390 -281 1937 0
592 -1938 0
-400 -1938 0
-592 400 1938 0
904 -1939 0
-121 -1939 0
-904 121 1939 0
941 -1940 0
235 -1940 0
-941 -235 1940 0
-36 -1941 0
779 -1941 0
36 -779 1941 0
45 -1942 0
403 -1942 0
-45 -403 1942 0
580 -1943 0
-740 -1943 0
-580 740 1943 0
-459 -1944 0
675 -1944 0
459 -675 1944 0
269 -1945 0
-103 -1945 0
-269 103 1945 0
-296 -1946 0
590 -1946 0
296 -590 1946 0
188 -1947 0
266 -1947 0
-188 -266 1947 0
224 -1948 0
-653 -1948 0
-224 653 1948 0
752 -1949 0
411 -1949 0
-752 -411 1949 0
-347 -1950 0
333 -1950 0
347 -333 1950 0
-125 -1951 0
241 -1951 0
125 -241 1951 0
576 -1952 0
-43 -1952 0
-576 43 1952 0
112 -1953 0
-873 -1953 0
-112 873 1953 0
-266 -1954 0
161 -1954 0
266 -161 1954 0
-666 -1955 0
948 -1955 0
666 -948 1955 0
-232 -1956 0
300 -1956 0
232 -300 1956 0
-986 -1957 0
155 -1957 0
986 -155 1957 0
68 -1958 0
713 -1958 0
-68 -713 1958 0
-422 -1959 0
18 -1959 0
422 -18 1959 0
992 -1960 0
-540 -1960 0
-992 540 1960 0
359 -1961 0
-423 -1961 0
-359 423 1961 0
706 -1962 0
290 -1962 0
-706 -290 1962 0
-364 -1963 0
722 -1963 0
364 -722 1963 0
-965 -1964 0
481 -1964 0
965 -481 1964 0
424 -1965 0
-770 -1965 0
-424 770 1965 0
-186 -1966 0
363 -1966 0
186 -363 1966 0
460 -1967 0
-453 -1967 0
-460 453 1967 0
653 -1968 0
625 -1968 0
-653 -625 1968 0
-120 -1969 0
614 -1969 0
120 -614 1969 0
184 -1970 0
923 -1970 0
-184 -923 1970 0
758 -1971 0
-763 -1971 0
-758 763 1971 0
464 -1972 0
-843 -1972 0
-464 843 1972 0
332 -1973 0
-749 -1973 0
-332 749 1973 0
855 -1974 0
-823 -1974 0
-855 823 1974 0
751 -1975 0
165 -1975 0
-751 -165 1975 0
822 -1976 0
394 -1976 0
-822 -394 1976 0
-362 -1977 0
65 -1977 0
362 -65 1977 0
516 -1978 0
155 -1978 0
-516 -155 1978 0
637 -1979 0
18 -1979 0
-637 -18 1979 0
-385 -1980 0
137 -1980 0
385 -137 1980 0
118 -1981 0
-855 -1981 0
-118 855 1981 0
288 -1982 0
-504 -1982 0
-288 504 1982 0
54 -1983 0
-318 -1983 0
-54 318 1983 0
928 -1984 0
-498 -1984 0
-928 498 1984 0
832 -1985 0
-570 -1985 0
-832 570 1985 0
759 -1986 0
854 -1986 0
-759 -854 1986 0
325 -1987 0
523 -1987 0
-325 -523 1987 0
-581 -1988 0
242 -1988 0
581 -242 1988 0
560 -1989 0
724 -1989 0
-560 -724 1989 0
278 -1990 0
-139 -1990 0
-278 139 1990 0
-715 -1991 0
308 -1991 0
715 -308 1991 0
-825 -1992 0
372 -1992 0
825 -372 1992 0
947 -1993 0
-30 -1993 0
-947 30 1993 0
983 -1994 0
-508 -1994 0
-983 508 1994 0
-516 -1995 0
979 -1995 0
516 -979 1995 0
947 -1996 0
290 -1996 0
-947 -290 1996 0
374 -1997 0
909 -1997 0
-374 -909 1997 0
-488 -1998 0
986 -1998 0
488 -986 1998 0
591 -1999 0
873 -1999 0
-591 -873 1999 0
834 -2000 0
-383 -2000 0
-834 383 2000 0
-716 -2001 0
362 -2001 0
716 -362 2001 0
-29 -2002 0
867 -2002 0
29 -867 2002 0
663 -2003 0
761 -2003 0
-663 -761 2003 0
-697 -2004 0
669 -2004 0
697 -669 2004 0
-353 -2005 0
397 -2005 0
353 -397 2005 0
-260 -2006 0
540 -2006 0
260 -540 2006 0
-856 -2007 0
779 -2007 0
856 -779 2007 0
-300 -2008 0
161 -2008 0
300 -161 2008 0
155 -2009 0
-573 -2009 0
-155 573 2009 0
-825 -2010 0
235 -2010 0
825 -235 2010 0
742 -2011 0
-291 -2011 0
-742 291 2011 0
584 -2012 0
818 -2012 0
-584 -818 2012 0
827 -2013 0
-726 -2013 0
-827 726 2013 0
847 -2014 0
-979 -2014 0
-847 979 2014 0
526 -2015 0
427 -2015 0
-526 -427 2015 0
132 -2016 0
475 -2016 0
-132 -475 2016 0
151 -2017 0
985 -2017 0
-151 -985 2017 0
-405 -2018 0
217 -2018 0
405 -217 2018 0
-721 -2019 0
876 -2019 0
721 -876 2019 0
208 -2020 0
-859 -2020 0
-208 859 2020 0
-819 -2021 0
884 -2021 0
819 -884 2021 0
-534 -2022 0
289 -2022 0
534 -289 2022 0
-365 -2023 0
841 -2023 0
365 -841 2023 0
-675 -2024 0
395 -2024 0
675 -395 2024 0
982 -2025 0
681 -2025 0
-982 -681 2025 0
-137 -2026 0
778 -2026 0
137 -778 2026 0
-757 -2027 0
201 -2027 0
757 -201 2027 0
-939 -2028 0
977 -2028 0
939 -977 2028 0
-33 -2029 0
729 -2029 0
33 -729 2029 0
776 -2030 0
-753 -2030 0
-776 753 2030 0
310 -2031 0
-268 -2031 0
-310 268 2031 0
826 -2032 0
-407 -2032 0
-826 407 2032 0
701 -2033 0
-911 -2033 0
-701 911 2033 0
599 -2034 0
-889 -2034 0
-599 889 2034 0
728 -2035 0
-279 -2035 0
-728 279 2035 0
804 -2036 0
-767 -2036 0
-804 767 2036 0
111 -2037 0
867 -2037 0
-111 -867 2037 0
-525 -2038 0
489 -2038 0
525 -489 2038 0
-304 -2039 0
947 -2039 0
304 -947 2039 0
-665 -2040 0
907 -2040 0
665 -907 2040 0
592 -2041 0
-547 -2041 0
-592 547 2041 0
68 -2042 0
740 -2042 0
-68 -740 2042 0
-398 -2043 0
777 -2043 0
398 -777 2043 0
819 -2044 0
-877 -2044 0
-819 877 2044 0
877 -2045 0
-791 -2045 0
-877 791 2045 0
227 -2046 0
-487 -2046 0
-227 487 2046 0
567 -2047 0
425 -2047 0
-567 -425 2047 0
-1000 -2048 0
646 -2048 0
1000 -646 2048 0
310 -2049 0
-238 -2049 0
-310 238 2049 0
261 -2050 0
491 -2050 0
-261 -491 2050 0
814 -2051 0
149 -2051 0
-814 -149 2051 0
-331 -2052 0
117 -2052 0
331 -117 2052 0
-512 -2053 0
31 -2053 0
512 -31 2053 0
296 -2054 0
-494 -2054 0
-296 494 2054 0
764 -2055 0
329 -2055 0
-764 -329 2055 0
22 -2056 0
508 -2056 0
-22 -508 2056 0
488 -2057 0
13 -2057 0
-488 -13 2057 0
87 -2058 0
205 -2058 0
-87 -205 2058 0
958 -2059 0
-786 -2059 0
-958 786 2059 0
24 -2060 0
-137 -2060 0
-24 137 2060 0
888 -2061 0
-125 -2061 0
-888 125 2061 0
958 -2062 0
-133 -2062 0
-958 133 2062 0
608 -2063 0
-674 -2063 0
-608 674 2063 0
952 -2064 0
-743 -2064 0
-952 743 2064 0
838 -2065 0
876 -2065 0
-838 -876 2065 0
979 -2066 0
-143 -2066 0
-979 143 2066 0
249 -2067 0
-743 -2067 0
-249 743 2067 0
656 -2068 0
-992 -2068 0
-656 992 2068 0
-776 -2069 0
995 -2069 0
776 -995 2069 0
552 -2070 0
-533 -2070 0
-552 533 2070 0
584 -2071 0
111 -2071 0
-584 -111 2071 0
916 -2072 0
-327 -2072 0
-916 327 2072 0
-106 -2073 0
339 -2073 0
106 -339 2073 0
-804 -2074 0
420 -2074 0
804 -420 2074 0
108 -2075 0
682 -2075 0
-108 -682 2075 0
344 -2076 0
858 -2076 0
-344 -858 2076 0
844 -2077 0
961 -2077 0
-844 -961 2077 0
176 -2078 0
-71 -2078 0
-176 71 2078 0
936 -2079 0
-661 -2079 0
-936 661 2079 0
400 -2080 0
139 -2080 0
-400 -139 2080 0
734 -2081 0
-399 -2081 0
-734 399 2081 0
17 -2082 0
-991 -2082 0
-17 991 2082 0
127 -2083 0
-319 -2083 0
-127 319 2083 0
-226 -2084 0
762 -2084 0
226 -762 2084 0
919 -2085 0
409 -2085 0
-919 -409 2085 0
-378 -2086 0
361 -2086 0
378 -361 2086 0
606 -2087 0
-485 -2087 0
-606 485 2087 0
219 -2088 0
897 -2088 0
-219 -897 2088 0
188 -2089 0
-422 -2089 0
-188 422 2089 0
76 -2090 0
260 -2090 0
-76 -260 2090 0
908 -2091 0
-630 -2091 0
-908 630 2091 0
-570 -2092 0
373 -2092 0
570 -373 2092 0
-129 -2093 0
595 -2093 0
129 -595 2093 0
335 -2094 0
-985 -2094 0
-335 985 2094 0
778 -2095 0
745 -2095 0
-778 -745 2095 0
493 -2096 0
-219 -2096 0
-493 219 2096 0
91 -2097 0
-198 -2097 0
-91 198 2097 0
175 -2098 0
-825 -2098 0
-175 825 2098 0
799 -2099 0
-610 -2099 0
-799 610 2099 0
314 -2100 0
-374 -2100 0
-314 374 2100 0
-321 -2101 0
748 -2101 0
321 -748 2101 0
757 -2102 0
-188 -2102 0
-757 188 2102 0
549 -2103 0
-317 -2103 0
-549 317 2103 0
982 -2104 0
673 -2104 0
-982 -673 2104 0
452 -2105 0
170 -2105 0
-452 -170 2105 0
941 -2106 0
-733 -2106 0
-941 733 2106 0
39 -2107 0
193 -2107 0
-39 -193 2107 0
-848 -2108 0
646 -2108 0
848 -646 2108 0
-600 -2109 0
397 -2109 0
600 -397 2109 0
539 -2110 0
-390 -2110 0
-539 390 2110 0
974 -2111 0
533 -2111 0
-974 -533 2111 0
848 -2112 0
-548 -2112 0
-848 548 2112 0
509 -2113 0
299 -2113 0
-509 -299 2113 0
709 -2114 0
-915 -2114 0
-709 915 2114 0
-336 -2115 0
866 -2115 0
336 -866 2115 0
543 -2116 0
-477 -2116 0
-543 477 2116 0
-27 -2117 0
563 -2117 0
27 -563 2117 0
564 -2118 0
-367 -2118 0
-564 367 2118 0
70 -2119 0
-806 -2119 0
-70 806 2119 0
79 -2120 0
-738 -2120 0
-79 738 2120 0
581 -2121 0
929 -2121 0
-581 -929 2121 0
494 -2122 0
556 -2122 0
-494 -556 2122 0
-279 -2123 0
977 -2123 0
279 -977 2123 0
-666 -2124 0
57 -2124 0
666 -57 2124 0
-786 -2125 0
547 -2125 0
786 -547 2125 0
53 -2126 0
-575 -2126 0
-53 575 2126 0
-347 -2127 0
619 -2127 0
347 -619 2127 0
884 -2128 0
577 -2128 0
-884 -577 2128 0
407 -2129 0
-765 -2129 0
-407 765 2129 0
-128 -2130 0
18 -2130 0
128 -18 2130 0
-8 -2131 0
179 -2131 0
8 -179 2131 0
450 -2132 0
170 -2132 0
-450 -170 2132 0
510 -2133 0
451 -2133 0
-510 -451 2133 0
479 -2134 0
59 -2134 0
-479 -59 2134 0
956 -2135 0
-846 -2135 0
-956 846 2135 0
-694 -2136 0
457 -2136 0
694 -457 2136 0
-52 -2137 0
178 -2137 0
52 -178 2137 0
214 -2138 0
-83 -2138 0
-214 83 2138 0
333 -2139 0
-422 -2139 0
-333 422 2139 0
-219 -2140 0
673 -2140 0
219 -673 2140 0
822 -2141 0
316 -2141 0
-822 -316 2141 0
-745 -2142 0
774 -2142 0
745 -774 2142 0
-944 -2143 0
804 -2143 0
944 -804 2143 0
132 -2144 0
76 -2144 0
-132 -76 2144 0
432 -2145 0
-706 -2145 0
-432 706 2145 0
-387 -2146 0
788 -2146 0
387 -788 2146 0
-975 -2147 0
873 -2147 0
975 -873 2147 0
572 -2148 0
-860 -2148 0
-572 860 2148 0
970 -2149 0
-30 -2149 0
-970 30 2149 0
-59 -2150 0
298 -2150 0
59 -298 2150 0
989 -2151 0
-487 -2151 0
-989 487 2151 0
903 -2152 0
-500 -2152 0
-903 500 2152 0
116 -2153 0
715 -2153 0
-116 -715 2153 0
501 -2154 0
-284 -2154 0
-501 284 2154 0
181 -2155 0
307 -2155 0
-181 -307 2155 0
541 -2156 0
-302 -2156 0
-541 302 2156 0
606 -2157 0
289 -2157 0
-606 -289 2157 0
584 -2158 0
-6 -2158 0
-584 6 2158 0
-530 -2159 0
507 -2159 0
530 -507 2159 0
-470 -2160 0
329 -2160 0
470 -329 2160 0
-756 -2161 0
515 -2161 0
756 -515 2161 0
816 -2162 0
60 -2162 0
-816 -60 2162 0
742 -2163 0
83 -2163 0
-742 -83 2163 0
992 -2164 0
-311 -2164 0
-992 311 2164 0
-852 -2165 0
17 -2165 0
852 -17 2165 0
623 -2166 0
885 -2166 0
-623 -885 2166 0
247 -2167 0
572 -2167 0
-247 -572 2167 0
-362 -2168 0
985 -2168 0
362 -985 2168 0
-200 -2169 0
752 -2169 0
200 -752 2169 0
206 -2170 0
507 -2170 0
-206 -507 2170 0
-914 -2171 0
74 -2171 0
914 -74 2171 0
127 -2172 0
-770 -2172 0
-127 770 2172 0
599 -2173 0
803 -2173 0
-599 -803 2173 0
586 -2174 0
729 -2174 0
-586 -729 2174 0
727 -2175 0
-978 -2175 0
-727 978 2175 0
830 -2176 0
-997 -2176 0
-830 997 2176 0
-480 -2177 0
468 -2177 0
480 -468 2177 0
311 -2178 0
-180 -2178 0
-311 180 2178 0
255 -2179 0
-60 -2179 0
-255 60 2179 0
-593 -2180 0
145 -2180 0
593 -145 2180 0
171 -2181 0
851 -2181 0
-171 -851 2181 0
46 -2182 0
955 -2182 0
-46 -955 2182 0
-564 -2183 0
753 -2183 0
564 -753 2183 0
28 -2184 0
850 -2184 0
-28 -850 2184 0
6 -2185 0
58 -2185 0
-6 -58 2185 0
520 -2186 0
-704 -2186 0
-520 704 2186 0
159 -2187 0
-906 -2187 0
-159 906 2187 0
-17 -2188 0
164 -2188 0
17 -164 2188 0
969 -2189 0
-359 -2189 0
-969 359 2189 0
-922 -2190 0
381 -2190 0
922 -381 2190 0
703 -2191 0
-918 -2191 0
-703 918 2191 0
626 -2192 0
425 -2192 0
-626 -425 2192 0
949 -2193 0
564 -2193 0
-949 -564 2193 0
435 -2194 0
834 -2194 0
-435 -834 2194 0
104 -2195 0
-196 -2195 0
-104 196 2195 0
395 -2196 0
265 -2196 0
-395 -265 2196 0
477 -2197 0
586 -2197 0
-477 -586 2197 0
396 -2198 0
-334 -2198 0
-396 334 2198 0
733 -2199 0
297 -2199 0
-733 -297 2199 0
348 -2200 0
-439 -2200 0
-348 439 2200 0
871 -2201 0
837 -2201 0
-871 -837 2201 0
159 -2202 0
629 -2202 0
-159 -629 2202 0
-194 -2203 0
470 -2203 0
194 -470 2203 0
343 -2204 0
172 -2204 0
-343 -172 2204 0
863 -2205 0
52 -2205 0
-863 -52 2205 0
611 -2206 0
514 -2206 0
-611 -514 2206 0
460 -2207 0
-151 -2207 0
-460 151 2207 0
821 -2208 0
-228 -2208 0
-821 228 2208 0
768 -2209 0
111 -2209 0
-768 -111 2209 0
-261 -2210 0
570 -2210 0
261 -570 2210 0
288 -2211 0
802 -2211 0
-288 -802 2211 0
987 -2212 0
747 -2212 0
-987 -747 2212 0
944 -2213 0
922 -2213 0
-944 -922 2213 0
-371 -2214 0
117 -2214 0
371 -117 2214 0
725 -2215 0
-77 -2215 0
-725 77 2215 0
-658 -2216 0
69 -2216 0
658 -69 2216 0
581 -2217 0
475 -2217 0
-581 -475 2217 0
536 -2218 0
-554 -2218 0
-536 554 2218 0
142 -2219 0
301 -2219 0
-142 -301 2219 0
280 -2220 0
617 -2220 0
-280 -617 2220 0
743 -2221 0
-933 -2221 0
-743 933 2221 0
872 -2222 0
-132 -2222 0
-872 132 2222 0
-456 -2223 0
148 -2223 0
456 -148 2223 0
608 -2224 0
-673 -2224 0
-608 673 2224 0
42 -2225 0
-207 -2225 0
-42 207 2225 0
-361 -2226 0
10 -2226 0
361 -10 2226 0
678 -2227 0
-915 -2227 0
-678 915 2227 0
501 -2228 0
-989 -2228 0
-501 989 2228 0
-110 -2229 0
762 -2229 0
110 -762 2229 0
899 -2230 0
-967 -2230 0
-899 967 2230 0
519 -2231 0
-74 -2231 0
-519 74 2231 0
63 -2232 0
582 -2232 0
-63 -582 2232 0
530 -2233 0
-758 -2233 0
-530 758 2233 0
-227 -2234 0
306 -2234 0
227 -306 2234 0
-699 -2235 0
915 -2235 0
699 -915 2235 0
943 -2236 0
-807 -2236 0
-943 807 2236 0
811 -2237 0
-413 -2237 0
-811 413 2237 0
141 -2238 0
963 -2238 0
-141 -963 2238 0
-297 -2239 0
618 -2239 0
297 -618 2239 0
443 -2240 0
649 -2240 0
-443 -649 2240 0
-800 -2241 0
104 -2241 0
800 -104 2241 0
247 -2242 0
812 -2242 0
-247 -812 2242 0
-198 -2243 0
297 -2243 0
198 -297 2243 0
144 -2244 0
998 -2244 0
-144 -998 2244 0
155 -2245 0
-709 -2245 0
-155 709 2245 0
528 -2246 0
520 -2246 0
-528 -520 2246 0
951 -2247 0
-335 -2247 0
-951 335 2247 0
-768 -2248 0
762 -2248 0
768 -762 2248 0
-275 -2249 0
237 -2249 0
275 -237 2249 0
581 -2250 0
-463 -2250 0
-581 463 2250 0
15 -2251 0
809 -2251 0
-15 -809 2251 0
-160 -2252 0
636 -2252 0
160 -636 2252 0
967 -2253 0
-652 -2253 0
-967 652 2253 0
755 -2254 0
-69 -2254 0
-755 69 2254 0
790 -2255 0
773 -2255 0
-790 -773 2255 0
-688 -2256 0
169 -2256 0
688 -169 2256 0
247 -2257 0
212 -2257 0
-247 -212 2257 0
-741 -2258 0
362 -2258 0
741 -362 2258 0
432 -2259 0
-969 -2259 0
-432 969 2259 0
-803 -2260 0
955 -2260 0
803 -955 2260 0
342 -2261 0
461 -2261 0
-342 -461 2261 0
568 -2262 0
453 -2262 0
-568 -453 2262 0
924 -2263 0
681 -2263 0
-924 -681 2263 0
-196 -2264 0
98 -2264 0
196 -98 2264 0
-770 -2265 0
116 -2265 0
770 -116 2265 0
-305 -2266 0
377 -2266 0
305 -377 2266 0
-26 -2267 0
493 -2267 0
26 -493 2267 0
514 -2268 0
-167 -2268 0
-514 167 2268 0
806 -2269 0
-603 -2269 0
-806 603 2269 0
730 -2270 0
-198 -2270 0
-730 198 2270 0
882 -2271 0
-678 -2271 0
-882 678 2271 0
-690 -2272 0
845 -2272 0
690 -845 2272 0
799 -2273 0
-971 -2273 0
-799 971 2273 0
-872 -2274 0
351 -2274 0
872 -351 2274 0
714 -2275 0
938 -2275 0
-714 -938 2275 0
-548 -2276 0
426 -2276 0
548 -426 2276 0
207 -2277 0
-220 -2277 0
-207 220 2277 0
-290 -2278 0
604 -2278 0
290 -604 2278 0
325 -2279 0
-125 -2279 0
-325 125 2279 0
944 -2280 0
-81 -2280 0
-944 81 2280 0
167 -2281 0
771 -2281 0
-167 -771 2281 0
-994 -2282 0
229 -2282 0
994 -229 2282 0
717 -2283 0
18 -2283 0
-717 -18 2283 0
96 -2284 0
160 -2284 0
-96 -160 2284 0
-795 -2285 0
617 -2285 0
795 -617 2285 0
568 -2286 0
841 -2286 0
-568 -841 2286 0
372 -2287 0
-966 -2287 0
-372 966 2287 0
750 -2288 0
-875 -2288 0
-750 875 2288 0
719 -2289 0
-502 -2289 0
-719 502 2289 0
108 -2290 0
-189 -2290 0
-108 189 2290 0
575 -2291 0
-155 -2291 0
-575 155 2291 0
-930 -2292 0
233 -2292 0
930 -233 2292 0
-994 -2293 0
725 -2293 0
994 -725 2293 0
222 -2294 0
498 -2294 0
-222 -498 2294 0
551 -2295 0
-516 -2295 0
-551 516 2295 0
88 -2296 0
-799 -2296 0
-88 799 2296 0
190 -2297 0
397 -2297 0
-190 -397 2297 0
758 -2298 0
-243 -2298 0
-758 243 2298 0
-977 -2299 0
937 -2299 0
977 -937 2299 0
-884 -2300 0
771 -2300 0
884 -771 2300 0
-664 -2301 0
979 -2301 0
664 -979 2301 0
294 -2302 0
139 -2302 0
-294 -139 2302 0
-17 -2303 0
657 -2303 0
17 -657 2303 0
-944 -2304 0
718 -2304 0
944 -718 2304 0
222 -2305 0
493 -2305 0
-222 -493 2305 0
520 -2306 0
-467 -2306 0
-520 467 2306 0
887 -2307 0
994 -2307 0
-887 -994 2307 0
-670 -2308 0
201 -2308 0
670 -201 2308 0
396 -2309 0
-591 -2309 0
-396 591 2309 0
238 -2310 0
-183 -2310 0
-238 183 2310 0
141 -2311 0
444 -2311 0
-141 -444 2311 0
794 -2312 0
-823 -2312 0
-794 823 2312 0
572 -2313 0
163 -2313 0
-572 -163 2313 0
677 -2314 0
273 -2314 0
-677 -273 2314 0
728 -2315 0
-510 -2315 0
-728 510 2315 0
447 -2316 0
-745 -2316 0
-447 745 2316 0
279 -2317 0
19 -2317 0
-279 -19 2317 0
485 -2318 0
603 -2318 0
-485 -603 2318 0
200 -2319 0
75 -2319 0
-200 -75 2319 0
158 -2320 0
242 -2320 0
-158 -242 2320 0
-785 -2321 0
222 -2321 0
785 -222 2321 0
-164 -2322 0
523 -2322 0
164 -523 2322 0
590 -2323 0
-258 -2323 0
-590 258 2323 0
606 -2324 0
139 -2324 0
-606 -139 2324 0
600 -2325 0
860 -2325 0
-600 -860 2325 0
-186 -2326 0
693 -2326 0
186 -693 2326 0
115 -2327 0
-534 -2327 0
-115 534 2327 0
312 -2328 0
495 -2328 0
-312 -495 2328 0
939 -2329 0
-303 -2329 0
-939 303 2329 0
-951 -2330 0
753 -2330 0
951 -753 2330 0
-1 -2331 0
979 -2331 0
1 -979 2331 0
-528 -2332 0
421 -2332 0
528 -421 2332 0
254 -2333 0
-596 -2333 0
-254 596 2333 0
-418 -2334 0
462 -2334 0
418 -462 2334 0
933 -2335 0
-468 -2335 0
-933 468 2335 0
170 -2336 0
402 -2336 0
-170 -402 2336 0
667 -2337 0
-911 -2337 0
-667 911 2337 0
-632 -2338 0
789 -2338 0
632 -789 2338 0
792 -2339 0
-349 -2339 0
-792 349 2339 0
463 -2340 0
5 -2340 0
-463 -5 2340 0
-324 -2341 0
329 -2341 0
324 -329 2341 0
602 -2342 0
-823 -2342 0
-602 823 2342 0
399 -2343 0
508 -2343 0
-399 -508 2343 0
880 -2344 0
-22 -2344 0
-880 22 2344 0
559 -2345 0
473 -2345 0
-559 -473 2345 0
791 -2346 0
-277 -2346 0
-791 277 2346 0
-400 -2347 0
647 -2347 0
400 -647 2347 0
-858 -2348 0
894 -2348 0
858 -894 2348 0
-161 -2349 0
782 -2349 0
161 -782 2349 0
122 -2350 0
-878 -2350 0
-122 878 2350 0
-881 -2351 0
450 -2351 0
881 -450 2351 0
-960 -2352 0
158 -2352 0
960 -158 2352 0
448 -2353 0
843 -2353 0
-448 -843 2353 0
406 -2354 0
907 -2354 0
-406 -907 2354 0
238 -2355 0
-691 -2355 0
-238 691 2355 0
567 -2356 0
-670 -2356 0
-567 670 2356 0
898 -2357 0
-790 -2357 0
-898 790 2357 0
-369 -2358 0
879 -2358 0
369 -879 2358 0
770 -2359 0
-519 -2359 0
-770 519 2359 0
493 -2360 0
331 -2360 0
-493 -331 2360 0
909 -2361 0
940 -2361 0
-909 -940 2361 0
822 -2362 0
-884 -2362 0
-822 884 2362 0
204 -2363 0
930 -2363 0
-204 -930 2363 0
378 -2364 0
-463 -2364 0
-378 463 2364 0
847 -2365 0
-212 -2365 0
-847 212 2365 0
513 -2366 0
-919 -2366 0
-513 919 2366 0
224 -2367 0
-949 -2367 0
-224 949 2367 0
-148 -2368 0
187 -2368 0
148 -187 2368 0
-9 -2369 0
573 -2369 0
9 -573 2369 0
-625 -2370 0
33 -2370 0
625 -33 2370 0
-481 -2371 0
590 -2371 0
481 -590 2371 0
916 -2372 0
-29 -2372 0
-916 29 2372 0
752 -2373 0
-422 -2373 0
-752 422 2373 0
612 -2374 0
292 -2374 0
-612 -292 2374 0
437 -2375 0
141 -2375 0
-437 -141 2375 0
136 -2376 0
-113 -2376 0
-136 113 2376 0
595 -2377 0
-807 -2377 0
-595 807 2377 0
16 -2378 0
-8 -2378 0
-16 8 2378 0
-321 -2379 0
179 -2379 0
321 -179 2379 0
564 -2380 0
-101 -2380 0
-564 101 2380 0
845 -2381 0
531 -2381 0
-845 -531 2381 0
764 -2382 0
137 -2382 0
-764 -137 2382 0
192 -2383 0
-647 -2383 0
-192 647 2383 0
487 -2384 0
-974 -2384 0
-487 974 2384 0
101 -2385 0
-716 -2385 0
-101 716 2385 0
306 -2386 0
-87 -2386 0
-306 87 2386 0
-393 -2387 0
909 -2387 0
393 -909 2387 0
94 -2388 0
477 -2388 0
-94 -477 2388 0
-585 -2389 0
106 -2389 0
585 -106 2389 0
-425 -2390 0
914 -2390 0
425 -914 2390 0
-687 -2391 0
913 -2391 0
687 -913 2391 0
583 -2392 0
966 -2392 0
-583 -966 2392 0
264 -2393 0
295 -2393 0
-264 -295 2393 0
-939 -2394 0
323 -2394 0
939 -323 2394 0
544 -2395 0
-757 -2395 0
-544 757 2395 0
-56 -2396 0
535 -2396 0
56 -535 2396 0
252 -2397 0
530 -2397 0
-252 -530 2397 0
-948 -2398 0
354 -2398 0
948 -354 2398 0
884 -2399 0
-357 -2399 0
-884 357 2399 0
655 -2400 0
-915 -2400 0
-655 915 2400 0
-514 -2401 0
617 -2401 0
514 -617 2401 0
317 -2402 0
-756 -2402 0
-317 756 2402 0
543 -2403 0
12 -2403 0
-543 -12 2403 0
-531 -2404 0
972 -2404 0
531 -972 2404 0
189 -2405 0
868 -2405 0
-189 -868 2405 0
-996 -2406 0
27 -2406 0
996 -27 2406 0
-611 -2407 0
90 -2407 0
611 -90 2407 0
200 -2408 0
825 -2408 0
-200 -825 2408 0
-970 -2409 0
579 -2409 0
970 -579 2409 0
47 -2410 0
-403 -2410 0
-47 403 2410 0
949 -2411 0
-854 -2411 0
-949 854 2411 0
-753 -2412 0
317 -2412 0
753 -317 2412 0
-936 -2413 0
470 -2413 0
936 -470 2413 0
438 -2414 0
221 -2414 0
-438 -221 2414 0
-352 -2415 0
178 -2415 0
352 -178 2415 0
-654 -2416 0
305 -2416 0
654 -305 2416 0
935 -2417 0
-406 -2417 0
-935 406 2417 0
663 -2418 0
-127 -2418 0
-663 127 2418 0
432 -2419 0
995 -2419 0
-432 -995 2419 0
-553 -2420 0
938 -2420 0
553 -938 2420 0
-562 -2421 0
353 -2421 0
562 -353 2421 0
191 -2422 0
-471 -2422 0
-191 471 2422 0
-531 -2423 0
220 -2423 0
531 -220 2423 0
324 -2424 0
-622 -2424 0
-324 622 2424 0
192 -2425 0
-492 -2425 0
-192 492 2425 0
598 -2426 0
180 -2426 0
-598 -180 2426 0
976 -2427 0
-634 -2427 0
-976 634 2427 0
358 -2428 0
-683 -2428 0
-358 683 2428 0
744 -2429 0
158 -2429 0
-744 -158 2429 0
-840 -2430 0
195 -2430 0
840 -195 2430 0
992 -2431 0
185 -2431 0
-992 -185 2431 0
475 -2432 0
-446 -2432 0
-475 446 2432 0
557 -2433 0
937 -2433 0
-557 -937 2433 0
347 -2434 0
306 -2434 0
-347 -306 2434 0
708 -2435 0
-670 -2435 0
-708 670 2435 0
669 -2436 0
33 -2436 0
-669 -33 2436 0
-147 -2437 0
643 -2437 0
147 -643 2437 0
-554 -2438 0
917 -2438 0
554 -917 2438 0
574 -2439 0
748 -2439 0
-574 -748 2439 0
686 -2440 0
-630 -2440 0
-686 630 2440 0
-861 -2441 0
490 -2441 0
861 -490 2441 0
830 -2442 0
875 -2442 0
-830 -875 2442 0
-96 -2443 0
663 -2443 0
96 -663 2443 0
-299 -2444 0
89 -2444 0
299 -89 2444 0
-736 -2445 0
806 -2445 0
736 -806 2445 0
-612 -2446 0
522 -2446 0
612 -522 2446 0
552 -2447 0
-841 -2447 0
-552 841 2447 0
301 -2448 0
-45 -2448 0
-301 45 2448 0
-585 -2449 0
185 -2449 0
585 -185 2449 0
900 -2450 0
787 -2450 0
-900 -787 2450 0
741 -2451 0
275 -2451 0
-741 -275 2451 0
245 -2452 0
-558 -2452 0
-245 558 2452 0
-498 -2453 0
812 -2453 0
498 -812 2453 0
-115 -2454 0
707 -2454 0
115 -707 2454 0
-552 -2455 0
467 -2455 0
552 -467 2455 0
182 -2456 0
942 -2456 0
-182 -942 2456 0
351 -2457 0
-156 -2457 0
-351 156 2457 0
-388 -2458 0
131 -2458 0
388 -131 2458 0
40 -2459 0
-173 -2459 0
-40 173 2459 0
704 -2460 0
916 -2460 0
-704 -916 2460 0
13 -2461 0
587 -2461 0
-13 -587 2461 0
218 -2462 0
242 -2462 0
-218 -242 2462 0
-632 -2463 0
119 -2463 0
632 -119 2463 0
-257 -2464 0
217 -2464 0
257 -217 2464 0
-698 -2465 0
301 -2465 0
698 -301 2465 0
-368 -2466 0
291 -2466 0
368 -291 2466 0
861 -2467 0
-21 -2467 0
-861 21 2467 0
-477 -2468 0
610 -2468 0
477 -610 2468 0
-497 -2469 0
207 -2469 0
497 -207 2469 0
-816 -2470 0
37 -2470 0
816 -37 2470 0
755 -2471 0
-951 -2471 0
-755 951 2471 0
-588 -2472 0
338 -2472 0
588 -338 2472 0
414 -2473 0
398 -2473 0
-414 -398 2473 0
666 -2474 0
-455 -2474 0
-666 455 2474 0
846 -2475 0
993 -2475 0
-846 -993 2475 0
563 -2476 0
-886 -2476 0
-563 886 2476 0
764 -2477 0
-279 -2477 0
-764 279 2477 0
655 -2478 0
-499 -2478 0
-655 499 2478 0
-544 -2479 0
575 -2479 0
544 -575 2479 0
781 -2480 0
-575 -2480 0
-781 575 2480 0
677 -2481 0
125 -2481 0
-677 -125 2481 0
790 -2482 0
-590 -2482 0
-790 590 2482 0
-115 -2483 0
132 -2483 0
115 -132 2483 0
120 -2484 0
-987 -2484 0
-120 987 2484 0
-851 -2485 0
117 -2485 0
851 -117 2485 0
-281 -2486 0
250 -2486 0
281 -250 2486 0
708 -2487 0
362 -2487 0
-708 -362 2487 0
-389 -2488 0
586 -2488 0
389 -586 2488 0
645 -2489 0
433 -2489 0
-645 -433 2489 0
443 -2490 0
978 -2490 0
-443 -978 2490 0
-265 -2491 0
717 -2491 0
265 -717 2491 0
615 -2492 0
874 -2492 0
-615 -874 2492 0
-757 -2493 0
258 -2493 0
757 -258 2493 0
390 -2494 0
817 -2494 0
-390 -817 2494 0
-353 -2495 0
682 -2495 0
353 -682 2495 0
622 -2496 0
-854 -2496 0
-622 854 2496 0
950 -2497 0
-85 -2497 0
-950 85 2497 0
-255 -2498 0
961 -2498 0
255 -961 2498 0
296 -2499 0
-537 -2499 0
-296 537 2499 0
223 -2500 0
109 -2500 0
-223 -109 2500 0
-435 -2501 0
475 -2501 0
435 -475 2501 0
390 -2502 0
-922 -2502 0
-390 922 2502 0
-259 -2503 0
213 -2503 0
259 -213 2503 0
267 -2504 0
971 -2504 0
-267 -971 2504 0
-37 -2505 0
769 -2505 0
37 -769 2505 0
319 -2506 0
295 -2506 0
-319 -295 2506 0
-739 -2507 0
324 -2507 0
739 -324 2507 0
-570 -2508 0
756 -2508 0
570 -756 2508 0
365 -2509 0
-108 -2509 0
-365 108 2509 0
-338 -2510 0
148 -2510 0
338 -148 2510 0
310 -2511 0
-247 -2511 0
-310 247 2511 0
-184 -2512 0
801 -2512 0
184 -801 2512 0
416 -2513 0
264 -2513 0
-416 -264 2513 0
903 -2514 0
985 -2514 0
-903 -985 2514 0
101 -2515 0
-335 -2515 0
-101 335 2515 0
432 -2516 0
-177 -2516 0
-432 177 2516 0
-482 -2517 0
44 -2517 0
482 -44 2517 0
680 -2518 0
341 -2518 0
-680 -341 2518 0
175 -2519 0
901 -2519 0
-175 -901 2519 0
423 -2520 0
-987 -2520 0
-423 987 2520 0
663 -2521 0
-182 -2521 0
-663 182 2521 0
871 -2522 0
-507 -2522 0
-871 507 2522 0
-434 -2523 0
203 -2523 0
434 -203 2523 0
972 -2524 0
-110 -2524 0
-972 110 2524 0
-408 -2525 0
653 -2525 0
408 -653 2525 0
107 -2526 0
314 -2526 0
-107 -314 2526 0
710 -2527 0
441 -2527 0
-710 -441 2527 0
863 -2528 0
-956 -2528 0
-863 956 2528 0
-854 -2529 0
993 -2529 0
854 -993 2529 0
518 -2530 0
-550 -2530 0
-518 550 2530 0
79 -2531 0
622 -2531 0
-79 -622 2531 0
422 -2532 0
-991 -2532 0
-422 991 2532 0
923 -2533 0
-197 -2533 0
-923 197 2533 0
-537 -2534 0
812 -2534 0
537 -812 2534 0
930 -2535 0
-583 -2535 0
-930 583 2535 0
-987 -2536 0
885 -2536 0
987 -885 2536 0
-653 -2537 0
770 -2537 0
653 -770 2537 0
-290 -2538 0
691 -2538 0
290 -691 2538 0
144 -2539 0
428 -2539 0
-144 -428 2539 0
574 -2540 0
889 -2540 0
-574 -889 2540 0
77 -2541 0
5 -2541 0
-77 -5 2541 0
-233 -2542 0
299 -2542 0
233 -299 2542 0
110 -2543 0
981 -2543 0
-110 -981 2543 0
-92 -2544 0
587 -2544 0
92 -587 2544 0
566 -2545 0
466 -2545 0
-566 -466 2545 0
740 -2546 0
281 -2546 0
-740 -281 2546 0
400 -2547 0
-225 -2547 0
-400 225 2547 0
120 -2548 0
-657 -2548 0
-120 657 2548 0
-528 -2549 0
597 -2549 0
528 -597 2549 0
-241 -2550 0
430 -2550 0
241 -430 2550 0
253 -2551 0
-301 -2551 0
-253 301 2551 0
960 -2552 0
-701 -2552 0
-960 701 2552 0
488 -2553 0
-571 -2553 0
-488 571 2553 0
965 -2554 0
354 -2554 0
-965 -354 2554 0
470 -2555 0
-363 -2555 0
-470 363 2555 0
-539 -2556 0
634 -2556 0
539 -634 2556 0
24 -2557 0
717 -2557 0
-24 -717 2557 0
855 -2558 0
326 -2558 0
-855 -326 2558 0
83 -2559 0
865 -2559 0
-83 -865 2559 0
397 -2560 0
-423 -2560 0
-397 423 2560 0
-578 -2561 0
844 -2561 0
578 -844 2561 0
942 -2562 0
-564 -2562 0
-942 564 2562 0
-827 -2563 0
85 -2563 0
827 -85 2563 0
447 -2564 0
-565 -2564 0
-447 565 2564 0
972 -2565 0
-878 -2565 0
-972 878 2565 0
-208 -2566 0
596 -2566 0
208 -596 2566 0
455 -2567 0
-171 -2567 0
-455 171 2567 0
843 -2568 0
-591 -2568 0
-843 591 2568 0
556 -2569 0
378 -2569 0
-556 -378 2569 0
391 -2570 0
459 -2570 0
-391 -459 2570 0
200 -2571 0
-346 -2571 0
-200 346 2571 0
-588 -2572 0
594 -2572 0
588 -594 2572 0
800 -2573 0
-379 -2573 0
-800 379 2573 0
551 -2574 0
-786 -2574 0
-551 786 2574 0
-616 -2575 0
671 -2575 0
616 -671 2575 0
48 -2576 0
-1 -2576 0
-48 1 2576 0
-240 -2577 0
971 -2577 0
240 -971 2577 0
-537 -2578 0
863 -2578 0
537 -863 2578 0
382 -2579 0
-61 -2579 0
-382 61 2579 0
-88 -2580 0
665 -2580 0
88 -665 2580 0
915 -2581 0
-894 -2581 0
-915 894 2581 0
-891 -2582 0
74 -2582 0
891 -74 2582 0
168 -2583 0
30 -2583 0
-168 -30 2583 0
162 -2584 0
145 -2584 0
-162 -145 2584 0
-344 -2585 0
616 -2585 0
344 -616 2585 0
101 -2586 0
290 -2586 0
-101 -290 2586 0
730 -2587 0
57 -2587 0
-730 -57 2587 0
461 -2588 0
277 -2588 0
-461 -277 2588 0
-851 -2589 0
356 -2589 0
851 -356 2589 0
94 -2590 0
209 -2590 0
-94 -209 2590 0
420 -2591 0
139 -2591 0
-420 -139 2591 0
400 -2592 0
835 -2592 0
-400 -835 2592 0
-201 -2593 0
860 -2593 0
201 -860 2593 0
429 -2594 0
-639 -2594 0
-429 639 2594 0
-28 -2595 0
666 -2595 0
28 -666 2595 0
198 -2596 0
35 -2596 0
-198 -35 2596 0
90 -2597 0
962 -2597 0
-90 -962 2597 0
213 -2598 0
133 -2598 0
-213 -133 2598 0
-522 -2599 0
841 -2599 0
522 -841 2599 0
939 -2600 0
994 -2600 0
-939 -994 2600 0
232 -2601 0
-247 -2601 0
-232 247 2601 0
215 -2602 0
579 -2602 0
-215 -579 2602 0
-984 -2603 0
612 -2603 0
984 -612 2603 0
831 -2604 0
293 -2604 0
-831 -293 2604 0
928 -2605 0
777 -2605 0
-928 -777 2605 0
821 -2606 0
-191 -2606 0
-821 191 2606 0
29 -2607 0
508 -2607 0
-29 -508 2607 0
488 -2608 0
430 -2608 0
-488 -430 2608 0
847 -2609 0
-19 -2609 0
-847 19 2609 0
558 -2610 0
787 -2610 0
-558 -787 2610 0
628 -2611 0
843 -2611 0
-628 -843 2611 0
174 -2612 0
-863 -2612 0
-174 863 2612 0
-21 -2613 0
562 -2613 0
21 -562 2613 0
927 -2614 0
-260 -2614 0
-927 260 2614 0
-592 -2615 0
847 -2615 0
592 -847 2615 0
831 -2616 0
-572 -2616 0
-831 572 2616 0
-561 -2617 0
41 -2617 0
561 -41 2617 0
567 -2618 0
-965 -2618 0
-567 965 2618 0
399 -2619 0
-669 -2619 0
-399 669 2619 0
479 -2620 0
739 -2620 0
-479 -739 2620 0
744 -2621 0
382 -2621 0
-744 -382 2621 0
-135 -2622 0
641 -2622 0
135 -641 2622 0
832 -2623 0
986 -2623 0
-832 -986 2623 0
319 -2624 0
-156 -2624 0
-319 156 2624 0
-1000 -2625 0
303 -2625 0
1000 -303 2625 0
685 -2626 0
-701 -2626 0
-685 701 2626 0
969 -2627 0
-263 -2627 0
-969 263 2627 0
8 -2628 0
122 -2628 0
-8 -122 2628 0
672 -2629 0
-823 -2629 0
-672 823 2629 0
544 -2630 0
-402 -2630 0
-544 402 2630 0
462 -2631 0
-443 -2631 0
-462 443 2631 0
533 -2632 0
-423 -2632 0
-533 423 2632 0
281 -2633 0
825 -2633 0
-281 -825 2633 0
-666 -2634 0
177 -2634 0
666 -177 2634 0
516 -2635 0
282 -2635 0
-516 -282 2635 0
987 -2636 0
347 -2636 0
-987 -347 2636 0
935 -2637 0
610 -2637 0
-935 -610 2637 0
368 -2638 0
585 -2638 0
-368 -585 2638 0
557 -2639 0
513 -2639 0
-557 -513 2639 0
790 -2640 0
461 -2640 0
-790 -461 2640 0
694 -2641 0
891 -2641 0
-694 -891 2641 0
855 -2642 0
637 -2642 0
-855 -637 2642 0
104 -2643 0
489 -2643 0
-104 -489 2643 0
684 -2644 0
850 -2644 0
-684 -850 2644 0
950 -2645 0
-211 -2645 0
-950 211 2645 0
-500 -2646 0
202 -2646 0
500 -202 2646 0
390 -2647 0
-12 -2647 0
-390 12 2647 0
975 -2648 0
-563 -2648 0
-975 563 2648 0
238 -2649 0
139 -2649 0
-238 -139 2649 0
372 -2650 0
27 -2650 0
-372 -27 2650 0
698 -2651 0
-63 -2651 0
-698 63 2651 0
133 -2652 0
921 -2652 0
-133 -921 2652 0
989 -2653 0
-774 -2653 0
-989 774 2653 0
-578 -2654 0
732 -2654 0
578 -732 2654 0
499 -2655 0
665 -2655 0
-499 -665 2655 0
792 -2656 0
918 -2656 0
-792 -918 2656 0
-362 -2657 0
764 -2657 0
362 -764 2657 0
622 -2658 0
-571 -2658 0
-622 571 2658 0
693 -2659 0
377 -2659 0
-693 -377 2659 0
-98 -2660 0
643 -2660 0
98 -643 2660 0
-9 -2661 0
293 -2661 0
9 -293 2661 0
97 -2662 0
-527 -2662 0
-97 527 2662 0
397 -2663 0
-166 -2663 0
-397 166 2663 0
-19 -2664 0
913 -2664 0
19 -913 2664 0
48 -2665 0
-7 -2665 0
-48 7 2665 0
27 -2666 0
-119 -2666 0
-27 119 2666 0
319 -2667 0
-14 -2667 0
-319 14 2667 0
944 -2668 0
-238 -2668 0
-944 238 2668 0
-355 -2669 0
402 -2669 0
355 -402 2669 0
632 -2670 0
-227 -2670 0
-632 227 2670 0
-1000 -2671 0
127 -2671 0
1000 -127 2671 0
1000 -2672 0
707 -2672 0
-1000 -707 2672 0
-282 -2673 0
273 -2673 0
282 -273 2673 0
-705 -2674 0
457 -2674 0
705 -457 2674 0
-141 -2675 0
282 -2675 0
141 -282 2675 0
-353 -2676 0
149 -2676 0
353 -149 2676 0
910 -2677 0
337 -2677 0
-910 -337 2677 0
-49 -2678 0
118 -2678 0
49 -118 2678 0
71 -2679 0
-746 -2679 0
-71 746 2679 0
-891 -2680 0
618 -2680 0
891 -618 2680 0
30 -2681 0
-470 -2681 0
-30 470 2681 0
358 -2682 0
474 -2682 0
-358 -474 2682 0
-705 -2683 0
618 -2683 0
705 -618 2683 0
173 -2684 0
-350 -2684 0
-173 350 2684 0
186 -2685 0
-694 -2685 0
-186 694 2685 0
84 -2686 0
377 -2686 0
-84 -377 2686 0
342 -2687 0
-678 -2687 0
-342 678 2687 0
-552 -2688 0
75 -2688 0
552 -75 2688 0
68 -2689 0
330 -2689 0
-68 -330 2689 0
-909 -2690 0
753 -2690 0
909 -753 2690 0
199 -2691 0
-204 -2691 0
-199 204 2691 0
360 -2692 0
-921 -2692 0
-360 921 2692 0
-506 -2693 0
137 -2693 0
506 -137 2693 0
-179 -2694 0
347 -2694 0
179 -347 2694 0
-305 -2695 0
708 -2695 0
305 -708 2695 0
271 -2696 0
845 -2696 0
-271 -845 2696 0
840 -2697 0
447 -2697 0
-840 -447 2697 0
88 -2698 0
-537 -2698 0
-88 537 2698 0
423 -2699 0
970 -2699 0
-423 -970 2699 0
-516 -2700 0
819 -2700 0
516 -819 2700 0
165 -2701 0
321 -2701 0
-165 -321 2701 0
872 -2702 0
-564 -2702 0
-872 564 2702 0
-93 -2703 0
314 -2703 0
93 -314 2703 0
-993 -2704 0
876 -2704 0
993 -876 2704 0
-242 -2705 0
508 -2705 0
242 -508 2705 0
-696 -2706 0
770 -2706 0
696 -770 2706 0
836 -2707 0
865 -2707 0
-836 -865 2707 0
427 -2708 0
426 -2708 0
-427 -426 2708 0
-364 -2709 0
426 -2709 0
364 -426 2709 0
981 -2710 0
-534 -2710 0
-981 534 2710 0
-128 -2711 0
645 -2711 0
128 -645 2711 0
39 -2712 0
404 -2712 0
-39 -404 2712 0
655 -2713 0
490 -2713 0
-655 -490 2713 0
-489 -2714 0
407 -2714 0
489 -407 2714 0
-258 -2715 0
673 -2715 0
258 -673 2715 0
-72 -2716 0
475 -2716 0
72 -475 2716 0
-187 -2717 0
339 -2717 0
187 -339 2717 0
784 -2718 0
947 -2718 0
-784 -947 2718 0
38 -2719 0
41 -2719 0
-38 -41 2719 0
838 -2720 0
-935 -2720 0
-838 935 2720 0
704 -2721 0
-354 -2721 0
-704 354 2721 0
-904 -2722 0
212 -2722 0
904 -212 2722 0
602 -2723 0
-870 -2723 0
-602 870 2723 0
371 -2724 0
577 -2724 0
-371 -577 2724 0
-338 -2725 0
809 -2725 0
338 -809 2725 0
319 -2726 0
674 -2726 0
-319 -674 2726 0
637 -2727 0
-575 -2727 0
-637 575 2727 0
662 -2728 0
-772 -2728 0
-662 772 2728 0
-188 -2729 0
578 -2729 0
188 -578 2729 0
439 -2730 0
-668 -2730 0
-439 668 2730 0
199 -2731 0
-258 -2731 0
-199 258 2731 0
990 -2732 0
686 -2732 0
-990 -686 2732 0
968 -2733 0
924 -2733 0
-968 -924 2733 0
128 -2734 0
478 -2734 0
-128 -478 2734 0
591 -2735 0
-330 -2735 0
-591 330 2735 0
-755 -2736 0
91 -2736 0
755 -91 2736 0
574 -2737 0
2 -2737 0
-574 -2 2737 0
267 -2738 0
866 -2738 0
-267 -866 2738 0
118 -2739 0
185 -2739 0
-118 -185 2739 0
40 -2740 0
159 -2740 0
-40 -159 2740 0
-318 -2741 0
369 -2741 0
318 -369 2741 0
507 -2742 0
-230 -2742 0
-507 230 2742 0
328 -2743 0
-581 -2743 0
-328 581 2743 0
-3 -2744 0
741 -2744 0
3 -741 2744 0
-442 -2745 0
723 -2745 0
442 -723 2745 0
-82 -2746 0
857 -2746 0
82 -857 2746 0
727 -2747 0
-221 -2747 0
-727 221 2747 0
767 -2748 0
345 -2748 0
-767 -345 2748 0
797 -2749 0
-740 -2749 0
-797 740 2749 0
656 -2750 0
-396 -2750 0
-656 396 2750 0
768 -2751 0
2 -2751 0
-768 -2 2751 0
263 -2752 0
-727 -2752 0
-263 727 2752 0
-360 -2753 0
90 -2753 0
360 -90 2753 0
356 -2754 0
-492 -2754 0
-356 492 2754 0
886 -2755 0
-381 -2755 0
-886 381 2755 0
730 -2756 0
-751 -2756 0
-730 751 2756 0
-945 -2757 0
387 -2757 0
945 -387 2757 0
417 -2758 0
-479 -2758 0
-417 479 2758 0
91 -2759 0
378 -2759 0
-91 -378 2759 0
68 -2760 0
483 -2760 0
-68 -483 2760 0
-100 -2761 0
803 -2761 0
100 -803 2761 0
533 -2762 0
929 -2762 0
-533 -929 2762 0
728 -2763 0
531 -2763 0
-728 -531 2763 0
263 -2764 0
-818 -2764 0
-263 818 2764 0
316 -2765 0
202 -2765 0
-316 -202 2765 0
437 -2766 0
914 -2766 0
-437 -914 2766 0
367 -2767 0
882 -2767 0
-367 -882 2767 0
406 -2768 0
187 -2768 0
-406 -187 2768 0
847 -2769 0
-534 -2769 0
-847 534 2769 0
231 -2770 0
227 -2770 0
-231 -227 2770 0
727 -2771 0
602 -2771 0
-727 -602 2771 0
152 -2772 0
-145 -2772 0
-152 145 2772 0
-848 -2773 0
474 -2773 0
848 -474 2773 0
939 -2774 0
-582 -2774 0
-939 582 2774 0
-17 -2775 0
67 -2775 0
17 -67 2775 0
-872 -2776 0
598 -2776 0
872 -598 2776 0
283 -2777 0
-175 -2777 0
-283 175 2777 0
238 -2778 0
-411 -2778 0
-238 411 2778 0
796 -2779 0
970 -2779 0
-796 -970 2779 0
991 -2780 0
533 -2780 0
-991 -533 2780 0
-858 -2781 0
290 -2781 0
858 -290 2781 0
-249 -2782 0
37 -2782 0
249 -37 2782 0
966 -2783 0
910 -2783 0
-966 -910 2783 0
-514 -2784 0
978 -2784 0
514 -978 2784 0
-840 -2785 0
229 -2785 0
840 -229 2785 0
900 -2786 0
986 -2786 0
-900 -986 2786 0
-281 -2787 0
742 -2787 0
281 -742 2787 0
197 -2788 0
-908 -2788 0
-197 908 2788 0
694 -2789 0
19 -2789 0
-694 -19 2789 0
187 -2790 0
658 -2790 0
-187 -658 2790 0
13 -2791 0
393 -2791 0
-13 -393 2791 0
400 -2792 0
-591 -2792 0
-400 591 2792 0
623 -2793 0
548 -2793 0
-623 -548 2793 0
-443 -2794 0
395 -2794 0
443 -395 2794 0
344 -2795 0
294 -2795 0
-344 -294 2795 0
-438 -2796 0
577 -2796 0
438 -577 2796 0
-358 -2797 0
561 -2797 0
358 -561 2797 0
915 -2798 0
82 -2798 0
-915 -82 2798 0
623 -2799 0
562 -2799 0
-623 -562 2799 0
-171 -2800 0
323 -2800 0
171 -323 2800 0
860 -2801 0
-255 -2801 0
-860 255 2801 0
408 -2802 0
689 -2802 0
-408 -689 2802 0
579 -2803 0
-54 -2803 0
-579 54 2803 0
-29 -2804 0
777 -2804 0
29 -777 2804 0
888 -2805 0
-395 -2805 0
-888 395 2805 0
-582 -2806 0
57 -2806 0
582 -57 2806 0
86 -2807 0
-959 -2807 0
-86 959 2807 0
837 -2808 0
705 -2808 0
-837 -705 2808 0
192 -2809 0
-252 -2809 0
-192 252 2809 0
272 -2810 0
-721 -2810 0
-272 721 2810 0
-184 -2811 0
553 -2811 0
184 -553 2811 0
624 -2812 0
-970 -2812 0
-624 970 2812 0
628 -2813 0
634 -2813 0
-628 -634 2813 0
400 -2814 0
915 -2814 0
-400 -915 2814 0
88 -2815 0
902 -2815 0
-88 -902 2815 0
992 -2816 0
863 -2816 0
-992 -863 2816 0
918 -2817 0
484 -2817 0
-918 -484 2817 0
216 -2818 0
826 -2818 0
-216 -826 2818 0
-411 -2819 0
937 -2819 0
411 -937 2819 0
320 -2820 0
-283 -2820 0
-320 283 2820 0
705 -2821 0
65 -2821 0
-705 -65 2821 0
-793 -2822 0
612 -2822 0
793 -612 2822 0
-937 -2823 0
386 -2823 0
937 -386 2823 0
-514 -2824 0
684 -2824 0
514 -684 2824 0
-658 -2825 0
898 -2825 0
658 -898 2825 0
-715 -2826 0
491 -2826 0
715 -491 2826 0
296 -2827 0
343 -2827 0
-296 -343 2827 0
-188 -2828 0
596 -2828 0
188 -596 2828 0
272 -2829 0
15 -2829 0
-272 -15 2829 0
-508 -2830 0
274 -2830 0
508 -274 2830 0
280 -2831 0
510 -2831 0
-280 -510 2831 0
367 -2832 0
-951 -2832 0
-367 951 2832 0
39 -2833 0
-35 -2833 0
-39 35 2833 0
-280 -2834 0
564 -2834 0
280 -564 2834 0
216 -2835 0
495 -2835 0
-216 -495 2835 0
264 -2836 0
839 -2836 0
-264 -839 2836 0
-49 -2837 0
532 -2837 0
49 -532 2837 0
-197 -2838 0
154 -2838 0
197 -154 2838 0
872 -2839 0
-443 -2839 0
-872 443 2839 0
-301 -2840 0
883 -2840 0
301 -883 2840 0
-828 -2841 0
161 -2841 0
828 -161 2841 0
79 -2842 0
-763 -2842 0
-79 763 2842 0
192 -2843 0
-82 -2843 0
-192 82 2843 0
949 -2844 0
593 -2844 0
-949 -593 2844 0
350 -2845 0
-124 -2845 0
-350 124 2845 0
536 -2846 0
308 -2846 0
-536 -308 2846 0
109 -2847 0
124 -2847 0
-109 -124 2847 0
745 -2848 0
369 -2848 0
-745 -369 2848 0
910 -2849 0
715 -2849 0
-910 -715 2849 0
576 -2850 0
-638 -2850 0
-576 638 2850 0
514 -2851 0
705 -2851 0
-514 -705 2851 0
376 -2852 0
185 -2852 0
-376 -185 2852 0
-945 -2853 0
193 -2853 0
945 -193 2853 0
288 -2854 0
-84 -2854 0
-288 84 2854 0
342 -2855 0
-924 -2855 0
-342 924 2855 0
504 -2856 0
-853 -2856 0
-504 853 2856 0
647 -2857 0
-501 -2857 0
-647 501 2857 0
-986 -2858 0
33 -2858 0
986 -33 2858 0
-508 -2859 0
713 -2859 0
508 -713 2859 0
125 -2860 0
-452 -2860 0
-125 452 2860 0
859 -2861 0
769 -2861 0
-859 -769 2861 0
-938 -2862 0
906 -2862 0
938 -906 2862 0
191 -2863 0
188 -2863 0
-191 -188 2863 0
229 -2864 0
564 -2864 0
-229 -564 2864 0
219 -2865 0
883 -2865 0
-219 -883 2865 0
859 -2866 0
290 -2866 0
-859 -290 2866 0
703 -2867 0
-466 -2867 0
-703 466 2867 0
-723 -2868 0
499 -2868 0
723 -499 2868 0
-889 -2869 0
530 -2869 0
889 -530 2869 0
352 -2870 0
381 -2870 0
-352 -381 2870 0
-529 -2871 0
459 -2871 0
529 -459 2871 0
-344 -2872 0
774 -2872 0
344 -774 2872 0
231 -2873 0
-578 -2873 0
-231 578 2873 0
386 -2874 0
-782 -2874 0
-386 782 2874 0
-640 -2875 0
179 -2875 0
640 -179 2875 0
175 -2876 0
449 -2876 0
-175 -449 2876 0
-208 -2877 0
887 -2877 0
208 -887 2877 0
485 -2878 0
-164 -2878 0
-485 164 2878 0
-692 -2879 0
2 -2879 0
692 -2 2879 0
483 -2880 0
-173 -2880 0
-483 173 2880 0
503 -2881 0
-397 -2881 0
-503 397 2881 0
-970 -2882 0
225 -2882 0
970 -225 2882 0
-756 -2883 0
17 -2883 0
756 -17 2883 0
464 -2884 0
892 -2884 0
-464 -892 2884 0
728 -2885 0
958 -2885 0
-728 -958 2885 0
457 -2886 0
641 -2886 0
-457 -641 2886 0
583 -2887 0
-813 -2887 0
-583 813 2887 0
528 -2888 0
-297 -2888 0
-528 297 2888 0
917 -2889 0
-517 -2889 0
-917 517 2889 0
-2 -2890 0
580 -2890 0
2 -580 2890 0
696 -2891 0
-93 -2891 0
-696 93 2891 0
-316 -2892 0
770 -2892 0
316 -770 2892 0
-634 -2893 0
627 -2893 0
634 -627 2893 0
413 -2894 0
-4 -2894 0
-413 4 2894 0
637 -2895 0
-92 -2895 0
-637 92 2895 0
383 -2896 0
28 -2896 0
-383 -28 2896 0
-568 -2897 0
749 -2897 0
568 -749 2897 0
613 -2898 0
115 -2898 0
-613 -115 2898 0
48 -2899 0
958 -2899 0
-48 -958 2899 0
994 -2900 0
-847 -2900 0
-994 847 2900 0
-362 -2901 0
298 -2901 0
362 -298 2901 0
520 -2902 0
-6 -2902 0
-520 6 2902 0
-121 -2903 0
721 -2903 0
121 -721 2903 0
-713 -2904 0
521 -2904 0
713 -521 2904 0
155 -2905 0
682 -2905 0
-155 -682 2905 0
-649 -2906 0
434 -2906 0
649 -434 2906 0
342 -2907 0
-734 -2907 0
-342 734 2907 0
933 -2908 0
612 -2908 0
-933 -612 2908 0
470 -2909 0
770 -2909 0
-470 -770 2909 0
-312 -2910 0
102 -2910 0
312 -102 2910 0
574 -2911 0
932 -2911 0
-574 -932 2911 0
622 -2912 0
-711 -2912 0
-622 711 2912 0
941 -2913 0
-541 -2913 0
-941 541 2913 0
366 -2914 0
766 -2914 0
-366 -766 2914 0
29 -2915 0
994 -2915 0
-29 -994 2915 0
882 -2916 0
-238 -2916 0
-882 238 2916 0
-289 -2917 0
682 -2917 0
289 -682 2917 0
799 -2918 0
531 -2918 0
-799 -531 2918 0
-668 -2919 0
105 -2919 0
668 -105 2919 0
75 -2920 0
666 -2920 0
-75 -666 2920 0
33 -2921 0
-23 -2921 0
-33 23 2921 0
-624 -2922 0
923 -2922 0
624 -923 2922 0
-792 -2923 0
938 -2923 0
792 -938 2923 0
484 -2924 0
-615 -2924 0
-484 615 2924 0
-829 -2925 0
97 -2925 0
829 -97 2925 0
547 -2926 0
858 -2926 0
-547 -858 2926 0
21 -2927 0
-622 -2927 0
-21 622 2927 0
-778 -2928 0
260 -2928 0
778 -260 2928 0
-314 -2929 0
981 -2929 0
314 -981 2929 0
-250 -2930 0
190 -2930 0
250 -190 2930 0
621 -2931 0
243 -2931 0
-621 -243 2931 0
-18 -2932 0
138 -2932 0
18 -138 2932 0
303 -2933 0
266 -2933 0
-303 -266 2933 0
248 -2934 0
987 -2934 0
-248 -987 2934 0
239 -2935 0
937 -2935 0
-239 -937 2935 0
424 -2936 0
190 -2936 0
-424 -190 2936 0
765 -2937 0
724 -2937 0
-765 -724 2937 0
-74 -2938 0
518 -2938 0
74 -518 2938 0
-329 -2939 0
95 -2939 0
329 -95 2939 0
184 -2940 0
-532 -2940 0
-184 532 2940 0
198 -2941 0
708 -2941 0
-198 -708 2941 0
568 -2942 0
941 -2942 0
-568 -941 2942 0
576 -2943 0
914 -2943 0
-576 -914 2943 0
558 -2944 0
-557 -2944 0
-558 557 2944 0
531 -2945 0
-598 -2945 0
-531 598 2945 0
15 -2946 0
-666 -2946 0
-15 666 2946 0
397 -2947 0
596 -2947 0
-397 -596 2947 0
253 -2948 0
930 -2948 0
-253 -930 2948 0
68 -2949 0
122 -2949 0
-68 -122 2949 0
918 -2950 0
-30 -2950 0
-918 30 2950 0
88 -2951 0
583 -2951 0
-88 -583 2951 0
967 -2952 0
659 -2952 0
-967 -659 2952 0
-244 -2953 0
201 -2953 0
244 -201 2953 0
253 -2954 0
-511 -2954 0
-253 511 2954 0
-65 -2955 0
650 -2955 0
65 -650 2955 0
-475 -2956 0
772 -2956 0
475 -772 2956 0
183 -2957 0
50 -2957 0
-183 -50 2957 0
726 -2958 0
-557 -2958 0
-726 557 2958 0
-936 -2959 0
620 -2959 0
936 -620 2959 0
663 -2960 0
142 -2960 0
-663 -142 2960 0
502 -2961 0
33 -2961 0
-502 -33 2961 0
-313 -2962 0
187 -2962 0
313 -187 2962 0
-496 -2963 0
841 -2963 0
496 -841 2963 0
-224 -2964 0
247 -2964 0
224 -247 2964 0
824 -2965 0
-173 -2965 0
-824 173 2965 0
-188 -2966 0
83 -2966 0
188 -83 2966 0
432 -2967 0
966 -2967 0
-432 -966 2967 0
104 -2968 0
415 -2968 0
-104 -415 2968 0
245 -2969 0
-902 -2969 0
-245 902 2969 0
208 -2970 0
97 -2970 0
-208 -97 2970 0
856 -2971 0
752 -2971 0
-856 -752 2971 0
827 -2972 0
883 -2972 0
-827 -883 2972 0
576 -2973 0
374 -2973 0
-576 -374 2973 0
-532 -2974 0
369 -2974 0
532 -369 2974 0
-392 -2975 0
853 -2975 0
392 -853 2975 0
942 -2976 0
508 -2976 0
-942 -508 2976 0
509 -2977 0
-591 -2977 0
-509 591 2977 0
814 -2978 0
-134 -2978 0
-814 134 2978 0
464 -2979 0
658 -2979 0
-464 -658 2979 0
445 -2980 0
386 -2980 0
-445 -386 2980 0
38 -2981 0
169 -2981 0
-38 -169 2981 0
381 -2982 0
-767 -2982 0
-381 767 2982 0
683 -2983 0
298 -2983 0
-683 -298 2983 0
181 -2984 0
-731 -2984 0
-181 731 2984 0
-867 -2985 0
962 -2985 0
867 -962 2985 0
-213 -2986 0
147 -2986 0
213 -147 2986 0
136 -2987 0
988 -2987 0
-136 -988 2987 0
311 -2988 0
-77 -2988 0
-311 77 2988 0
741 -2989 0
115 -2989 0
-741 -115 2989 0
-152 -2990 0
242 -2990 0
152 -242 2990 0
263 -2991 0
969 -2991 0
-263 -969 2991 0
213 -2992 0
635 -2992 0
-213 -635 2992 0
-28 -2993 0
747 -2993 0
28 -747 2993 0
852 -2994 0
155 -2994 0
-852 -155 2994 0
960 -2995 0
-974 -2995 0
-960 974 2995 0
421 -2996 0
925 -2996 0
-421 -925 2996 0
693 -2997 0
861 -2997 0
-693 -861 2997 0
476 -2998 0
242 -2998 0
-476 -242 2998 0
-852 -2999 0
139 -2999 0
852 -139 2999 0
968 -3000 0
-325 -3000 0
-968 325 3000 0
975 -3001 0
682 -3001 0
-975 -682 3001 0
716 -3002 0
780 -3002 0
-716 -780 3002 0
32 -3003 0
303 -3003 0
-32 -303 3003 0
192 -3004 0
-286 -3004 0
-192 286 3004 0
404 -3005 0
-421 -3005 0
-404 421 3005 0
855 -3006 0
393 -3006 0
-855 -393 3006 0
694 -3007 0
885 -3007 0
-694 -885 3007 0
23 -3008 0
-330 -3008 0
-23 330 3008 0
325 -3009 0
-335 -3009 0
-325 335 3009 0
914 -3010 0
178 -3010 0
-914 -178 3010 0
968 -3011 0
-484 -3011 0
-968 484 3011 0
584 -3012 0
-697 -3012 0
-584 697 3012 0
700 -3013 0
193 -3013 0
-700 -193 3013 0
695 -3014 0
-462 -3014 0
-695 462 3014 0
656 -3015 0
963 -3015 0
-656 -963 3015 0
368 -3016 0
789 -3016 0
-368 -789 3016 0
-177 -3017 0
996 -3017 0
177 -996 3017 0
507 -3018 0
-981 -3018 0
-507 981 3018 0
653 -3019 0
-411 -3019 0
-653 411 3019 0
74 -3020 0
-951 -3020 0
-74 951 3020 0
224 -3021 0
266 -3021 0
-224 -266 3021 0
759 -3022 0
921 -3022 0
-759 -921 3022 0
623 -3023 0
-922 -3023 0
-623 922 3023 0
128 -3024 0
-783 -3024 0
-128 783 3024 0
674 -3025 0
209 -3025 0
-674 -209 3025 0
-267 -3026 0
34 -3026 0
267 -34 3026 0
468 -3027 0
-756 -3027 0
-468 756 3027 0
708 -3028 0
-399 -3028 0
-708 399 3028 0
-651 -3029 0
893 -3029 0
651 -893 3029 0
-40 -3030 0
674 -3030 0
40 -674 3030 0
-524 -3031 0
618 -3031 0
524 -618 3031 0
78 -3032 0
627 -3032 0
-78 -627 3032 0
901 -3033 0
-694 -3033 0
-901 694 3033 0
500 -3034 0
-990 -3034 0
-500 990 3034 0
989 -3035 0
507 -3035 0
-989 -507 3035 0
16 -3036 0
-60 -3036 0
-16 60 3036 0
892 -3037 0
601 -3037 0
-892 -601 3037 0
-530 -3038 0
686 -3038 0
530 -686 3038 0
891 -3039 0
-654 -3039 0
-891 654 3039 0
687 -3040 0
198 -3040 0
-687 -198 3040 0
239 -3041 0
451 -3041 0
-239 -451 3041 0
-320 -3042 0
259 -3042 0
320 -259 3042 0
480 -3043 0
415 -3043 0
-480 -415 3043 0
-776 -3044 0
766 -3044 0
776 -766 3044 0
430 -3045 0
-146 -3045 0
-430 146 3045 0
51 -3046 0
-710 -3046 0
-51 710 3046 0
-128 -3047 0
528 -3047 0
128 -528 3047 0
-913 -3048 0
147 -3048 0
913 -147 3048 0
375 -3049 0
462 -3049 0
-375 -462 3049 0
511 -3050 0
-706 -3050 0
-511 706 3050 0
464 -3051 0
948 -3051 0
-464 -948 3051 0
822 -3052 0
-662 -3052 0
-822 662 3052 0
-608 -3053 0
652 -3053 0
608 -652 3053 0
162 -3054 0
249 -3054 0
-162 -249 3054 0
68 -3055 0
897 -3055 0
-68 -897 3055 0
-782 -3056 0
521 -3056 0
782 -521 3056 0
128 -3057 0
-721 -3057 0
-128 721 3057 0
469 -3058 0
219 -3058 0
-469 -219 3058 0
-889 -3059 0
147 -3059 0
889 -147 3059 0
-290 -3060 0
361 -3060 0
290 -361 3060 0
-536 -3061 0
573 -3061 0
536 -573 3061 0
733 -3062 0
-967 -3062 0
-733 967 3062 0
-168 -3063 0
188 -3063 0
168 -188 3063 0
141 -3064 0
241 -3064 0
-141 -241 3064 0
-192 -3065 0
591 -3065 0
192 -591 3065 0
-475 -3066 0
346 -3066 0
475 -346 3066 0
76 -3067 0
-748 -3067 0
-76 748 3067 0
695 -3068 0
100 -3068 0
-695 -100 3068 0
600 -3069 0
-669 -3069 0
-600 669 3069 0
528 -3070 0
-638 -3070 0
-528 638 3070 0
-122 -3071 0
254 -3071 0
122 -254 3071 0
616 -3072 0
99 -3072 0
-616 -99 3072 0
757 -3073 0
-495 -3073 0
-757 495 3073 0
-91 -3074 0
157 -3074 0
91 -157 3074 0
563 -3075 0
-886 -3075 0
-563 886 3075 0
95 -3076 0
77 -3076 0
-95 -77 3076 0
591 -3077 0
707 -3077 0
-591 -707 3077 0
615 -3078 0
205 -3078 0
-615 -205 3078 0
-466 -3079 0
365 -3079 0
466 -365 3079 0
379 -3080 0
98 -3080 0
-379 -98 3080 0
-57 -3081 0
124 -3081 0
57 -124 3081 0
278 -3082 0
985 -3082 0
-278 -985 3082 0
-221 -3083 0
11 -3083 0
221 -11 3083 0
-11 -3084 0
660 -3084 0
11 -660 3084 0
798 -3085 0
234 -3085 0
-798 -234 3085 0
-387 -3086 0
29 -3086 0
387 -29 3086 0
486 -3087 0
-924 -3087 0
-486 924 3087 0
-985 -3088 0
610 -3088 0
985 -610 3088 0
53 -3089 0
-479 -3089 0
-53 479 3089 0
834 -3090 0
-943 -3090 0
-834 943 3090 0
694 -3091 0
890 -3091 0
-694 -890 3091 0
971 -3092 0
-190 -3092 0
-971 190 3092 0
-36 -3093 0
777 -3093 0
36 -777 3093 0
652 -3094 0
108 -3094 0
-652 -108 3094 0
270 -3095 0
-595 -3095 0
-270 595 3095 0
72 -3096 0
943 -3096 0
-72 -943 3096 0
-553 -3097 0
59 -3097 0
553 -59 3097 0
622 -3098 0
-620 -3098 0
-622 620 3098 0
582 -3099 0
-30 -3099 0
-582 30 3099 0
-827 -3100 0
114 -3100 0
827 -114 3100 0
571 -3101 0
-342 -3101 0
-571 342 3101 0
380 -3102 0
108 -3102 0
-380 -108 3102 0
80 -3103 0
-242 -3103 0
-80 242 3103 0
784 -3104 0
215 -3104 0
-784 -215 3104 0
-304 -3105 0
76 -3105 0
304 -76 3105 0
478 -3106 0
837 -3106 0
-478 -837 3106 0
24 -3107 0
192 -3107 0
-24 -192 3107 0
-473 -3108 0
963 -3108 0
473 -963 3108 0
-566 -3109 0
553 -3109 0
566 -553 3109 0
917 -3110 0
753 -3110 0
-917 -753 3110 0
820 -3111 0
-893 -3111 0
-820 893 3111 0
426 -3112 0
-798 -3112 0
-426 798 3112 0
-324 -3113 0
803 -3113 0
324 -803 3113 0
-233 -3114 0
137 -3114 0
233 -137 3114 0
-425 -3115 0
397 -3115 0
425 -397 3115 0
926 -3116 0
-927 -3116 0
-926 927 3116 0
-216 -3117 0
426 -3117 0
216 -426 3117 0
259 -3118 0
-13 -3118 0
-259 13 3118 0
-25 -3119 0
525 -3119 0
25 -525 3119 0
30 -3120 0
795 -3120 0
-30 -795 3120 0
871 -3121 0
-763 -3121 0
-871 763 3121 0
317 -3122 0
-187 -3122 0
-317 187 3122 0
-195 -3123 0
668 -3123 0
195 -668 3123 0
-908 -3124 0
340 -3124 0
908 -340 3124 0
864 -3125 0
-516 -3125 0
-864 516 3125 0
119 -3126 0
550 -3126 0
-119 -550 3126 0
236 -3127 0
698 -3127 0
-236 -698 3127 0
-388 -3128 0
785 -3128 0
388 -785 3128 0
-780 -3129 0
524 -3129 0
780 -524 3129 0
926 -3130 0
-900 -3130 0
-926 900 3130 0
453 -3131 0
-599 -3131 0
-453 599 3131 0
936 -3132 0
-808 -3132 0
-936 808 3132 0
352 -3133 0
823 -3133 0
-352 -823 3133 0
516 -3134 0
107 -3134 0
-516 -107 3134 0
4 -3135 0
-302 -3135 0
-4 302 3135 0
702 -3136 0
595 -3136 0
-702 -595 3136 0
-113 -3137 0
124 -3137 0
113 -124 3137 0
-577 -3138 0
278 -3138 0
577 -278 3138 0
700 -3139 0
-718 -3139 0
-700 718 3139 0
536 -3140 0
-542 -3140 0
-536 542 3140 0
182 -3141 0
-259 -3141 0
-182 259 3141 0
-678 -3142 0
498 -3142 0
678 -498 3142 0
-480 -3143 0
485 -3143 0
480 -485 3143 0
-39 -3144 0
409 -3144 0
39 -409 3144 0
155 -3145 0
-710 -3145 0
-155 710 3145 0
980 -3146 0
-535 -3146 0
-980 535 3146 0
-400 -3147 0
601 -3147 0
400 -601 3147 0
-118 -3148 0
521 -3148 0
118 -521 3148 0
367 -3149 0
-62 -3149 0
-367 62 3149 0
967 -3150 0
67 -3150 0
-967 -67 3150 0
-402 -3151 0
553 -3151 0
402 -553 3151 0
-302 -3152 0
242 -3152 0
302 -242 3152 0
-30 -3153 0
625 -3153 0
30 -625 3153 0
-948 -3154 0
428 -3154 0
948 -428 3154 0
327 -3155 0
157 -3155 0
-327 -157 3155 0
157 -3156 0
-205 -3156 0
-157 205 3156 0
388 -3157 0
826 -3157 0
-388 -826 3157 0
-148 -3158 0
113 -3158 0
148 -113 3158 0
-683 -3159 0
346 -3159 0
683 -346 3159 0
947 -3160 0
770 -3160 0
-947 -770 3160 0
-33 -3161 0
83 -3161 0
33 -83 3161 0
812 -3162 0
-356 -3162 0
-812 356 3162 0
198 -3163 0
-565 -3163 0
-198 565 3163 0
115 -3164 0
-350 -3164 0
-115 350 3164 0
605 -3165 0
-86 -3165 0
-605 86 3165 0
398 -3166 0
-484 -3166 0
-398 484 3166 0
332 -3167 0
-788 -3167 0
-332 788 3167 0
181 -3168 0
-596 -3168 0
-181 596 3168 0
451 -3169 0
130 -3169 0
-451 -130 3169 0
888 -3170 0
613 -3170 0
-888 -613 3170 0
-771 -3171 0
619 -3171 0
771 -619 3171 0
394 -3172 0
889 -3172 0
-394 -889 3172 0
584 -3173 0
762 -3173 0
-584 -762 3173 0
328 -3174 0
414 -3174 0
-328 -414 3174 0
-491 -3175 0
100 -3175 0
491 -100 3175 0
535 -3176 0
111 -3176 0
-535 -111 3176 0
-636 -3177 0
89 -3177 0
636 -89 3177 0
255 -3178 0
-203 -3178 0
-255 203 3178 0
37 -3179 0
538 -3179 0
-37 -538 3179 0
102 -3180 0
-327 -3180 0
-102 327 3180 0
582 -3181 0
276 -3181 0
-582 -276 3181 0
787 -3182 0
-367 -3182 0
-787 367 3182 0
-395 -3183 0
977 -3183 0
395 -977 3183 0
986 -3184 0
-695 -3184 0
-986 695 3184 0
916 -3185 0
452 -3185 0
-916 -452 3185 0
519 -3186 0
-588 -3186 0
-519 588 3186 0
94 -3187 0
-130 -3187 0
-94 130 3187 0
451 -3188 0
297 -3188 0
-451 -297 3188 0
627 -3189 0
-934 -3189 0
-627 934 3189 0
508 -3190 0
713 -3190 0
-508 -713 3190 0
439 -3191 0
51 -3191 0
-439 -51 3191 0
-937 -3192 0
738 -3192 0
937 -738 3192 0
525 -3193 0
109 -3193 0
-525 -109 3193 0
658 -3194 0
-982 -3194 0
-658 982 3194 0
173 -3195 0
579 -3195 0
-173 -579 3195 0
735 -3196 0
780 -3196 0
-735 -780 3196 0
203 -3197 0
937 -3197 0
-203 -937 3197 0
63 -3198 0
-540 -3198 0
-63 540 3198 0
826 -3199 0
570 -3199 0
-826 -570 3199 0
437 -3200 0
-639 -3200 0
-437 639 3200 0
-884 -3201 0
579 -3201 0
884 -579 3201 0
-680 -3202 0
98 -3202 0
680 -98 3202 0
584 -3203 0
949 -3203 0
-584 -949 3203 0
814 -3204 0
685 -3204 0
-814 -685 3204 0
860 -3205 0
-22 -3205 0
-860 22 3205 0
799 -3206 0
-154 -3206 0
-799 154 3206 0
-952 -3207 0
418 -3207 0
952 -418 3207 0
-636 -3208 0
474 -3208 0
636 -474 3208 0
-274 -3209 0
513 -3209 0
274 -513 3209 0
408 -3210 0
-350 -3210 0
-408 350 3210 0
-578 -3211 0
924 -3211 0
578 -924 3211 0
-272 -3212 0
823 -3212 0
272 -823 3212 0
-384 -3213 0
156 -3213 0
384 -156 3213 0
782 -3214 0
-802 -3214 0
-782 802 3214 0
926 -3215 0
-366 -3215 0
-926 366 3215 0
542 -3216 0
282 -3216 0
-542 -282 3216 0
309 -3217 0
-847 -3217 0
-309 847 3217 0
548 -3218 0
956 -3218 0
-548 -956 3218 0
-962 -3219 0
132 -3219 0
962 -132 3219 0
651 -3220 0
250 -3220 0
-651 -250 3220 0
-786 -3221 0
620 -3221 0
786 -620 3221 0
-123 -3222 0
377 -3222 0
123 -377 3222 0
-577 -3223 0
594 -3223 0
577 -594 3223 0
882 -3224 0
-438 -3224 0
-882 438 3224 0
231 -3225 0
377 -3225 0
-231 -377 3225 0
117 -3226 0
-711 -3226 0
-117 711 3226 0
408 -3227 0
611 -3227 0
-408 -611 3227 0
-748 -3228 0
907 -3228 0
748 -907 3228 0
245 -3229 0
42 -3229 0
-245 -42 3229 0
-906 -3230 0
637 -3230 0
906 -637 3230 0
-514 -3231 0
621 -3231 0
514 -621 3231 0
248 -3232 0
733 -3232 0
-248 -733 3232 0
967 -3233 0
621 -3233 0
-967 -621 3233 0
829 -3234 0
-455 -3234 0
-829 455 3234 0
365 -3235 0
843 -3235 0
-365 -843 3235 0
-640 -3236 0
172 -3236 0
640 -172 3236 0
-361 -3237 0
877 -3237 0
361 -877 3237 0
-403 -3238 0
947 -3238 0
403 -947 3238 0
847 -3239 0
518 -3239 0
-847 -518 3239 0
641 -3240 0
-423 -3240 0
-641 423 3240 0
403 -3241 0
162 -3241 0
-403 -162 3241 0
616 -3242 0
629 -3242 0
-616 -629 3242 0
605 -3243 0
-30 -3243 0
-605 30 3243 0
-729 -3244 0
719 -3244 0
729 -719 3244 0
-986 -3245 0
500 -3245 0
986 -500 3245 0
455 -3246 0
-786 -3246 0
-455 786 3246 0
-955 -3247 0
522 -3247 0
955 -522 3247 0
656 -3248 0
-539 -3248 0
-656 539 3248 0
199 -3249 0
-305 -3249 0
-199 305 3249 0
-408 -3250 0
661 -3250 0
408 -661 3250 0
573 -3251 0
98 -3251 0
-573 -98 3251 0
511 -3252 0
741 -3252 0
-511 -741 3252 0
-329 -3253 0
903 -3253 0
329 -903 3253 0
751 -3254 0
-54 -3254 0
-751 54 3254 0
215 -3255 0
939 -3255 0
-215 -939 3255 0
568 -3256 0
-791 -3256 0
-568 791 3256 0
971 -3257 0
-830 -3257 0
-971 830 3257 0
180 -3258 0
-788 -3258 0
-180 788 3258 0
-780 -3259 0
979 -3259 0
780 -979 3259 0
-395 -3260 0
860 -3260 0
395 -860 3260 0
-120 -3261 0
297 -3261 0
120 -297 3261 0
262 -3262 0
-669 -3262 0
-262 669 3262 0
372 -3263 0
-500 -3263 0
-372 500 3263 0
998 -3264 0
-52 -3264 0
-998 52 3264 0
165 -3265 0
-219 -3265 0
-165 219 3265 0
168 -3266 0
-390 -3266 0
-168 390 3266 0
-40 -3267 0
986 -3267 0
40 -986 3267 0
520 -3268 0
944 -3269 0
-941 -3269 0
-944 941 3269 0
-584 -3270 0
935 -3270 0
584 -935 3270 0
959 -3271 0
-174 -3271 0
-959 174 3271 0
805 -3272 0
-750 -3272 0
-805 750 3272 0
-678 -3273 0
561 -3273 0
678 -561 3273 0
-762 -3274 0
389 -3274 0
762 -389 3274 0
845 -3275 0
250 -3275 0
-845 -250 3275 0
-473 -3276 0
46 -3276 0
473 -46 3276 0
-128 -3277 0
252 -3277 0
128 -252 3277 0
384 -3278 0
60 -3278 0
-384 -60 3278 0
502 -3279 0
380 -3279 0
-502 -380 3279 0
852 -3280 0
-508 -3280 0
-852 508 3280 0
680 -3281 0
-915 -3281 0
-680 915 3281 0
807 -3282 0
-14 -3282 0
-807 14 3282 0
-410 -3283 0
493 -3283 0
410 -493 3283 0
-994 -3284 0
844 -3284 0
994 -844 3284 0
120 -3285 0
-930 -3285 0
-120 930 3285 0
168 -3286 0
-719 -3286 0
-168 719 3286 0
-708 -3287 0
268 -3287 0
708 -268 3287 0
303 -3288 0
-221 -3288 0
-303 221 3288 0
680 -3289 0
325 -3289 0
-680 -325 3289 0
-233 -3290 0
266 -3290 0
233 -266 3290 0
406 -3291 0
-587 -3291 0
-406 587 3291 0
798 -3292 0
-695 -3292 0
-798 695 3292 0
-144 -3293 0
2 -3293 0
144 -2 3293 0
-703 -3294 0
369 -3294 0
703 -369 3294 0
445 -3295 0
619 -3295 0
-445 -619 3295 0
-203 -3296 0
500 -3296 0
203 -500 3296 0
360 -3297 0
1 -3297 0
-360 -1 3297 0
920 -3298 0
934 -3298 0
-920 -934 3298 0
868 -3299 0
980 -3299 0
-868 -980 3299 0
39 -3300 0
530 -3300 0
-39 -530 3300 0
107 -3301 0
-966 -3301 0
-107 966 3301 0
-752 -3302 0
831 -3302 0
752 -831 3302 0
-368 -3303 0
964 -3303 0
368 -964 3303 0
-315 -3304 0
706 -3304 0
315 -706 3304 0
677 -3305 0
-678 -3305 0
-677 678 3305 0
-59 -3306 0
705 -3306 0
59 -705 3306 0
394 -3307 0
-471 -3307 0
-394 471 3307 0
791 -3308 0
619 -3308 0
-791 -619 3308 0
348 -3309 0
-463 -3309 0
-348 463 3309 0
-523 -3310 0
516 -3310 0
523 -516 3310 0
704 -3311 0
307 -3311 0
-704 -307 3311 0
186 -3312 0
-199 -3312 0
-186 199 3312 0
-816 -3313 0
881 -3313 0
816 -881 3313 0
886 -3314 0
955 -3314 0
-886 -955 3314 0
639 -3315 0
17 -3315 0
-639 -17 3315 0
270 -3316 0
-739 -3316 0
-270 739 3316 0
608 -3317 0
-372 -3317 0
-608 372 3317 0
-756 -3318 0
746 -3318 0
756 -746 3318 0
-468 -3319 0
476 -3319 0
468 -476 3319 0
405 -3320 0
-340 -3320 0
-405 340 3320 0
-779 -3321 0
765 -3321 0
779 -765 3321 0
470 -3322 0
-805 -3322 0
-470 805 3322 0
-456 -3323 0
185 -3323 0
456 -185 3323 0
543 -3324 0
479 -3324 0
-543 -479 3324 0
333 -3325 0
-150 -3325 0
-333 150 3325 0
447 -3326 0
826 -3326 0
-447 -826 3326 0
-736 -3327 0
689 -3327 0
736 -689 3327 0
358 -3328 0
-604 -3328 0
-358 604 3328 0
-710 -3329 0
418 -3329 0
710 -418 3329 0
-256 -3330 0
59 -3330 0
256 -59 3330 0
-320 -3331 0
697 -3331 0
320 -697 3331 0
368 -3332 0
-185 -3332 0
-368 185 3332 0
895 -3333 0
-178 -3333 0
-895 178 3333 0
927 -3334 0
214 -3334 0
-927 -214 3334 0
-111 -3335 0
401 -3335 0
111 -401 3335 0
551 -3336 0
349 -3336 0
-551 -349 3336 0
599 -3337 0
316 -3337 0
-599 -316 3337 0
717 -3338 0
139 -3338 0
-717 -139 3338 0
487 -3339 0
-530 -3339 0
-487 530 3339 0
486 -3340 0
-860 -3340 0
-486 860 3340 0
640 -3341 0
646 -3341 0
-640 -646 3341 0
985 -3342 0
-431 -3342 0
-985 431 3342 0
568 -3343 0
-275 -3343 0
-568 275 3343 0
776 -3344 0
341 -3344 0
-776 -341 3344 0
987 -3345 0
482 -3345 0
-987 -482 3345 0
509 -3346 0
293 -3346 0
-509 -293 3346 0
-86 -3347 0
305 -3347 0
86 -305 3347 0
655 -3348 0
-868 -3348 0
-655 868 3348 0
246 -3349 0
53 -3349 0
-246 -53 3349 0
-872 -3350 0
888 -3350 0
872 -888 3350 0
-313 -3351 0
514 -3351 0
313 -514 3351 0
171 -3352 0
-942 -3352 0
-171 942 3352 0
-155 -3353 0
293 -3353 0
155 -293 3353 0
967 -3354 0
-483 -3354 0
-967 483 3354 0
262 -3355 0
317 -3355 0
-262 -317 3355 0
974 -3356 0
-501 -3356 0
-974 501 3356 0
4 -3357 0
315 -3357 0
-4 -315 3357 0
756 -3358 0
-166 -3358 0
-756 166 3358 0
-465 -3359 0
612 -3359 0
465 -612 3359 0
-809 -3360 0
398 -3360 0
809 -398 3360 0
-464 -3361 0
702 -3361 0
464 -702 3361 0
301 -3362 0
764 -3362 0
-301 -764 3362 0
677 -3363 0
981 -3363 0
-677 -981 3363 0
192 -3364 0
591 -3364 0
-192 -591 3364 0
-9 -3365 0
819 -3365 0
9 -819 3365 0
848 -3366 0
-844 -3366 0
-848 844 3366 0
317 -3367 0
-861 -3367 0
-317 861 3367 0
501 -3368 0
-805 -3368 0
-501 805 3368 0
415 -3369 0
-657 -3369 0
-415 657 3369 0
-106 -3370 0
229 -3370 0
106 -229 3370 0
162 -3371 0
465 -3371 0
-162 -465 3371 0
94 -3372 0
122 -3372 0
-94 -122 3372 0
-664 -3373 0
697 -3373 0
664 -697 3373 0
-941 -3374 0
2 -3374 0
941 -2 3374 0
909 -3375 0
236 -3375 0
-909 -236 3375 0
-435 -3376 0
691 -3376 0
435 -691 3376 0
365 -3377 0
-205 -3377 0
-365 205 3377 0
95 -3378 0
-78 -3378 0
-95 78 3378 0
591 -3379 0
-382 -3379 0
-591 382 3379 0
-489 -3380 0
223 -3380 0
489 -223 3380 0
366 -3381 0
410 -3381 0
-366 -410 3381 0
324 -3382 0
732 -3382 0
-324 -732 3382 0
304 -3383 0
490 -3383 0
-304 -490 3383 0
208 -3384 0
157 -3384 0
-208 -157 3384 0
148 -3385 0
226 -3385 0
-148 -226 3385 0
216 -3386 0
-127 -3386 0
-216 127 3386 0
342 -3387 0
-435 -3387 0
-342 435 3387 0
516 -3388 0
-285 -3388 0
-516 285 3388 0
326 -3389 0
723 -3389 0
-326 -723 3389 0
792 -3390 0
209 -3390 0
-792 -209 3390 0
548 -3391 0
-877 -3391 0
-548 877 3391 0
127 -3392 0
-862 -3392 0
-127 862 3392 0
-483 -3393 0
186 -3393 0
483 -186 3393 0
309 -3394 0
339 -3394 0
-309 -339 3394 0
509 -3395 0
364 -3395 0
-509 -364 3395 0
-1000 -3396 0
68 -3396 0
1000 -68 3396 0
384 -3397 0
292 -3397 0
-384 -292 3397 0
275 -3398 0
-62 -3398 0
-275 62 3398 0
560 -3399 0
-559 -3399 0
-560 559 3399 0
715 -3400 0
-901 -3400 0
-715 901 3400 0
-940 -3401 0
602 -3401 0
940 -602 3401 0
-929 -3402 0
999 -3402 0
929 -999 3402 0
343 -3403 0
-483 -3403 0
-343 483 3403 0
151 -3404 0
-118 -3404 0
-151 118 3404 0
702 -3405 0
986 -3405 0
-702 -986 3405 0
670 -3406 0
969 -3406 0
-670 -969 3406 0
799 -3407 0
-706 -3407 0
-799 706 3407 0
943 -3408 0
223 -3408 0
-943 -223 3408 0
-306 -3409 0
612 -3409 0
306 -612 3409 0
775 -3410 0
780 -3410 0
-775 -780 3410 0
-875 -3411 0
771 -3411 0
875 -771 3411 0
774 -3412 0
-851 -3412 0
-774 851 3412 0
295 -3413 0
251 -3413 0
-295 -251 3413 0
197 -3414 0
188 -3415 0
434 -3415 0
-188 -434 3415 0
392 -3416 0
474 -3416 0
-392 -474 3416 0
655 -3417 0
114 -3417 0
-655 -114 3417 0
166 -3418 0
284 -3418 0
-166 -284 3418 0
-545 -3419 0
916 -3419 0
545 -916 3419 0
703 -3420 0
-499 -3420 0
-703 499 3420 0
352 -3421 0
731 -3421 0
-352 -731 3421 0
368 -3422 0
-946 -3422 0
-368 946 3422 0
743 -3423 0
-234 -3423 0
-743 234 3423 0
-83 -3424 0
715 -3424 0
83 -715 3424 0
334 -3425 0
-92 -3425 0
-334 92 3425 0
908 -3426 0
-957 -3426 0
-908 957 3426 0
845 -3427 0
786 -3427 0
-845 -786 3427 0
166 -3428 0
-828 -3428 0
-166 828 3428 0
556 -3429 0
-188 -3429 0
-556 188 3429 0
574 -3430 0
-679 -3430 0
-574 679 3430 0
232 -3431 0
763 -3431 0
-232 -763 3431 0
-88 -3432 0
630 -3432 0
88 -630 3432 0
-467 -3433 0
684 -3433 0
467 -684 3433 0
844 -3434 0
849 -3434 0
-844 -849 3434 0
36 -3435 0
387 -3435 0
-36 -387 3435 0
-419 -3436 0
530 -3436 0
419 -530 3436 0
164 -3437 0
-493 -3437 0
-164 493 3437 0
-192 -3438 0
879 -3438 0
192 -879 3438 0
381 -3439 0
289 -3439 0
-381 -289 3439 0
630 -3440 0
49 -3440 0
-630 -49 3440 0
764 -3441 0
545 -3441 0
-764 -545 3441 0
-209 -3442 0
222 -3442 0
209 -222 3442 0
640 -3443 0
392 -3443 0
-640 -392 3443 0
-612 -3444 0
578 -3444 0
612 -578 3444 0
-656 -3445 0
479 -3445 0
656 -479 3445 0
974 -3446 0
51 -3446 0
-974 -51 3446 0
-522 -3447 0
962 -3447 0
522 -962 3447 0
245 -3448 0
-139 -3448 0
-245 139 3448 0
942 -3449 0
363 -3449 0
-942 -363 3449 0
726 -3450 0
-812 -3450 0
-726 812 3450 0
-784 -3451 0
320 -3451 0
784 -320 3451 0
558 -3452 0
-378 -3452 0
-558 378 3452 0
252 -3453 0
-358 -3453 0
-252 358 3453 0
-6 -3454 0
25 -3454 0
6 -25 3454 0
-514 -3455 0
707 -3455 0
514 -707 3455 0
-984 -3456 0
30 -3456 0
984 -30 3456 0
662 -3457 0
445 -3457 0
-662 -445 3457 0
893 -3458 0
-366 -3458 0
-893 366 3458 0
876 -3459 0
-262 -3459 0
-876 262 3459 0
563 -3460 0
955 -3460 0
-563 -955 3460 0
-672 -3461 0
244 -3461 0
672 -244 3461 0
998 -3462 0
235 -3462 0
-998 -235 3462 0
935 -3463 0
-625 -3463 0
-935 625 3463 0
519 -3464 0
-863 -3464 0
-519 863 3464 0
486 -3465 0
-733 -3465 0
-486 733 3465 0
927 -3466 0
479 -3466 0
-927 -479 3466 0
40 -3467 0
-829 -3467 0
-40 829 3467 0
191 -3468 0
-689 -3468 0
-191 689 3468 0
108 -3469 0
-567 -3469 0
-108 567 3469 0
910 -3470 0
-333 -3470 0
-910 333 3470 0
264 -3471 0
580 -3471 0
-264 -580 3471 0
228 -3472 0
219 -3472 0
-228 -219 3472 0
648 -3473 0
178 -3473 0
-648 -178 3473 0
461 -3474 0
131 -3474 0
-461 -131 3474 0
981 -3475 0
19 -3475 0
-981 -19 3475 0
-172 -3476 0
713 -3476 0
172 -713 3476 0
600 -3477 0
-704 -3477 0
-600 704 3477 0
932 -3478 0
234 -3478 0
-932 -234 3478 0
-750 -3479 0
665 -3479 0
750 -665 3479 0
-356 -3480 0
265 -3480 0
356 -265 3480 0
520 -3481 0
179 -3481 0
-520 -179 3481 0
-624 -3482 0
912 -3482 0
624 -912 3482 0
928 -3483 0
-195 -3483 0
-928 195 3483 0
-352 -3484 0
710 -3484 0
352 -710 3484 0
-291 -3485 0
557 -3485 0
291 -557 3485 0
-353 -3486 0
117 -3486 0
353 -117 3486 0
-874 -3487 0
100 -3487 0
874 -100 3487 0
-216 -3488 0
295 -3488 0
216 -295 3488 0
439 -3489 0
-133 -3489 0
-439 133 3489 0
276 -3490 0
354 -3490 0
-276 -354 3490 0
-69 -3491 0
929 -3491 0
69 -929 3491 0
77 -3492 0
-246 -3492 0
-77 246 3492 0
-729 -3493 0
154 -3493 0
729 -154 3493 0
968 -3494 0
-913 -3494 0
-968 913 3494 0
451 -3495 0
690 -3495 0
-451 -690 3495 0
232 -3496 0
733 -3496 0
-232 -733 3496 0
-320 -3497 0
623 -3497 0
320 -623 3497 0
-501 -3498 0
777 -3498 0
501 -777 3498 0
944 -3499 0
-595 -3499 0
-944 595 3499 0
456 -3500 0
-517 -3500 0
-456 517 3500 0
912 -3501 0
850 -3501 0
-912 -850 3501 0
938 -3502 0
777 -3502 0
-938 -777 3502 0
342 -3503 0
-987 -3503 0
-342 987 3503 0
280 -3504 0
161 -3504 0
-280 -161 3504 0
414 -3505 0
523 -3505 0
-414 -523 3505 0
725 -3506 0
-269 -3506 0
-725 269 3506 0
415 -3507 0
-52 -3507 0
-415 52 3507 0
806 -3508 0
625 -3508 0
-806 -625 3508 0
-456 -3509 0
758 -3509 0
456 -758 3509 0
-411 -3510 0
266 -3510 0
411 -266 3510 0
48 -3511 0
-578 -3511 0
-48 578 3511 0
288 -3512 0
-387 -3512 0
-288 387 3512 0
935 -3513 0
669 -3513 0
-935 -669 3513 0
727 -3514 0
-887 -3514 0
-727 887 3514 0
749 -3515 0
802 -3515 0
-749 -802 3515 0
123 -3516 0
33 -3516 0
-123 -33 3516 0
575 -3517 0
865 -3517 0
-575 -865 3517 0
405 -3518 0
-735 -3518 0
-405 735 3518 0
111 -3519 0
-91 -3519 0
-111 91 3519 0
909 -3520 0
-615 -3520 0
-909 615 3520 0
574 -3521 0
372 -3521 0
-574 -372 3521 0
901 -3522 0
-766 -3522 0
-901 766 3522 0
262 -3523 0
770 -3523 0
-262 -770 3523 0
372 -3524 0
698 -3524 0
-372 -698 3524 0
623 -3525 0
898 -3525 0
-623 -898 3525 0
968 -3526 0
585 -3526 0
-968 -585 3526 0
835 -3527 0
-207 -3527 0
-835 207 3527 0
172 -3528 0
-308 -3528 0
-172 308 3528 0
725 -3529 0
-751 -3529 0
-725 751 3529 0
31 -3530 0
-230 -3530 0
-31 230 3530 0
888 -3531 0
-79 -3531 0
-888 79 3531 0
732 -3532 0
-647 -3532 0
-732 647 3532 0
636 -3533 0
-604 -3533 0
-636 604 3533 0
527 -3534 0
761 -3534 0
-527 -761 3534 0
727 -3535 0
-47 -3535 0
-727 47 3535 0
176 -3536 0
-801 -3536 0
-176 801 3536 0
295 -3537 0
801 -3537 0
-295 -801 3537 0
-252 -3538 0
106 -3538 0
252 -106 3538 0
439 -3539 0
-982 -3539 0
-439 982 3539 0
496 -3540 0
-842 -3540 0
-496 842 3540 0
-109 -3541 0
379 -3541 0
109 -379 3541 0
175 -3542 0
615 -3542 0
-175 -615 3542 0
-37 -3543 0
955 -3543 0
37 -955 3543 0
441 -3544 0
-431 -3544 0
-441 431 3544 0
-491 -3545 0
411 -3545 0
491 -411 3545 0
-200 -3546 0
364 -3546 0
200 -364 3546 0
112 -3547 0
-774 -3547 0
-112 774 3547 0
-442 -3548 0
892 -3548 0
442 -892 3548 0
208 -3549 0
-74 -3549 0
-208 74 3549 0
135 -3550 0
185 -3550 0
-135 -185 3550 0
814 -3551 0
-802 -3551 0
-814 802 3551 0
104 -3552 0
571 -3552 0
-104 -571 3552 0
911 -3553 0
811 -3553 0
-911 -811 3553 0
-920 -3554 0
355 -3554 0
920 -355 3554 0
943 -3555 0
689 -3555 0
-943 -689 3555 0
636 -3556 0
385 -3556 0
-636 -385 3556 0
295 -3557 0
-870 -3557 0
-295 870 3557 0
859 -3558 0
-223 -3558 0
-859 223 3558 0
642 -3559 0
601 -3559 0
-642 -601 3559 0
616 -3560 0
141 -3560 0
-616 -141 3560 0
552 -3561 0
-931 -3561 0
-552 931 3561 0
-905 -3562 0
269 -3562 0
905 -269 3562 0
-608 -3563 0
366 -3563 0
608 -366 3563 0
20 -3564 0
931 -3564 0
-20 -931 3564 0
-826 -3565 0
89 -3565 0
826 -89 3565 0
334 -3566 0
-796 -3566 0
-334 796 3566 0
168 -3567 0
-591 -3567 0
-168 591 3567 0
-697 -3568 0
866 -3568 0
697 -866 3568 0
-970 -3569 0
1 -3569 0
970 -1 3569 0
564 -3570 0
666 -3570 0
-564 -666 3570 0
-82 -3571 0
116 -3571 0
82 -116 3571 0
-493 -3572 0
451 -3572 0
493 -451 3572 0
47 -3573 0
-707 -3573 0
-47 707 3573 0
-417 -3574 0
905 -3574 0
417 -905 3574 0
554 -3575 0
-118 -3575 0
-554 118 3575 0
-276 -3576 0
891 -3576 0
276 -891 3576 0
192 -3577 0
-796 -3577 0
-192 796 3577 0
976 -3578 0
147 -3578 0
-976 -147 3578 0
175 -3579 0
875 -3579 0
-175 -875 3579 0
966 -3580 0
365 -3580 0
-966 -365 3580 0
-176 -3581 0
610 -3581 0
176 -610 3581 0
-721 -3582 0
338 -3582 0
721 -338 3582 0
60 -3583 0
-527 -3583 0
-60 527 3583 0
-858 -3584 0
990 -3584 0
858 -990 3584 0
86 -3585 0
458 -3585 0
-86 -458 3585 0
-824 -3586 0
231 -3586 0
824 -231 3586 0
-770 -3587 0
852 -3587 0
770 -852 3587 0
126 -3588 0
-399 -3588 0
-126 399 3588 0
216 -3589 0
-579 -3589 0
-216 579 3589 0
-415 -3590 0
905 -3590 0
415 -905 3590 0
788 -3591 0
281 -3591 0
-788 -281 3591 0
108 -3592 0
-790 -3592 0
-108 790 3592 0
72 -3593 0
548 -3593 0
-72 -548 3593 0
949 -3594 0
769 -3594 0
-949 -769 3594 0
-243 -3595 0
444 -3595 0
243 -444 3595 0
232 -3596 0
283 -3596 0
-232 -283 3596 0
326 -3597 0
-699 -3597 0
-326 699 3597 0
82 -3598 0
-374 -3598 0
-82 374 3598 0
752 -3599 0
29 -3599 0
-752 -29 3599 0
-24 -3600 0
230 -3600 0
24 -230 3600 0
911 -3601 0
725 -3601 0
-911 -725 3601 0
139 -3602 0
811 -3602 0
-139 -811 3602 0
-760 -3603 0
995 -3603 0
760 -995 3603 0
-32 -3604 0
451 -3604 0
32 -451 3604 0
659 -3605 0
-583 -3605 0
-659 583 3605 0
592 -3606 0
-629 -3606 0
-592 629 3606 0
996 -3607 0
-133 -3607 0
-996 133 3607 0
-889 -3608 0
234 -3608 0
889 -234 3608 0
716 -3609 0
850 -3609 0
-716 -850 3609 0
524 -3610 0
-21 -3610 0
-524 21 3610 0
221 -3611 0
754 -3611 0
-221 -754 3611 0
-579 -3612 0
685 -3612 0
579 -685 3612 0
886 -3613 0
-53 -3613 0
-886 53 3613 0
128 -3614 0
811 -3614 0
-128 -811 3614 0
310 -3615 0
84 -3615 0
-310 -84 3615 0
437 -3616 0
-597 -3616 0
-437 597 3616 0
-574 -3617 0
762 -3617 0
574 -762 3617 0
184 -3618 0
-300 -3618 0
-184 300 3618 0
712 -3619 0
-881 -3619 0
-712 881 3619 0
759 -3620 0
-645 -3620 0
-759 645 3620 0
-905 -3621 0
74 -3621 0
905 -74 3621 0
904 -3622 0
510 -3622 0
-904 -510 3622 0
133 -3623 0
-783 -3623 0
-133 783 3623 0
-561 -3624 0
721 -3624 0
561 -721 3624 0
264 -3625 0
-915 -3625 0
-264 915 3625 0
96 -3626 0
962 -3626 0
-96 -962 3626 0
-667 -3627 0
83 -3627 0
667 -83 3627 0
815 -3628 0
613 -3628 0
-815 -613 3628 0
120 -3629 0
487 -3629 0
-120 -487 3629 0
-377 -3630 0
213 -3630 0
377 -213 3630 0
-147 -3631 0
258 -3631 0
147 -258 3631 0
391 -3632 0
-221 -3632 0
-391 221 3632 0
828 -3633 0
530 -3633 0
-828 -530 3633 0
-558 -3634 0
769 -3634 0
558 -769 3634 0
110 -3635 0
716 -3635 0
-110 -716 3635 0
639 -3636 0
218 -3636 0
-639 -218 3636 0
734 -3637 0
321 -3637 0
-734 -321 3637 0
-792 -3638 0
302 -3638 0
792 -302 3638 0
-691 -3639 0
532 -3639 0
691 -532 3639 0
992 -3640 0
-829 -3640 0
-992 829 3640 0
511 -3641 0
-117 -3641 0
-511 117 3641 0
872 -3642 0
-993 -3642 0
-872 993 3642 0
93 -3643 0
874 -3643 0
-93 -874 3643 0
488 -3644 0
86 -3644 0
-488 -86 3644 0
231 -3645 0
41 -3645 0
-231 -41 3645 0
254 -3646 0
837 -3646 0
-254 -837 3646 0
175 -3647 0
481 -3647 0
-175 -481 3647 0
47 -3648 0
148 -3648 0
-47 -148 3648 0
-612 -3649 0
162 -3649 0
612 -162 3649 0
443 -3650 0
-991 -3650 0
-443 991 3650 0
-794 -3651 0
675 -3651 0
794 -675 3651 0
-528 -3652 0
206 -3652 0
528 -206 3652 0
-848 -3653 0
140 -3653 0
848 -140 3653 0
483 -3654 0
-887 -3654 0
-483 887 3654 0
238 -3655 0
-483 -3655 0
-238 483 3655 0
135 -3656 0
-746 -3656 0
-135 746 3656 0
406 -3657 0
788 -3657 0
-406 -788 3657 0
808 -3658 0
-419 -3658 0
-808 419 3658 0
476 -3659 0
-597 -3659 0
-476 597 3659 0
188 -3660 0
732 -3660 0
-188 -732 3660 0
832 -3661 0
316 -3661 0
-832 -316 3661 0
539 -3662 0
609 -3662 0
-539 -609 3662 0
-802 -3663 0
724 -3663 0
802 -724 3663 0
-672 -3664 0
824 -3664 0
672 -824 3664 0
696 -3665 0
-29 -3665 0
-696 29 3665 0
63 -3666 0
-58 -3666 0
-63 58 3666 0
397 -3667 0
388 -3667 0
-397 -388 3667 0
-600 -3668 0
14 -3668 0
600 -14 3668 0
958 -3669 0
-957 -3669 0
-958 957 3669 0
72 -3670 0
763 -3670 0
-72 -763 3670 0
443 -3671 0
346 -3671 0
-443 -346 3671 0
388 -3672 0
578 -3672 0
-388 -578 3672 0
-27 -3673 0
658 -3673 0
27 -658 3673 0
-40 -3674 0
100 -3674 0
40 -100 3674 0
-545 -3675 0
276 -3675 0
545 -276 3675 0
-968 -3676 0
60 -3676 0
968 -60 3676 0
440 -3677 0
82 -3677 0
-440 -82 3677 0
960 -3678 0
690 -3678 0
-960 -690 3678 0
-644 -3679 0
92 -3679 0
644 -92 3679 0
-777 -3680 0
701 -3680 0
777 -701 3680 0
82 -3681 0
-767 -3681 0
-82 767 3681 0
87 -3682 0
-399 -3682 0
-87 399 3682 0
687 -3683 0
301 -3683 0
-687 -301 3683 0
304 -3684 0
876 -3684 0
-304 -876 3684 0
461 -3685 0
-966 -3685 0
-461 966 3685 0
965 -3686 0
869 -3686 0
-965 -869 3686 0
800 -3687 0
-321 -3687 0
-800 321 3687 0
88 -3688 0
-561 -3688 0
-88 561 3688 0
960 -3689 0
-955 -3689 0
-960 955 3689 0
544 -3690 0
324 -3690 0
-544 -324 3690 0
121 -3691 0
-959 -3691 0
-121 959 3691 0
-646 -3692 0
18 -3692 0
646 -18 3692 0
630 -3693 0
117 -3693 0
-630 -117 3693 0
-842 -3694 0
261 -3694 0
842 -261 3694 0
998 -3695 0
589 -3695 0
-998 -589 3695 0
494 -3696 0
939 -3696 0
-494 -939 3696 0
-202 -3697 0
18 -3697 0
202 -18 3697 0
863 -3698 0
-537 -3698 0
-863 537 3698 0
366 -3699 0
-965 -3699 0
-366 965 3699 0
39 -3700 0
-606 -3700 0
-39 606 3700 0
-106 -3701 0
291 -3701 0
106 -291 3701 0
-520 -3702 0
465 -3702 0
520 -465 3702 0
573 -3703 0
-92 -3703 0
-573 92 3703 0
903 -3704 0
-210 -3704 0
-903 210 3704 0
-417 -3705 0
961 -3705 0
417 -961 3705 0
-165 -3706 0
337 -3706 0
165 -337 3706 0
896 -3707 0
-336 -3707 0
-896 336 3707 0
400 -3708 0
836 -3708 0
-400 -836 3708 0
814 -3709 0
-388 -3709 0
-814 388 3709 0
-158 -3710 0
553 -3710 0
158 -553 3710 0
144 -3711 0
555 -3711 0
-144 -555 3711 0
364 -3712 0
674 -3712 0
-364 -674 3712 0
422 -3713 0
949 -3713 0
-422 -949 3713 0
-145 -3714 0
215 -3714 0
145 -215 3714 0
61 -3715 0
-695 -3715 0
-61 695 3715 0
654 -3716 0
93 -3716 0
-654 -93 3716 0
728 -3717 0
-852 -3717 0
-728 852 3717 0
-650 -3718 0
484 -3718 0
650 -484 3718 0
952 -3719 0
-197 -3719 0
-952 197 3719 0
949 -3720 0
-389 -3720 0
-949 389 3720 0
308 -3721 0
-100 -3721 0
-308 100 3721 0
671 -3722 0
-63 -3722 0
-671 63 3722 0
-129 -3723 0
262 -3723 0
129 -262 3723 0
-522 -3724 0
636 -3724 0
522 -636 3724 0
212 -3725 0
-557 -3725 0
-212 557 3725 0
-859 -3726 0
700 -3726 0
859 -700 3726 0
580 -3727 0
-719 -3727 0
-580 719 3727 0
367 -3728 0
-455 -3728 0
-367 455 3728 0
240 -3729 0
-127 -3729 0
-240 127 3729 0
479 -3730 0
326 -3730 0
-479 -326 3730 0
656 -3731 0
-747 -3731 0
-656 747 3731 0
344 -3732 0
233 -3732 0
-344 -233 3732 0
315 -3733 0
17 -3733 0
-315 -17 3733 0
-130 -3734 0
4 -3734 0
130 -4 3734 0
448 -3735 0
89 -3735 0
-448 -89 3735 0
-757 -3736 0
827 -3736 0
757 -827 3736 0
916 -3737 0
-981 -3737 0
-916 981 3737 0
259 -3738 0
-486 -3738 0
-259 486 3738 0
792 -3739 0
-453 -3739 0
-792 453 3739 0
-145 -3740 0
818 -3740 0
145 -818 3740 0
-112 -3741 0
58 -3741 0
112 -58 3741 0
-409 -3742 0
323 -3742 0
409 -323 3742 0
826 -3743 0
41 -3743 0
-826 -41 3743 0
864 -3744 0
44 -3744 0
-864 -44 3744 0
241 -3745 0
-607 -3745 0
-241 607 3745 0
410 -3746 0
-767 -3746 0
-410 767 3746 0
381 -3747 0
836 -3747 0
-381 -836 3747 0
560 -3748 0
314 -3748 0
-560 -314 3748 0
128 -3749 0
-861 -3749 0
-128 861 3749 0
-40 -3750 0
542 -3750 0
40 -542 3750 0
134 -3751 0
932 -3751 0
-134 -932 3751 0
892 -3752 0
371 -3752 0
-892 -371 3752 0
-936 -3753 0
548 -3753 0
936 -548 3753 0
629 -3754 0
-863 -3754 0
-629 863 3754 0
-776 -3755 0
275 -3755 0
776 -275 3755 0
351 -3756 0
-298 -3756 0
-351 298 3756 0
631 -3757 0
-300 -3757 0
-631 300 3757 0
-861 -3758 0
417 -3758 0
861 -417 3758 0
965 -3759 0
-116 -3759 0
-965 116 3759 0
439 -3760 0
-213 -3760 0
-439 213 3760 0
397 -3761 0
-85 -3761 0
-397 85 3761 0
622 -3762 0
266 -3762 0
-622 -266 3762 0
263 -3763 0
130 -3763 0
-263 -130 3763 0
232 -3764 0
101 -3764 0
-232 -101 3764 0
31 -3765 0
715 -3765 0
-31 -715 3765 0
671 -3766 0
435 -3766 0
-671 -435 3766 0
783 -3767 0
-903 -3767 0
-783 903 3767 0
364 -3768 0
610 -3768 0
-364 -610 3768 0
222 -3769 0
-814 -3769 0
-222 814 3769 0
-801 -3770 0
375 -3770 0
801 -375 3770 0
-379 -3771 0
756 -3771 0
379 -756 3771 0
584 -3772 0
-387 -3772 0
-584 387 3772 0
-232 -3773 0
444 -3773 0
232 -444 3773 0
223 -3774 0
-847 -3774 0
-223 847 3774 0
-986 -3775 0
892 -3775 0
986 -892 3775 0
-809 -3776 0
391 -3776 0
809 -391 3776 0
237 -3777 0
298 -3777 0
-237 -298 3777 0
-762 -3778 0
661 -3778 0
762 -661 3778 0
-680 -3779 0
946 -3779 0
680 -946 3779 0
391 -3780 0
-659 -3780 0
-391 659 3780 0
790 -3781 0
427 -3781 0
-790 -427 3781 0
-388 -3782 0
545 -3782 0
388 -545 3782 0
-284 -3783 0
283 -3783 0
284 -283 3783 0
655 -3784 0
-317 -3784 0
-655 317 3784 0
-185 -3785 0
879 -3785 0
185 -879 3785 0
739 -3786 0
729 -3786 0
-739 -729 3786 0
840 -3787 0
-500 -3787 0
-840 500 3787 0
804 -3788 0
-38 -3788 0
-804 38 3788 0
552 -3789 0
-949 -3789 0
-552 949 3789 0
676 -3790 0
-373 -3790 0
-676 373 3790 0
-848 -3791 0
984 -3791 0
848 -984 3791 0
428 -3792 0
28 -3792 0
-428 -28 3792 0
688 -3793 0
-978 -3793 0
-688 978 3793 0
670 -3794 0
454 -3794 0
-670 -454 3794 0
-320 -3795 0
185 -3795 0
320 -185 3795 0
898 -3796 0
26 -3796 0
-898 -26 3796 0
-81 -3797 0
314 -3797 0
81 -314 3797 0
485 -3798 0
-109 -3798 0
-485 109 3798 0
351 -3799 0
849 -3799 0
-351 -849 3799 0
261 -3800 0
533 -3800 0
-261 -533 3800 0
581 -3801 0
147 -3801 0
-581 -147 3801 0
624 -3802 0
-67 -3802 0
-624 67 3802 0
901 -3803 0
81 -3803 0
-901 -81 3803 0
834 -3804 0
-198 -3804 0
-834 198 3804 0
-896 -3805 0
559 -3805 0
896 -559 3805 0
-818 -3806 0
252 -3806 0
818 -252 3806 0
891 -3807 0
-702 -3807 0
-891 702 3807 0
405 -3808 0
834 -3808 0
-405 -834 3808 0
158 -3809 0
-877 -3809 0
-158 877 3809 0
266 -3810 0
-823 -3810 0
-266 823 3810 0
627 -3811 0
346 -3811 0
-627 -346 3811 0
659 -3812 0
-935 -3812 0
-659 935 3812 0
185 -3813 0
713 -3813 0
-185 -713 3813 0
676 -3814 0
185 -3814 0
-676 -185 3814 0
387 -3815 0
-703 -3815 0
-387 703 3815 0
880 -3816 0
-251 -3816 0
-880 251 3816 0
446 -3817 0
-205 -3817 0
-446 205 3817 0
503 -3818 0
-607 -3818 0
-503 607 3818 0
799 -3819 0
-262 -3819 0
-799 262 3819 0
-489 -3820 0
140 -3820 0
489 -140 3820 0
46 -3821 0
705 -3821 0
-46 -705 3821 0
-153 -3822 0
419 -3822 0
153 -419 3822 0
-498 -3823 0
571 -3823 0
498 -571 3823 0
142 -3824 0
90 -3824 0
-142 -90 3824 0
447 -3825 0
687 -3825 0
-447 -687 3825 0
-643 -3826 0
817 -3826 0
643 -817 3826 0
212 -3827 0
298 -3827 0
-212 -298 3827 0
-561 -3828 0
820 -3828 0
561 -820 3828 0
477 -3829 0
-390 -3829 0
-477 390 3829 0
944 -3830 0
-494 -3830 0
-944 494 3830 0
-360 -3831 0
7 -3831 0
360 -7 3831 0
296 -3832 0
-502 -3832 0
-296 502 3832 0
-56 -3833 0
185 -3833 0
56 -185 3833 0
-570 -3834 0
413 -3834 0
570 -413 3834 0
540 -3835 0
796 -3835 0
-540 -796 3835 0
581 -3836 0
858 -3836 0
-581 -858 3836 0
429 -3837 0
-871 -3837 0
-429 871 3837 0
524 -3838 0
-789 -3838 0
-524 789 3838 0
56 -3839 0
-226 -3839 0
-56 226 3839 0
120 -3840 0
300 -3840 0
-120 -300 3840 0
391 -3841 0
466 -3841 0
-391 -466 3841 0
-708 -3842 0
508 -3842 0
708 -508 3842 0
222 -3843 0
-780 -3843 0
-222 780 3843 0
285 -3844 0
-718 -3844 0
-285 718 3844 0
429 -3845 0
-21 -3845 0
-429 21 3845 0
-602 -3846 0
981 -3846 0
602 -981 3846 0
823 -3847 0
724 -3847 0
-823 -724 3847 0
79 -3848 0
-733 -3848 0
-79 733 3848 0
10 -3849 0
-975 -3849 0
-10 975 3849 0
239 -3850 0
108 -3850 0
-239 -108 3850 0
125 -3851 0
57 -3851 0
-125 -57 3851 0
-580 -3852 0
204 -3852 0
580 -204 3852 0
188 -3853 0
34 -3853 0
-188 -34 3853 0
-500 -3854 0
41 -3854 0
500 -41 3854 0
517 -3855 0
490 -3855 0
-517 -490 3855 0
-594 -3856 0
340 -3856 0
594 -340 3856 0
231 -3857 0
-179 -3857 0
-231 179 3857 0
-305 -3858 0
618 -3858 0
305 -618 3858 0
-624 -3859 0
46 -3859 0
624 -46 3859 0
-953 -3860 0
637 -3860 0
953 -637 3860 0
480 -3861 0
-803 -3861 0
-480 803 3861 0
-697 -3862 0
489 -3862 0
697 -489 3862 0
949 -3863 0
713 -3863 0
-949 -713 3863 0
480 -3864 0
144 -3864 0
-480 -144 3864 0
992 -3865 0
38 -3865 0
-992 -38 3865 0
-36 -3866 0
651 -3866 0
36 -651 3866 0
238 -3867 0
123 -3867 0
-238 -123 3867 0
983 -3868 0
-271 -3868 0
-983 271 3868 0
-810 -3869 0
91 -3869 0
810 -91 3869 0
352 -3870 0
952 -3870 0
-352 -952 3870 0
-568 -3871 0
767 -3871 0
568 -767 3871 0
823 -3872 0
830 -3872 0
-823 -830 3872 0
-537 -3873 0
985 -3873 0
537 -985 3873 0
-421 -3874 0
83 -3874 0
421 -83 3874 0
232 -3875 0
-341 -3875 0
-232 341 3875 0
535 -3876 0
-91 -3876 0
-535 91 3876 0
-843 -3877 0
371 -3877 0
843 -371 3877 0
821 -3878 0
498 -3878 0
-821 -498 3878 0
591 -3879 0
857 -3879 0
-591 -857 3879 0
229 -3880 0
506 -3880 0
-229 -506 3880 0
214 -3881 0
161 -3881 0
-214 -161 3881 0
666 -3882 0
-431 -3882 0
-666 431 3882 0
431 -3883 0
883 -3883 0
-431 -883 3883 0
370 -3884 0
-583 -3884 0
-370 583 3884 0
102 -3885 0
-807 -3885 0
-102 807 3885 0
343 -3886 0
561 -3886 0
-343 -561 3886 0
604 -3887 0
-950 -3887 0
-604 950 3887 0
-969 -3888 0
518 -3888 0
969 -518 3888 0
708 -3889 0
139 -3889 0
-708 -139 3889 0
485 -3890 0
-158 -3890 0
-485 158 3890 0
30 -3891 0
-461 -3891 0
-30 461 3891 0
502 -3892 0
322 -3892 0
-502 -322 3892 0
887 -3893 0
561 -3893 0
-887 -561 3893 0
-197 -3894 0
681 -3894 0
197 -681 3894 0
-344 -3895 0
999 -3895 0
344 -999 3895 0
944 -3896 0
-14 -3896 0
-944 14 3896 0
48 -3897 0
-771 -3897 0
-48 771 3897 0
-235 -3898 0
82 -3898 0
235 -82 3898 0
550 -3899 0
637 -3899 0
-550 -637 3899 0
211 -3900 0
-478 -3900 0
-211 478 3900 0
-452 -3901 0
690 -3901 0
452 -690 3901 0
798 -3902 0
-869 -3902 0
-798 869 3902 0
-96 -3903 0
625 -3903 0
96 -625 3903 0
598 -3904 0
-558 -3904 0
-598 558 3904 0
873 -3905 0
-151 -3905 0
-873 151 3905 0
948 -3906 0
475 -3906 0
-948 -475 3906 0
98 -3907 0
593 -3907 0
-98 -593 3907 0
194 -3908 0
-991 -3908 0
-194 991 3908 0
327 -3909 0
-604 -3909 0
-327 604 3909 0
-832 -3910 0
375 -3910 0
832 -375 3910 0
179 -3911 0
-983 -3911 0
-179 983 3911 0
512 -3912 0
984 -3912 0
-512 -984 3912 0
733 -3913 0
-485 -3913 0
-733 485 3913 0
944 -3914 0
401 -3914 0
-944 -401 3914 0
213 -3915 0
645 -3915 0
-213 -645 3915 0
357 -3916 0
-317 -3916 0
-357 317 3916 0
-822 -3917 0
929 -3917 0
822 -929 3917 0
294 -3918 0
-365 -3918 0
-294 365 3918 0
-51 -3919 0
405 -3919 0
51 -405 3919 0
-707 -3920 0
210 -3920 0
707 -210 3920 0
496 -3921 0
-505 -3921 0
-496 505 3921 0
199 -3922 0
530 -3922 0
-199 -530 3922 0
557 -3923 0
-407 -3923 0
-557 407 3923 0
826 -3924 0
33 -3924 0
-826 -33 3924 0
125 -3925 0
418 -3925 0
-125 -418 3925 0
-770 -3926 0
268 -3926 0
770 -268 3926 0
-956 -3927 0
515 -3927 0
956 -515 3927 0
75 -3928 0
-391 -3928 0
-75 391 3928 0
13 -3929 0
-310 -3929 0
-13 310 3929 0
123 -3930 0
-398 -3930 0
-123 398 3930 0
77 -3931 0
-396 -3931 0
-77 396 3931 0
387 -3932 0
610 -3932 0
-387 -610 3932 0
690 -3933 0
522 -3933 0
-690 -522 3933 0
-904 -3934 0
856 -3934 0
904 -856 3934 0
-332 -3935 0
675 -3935 0
332 -675 3935 0
4 -3936 0
611 -3936 0
-4 -611 3936 0
261 -3937 0
781 -3937 0
-261 -781 3937 0
727 -3938 0
45 -3938 0
-727 -45 3938 0
-747 -3939 0
85 -3939 0
747 -85 3939 0
940 -3940 0
699 -3940 0
-940 -699 3940 0
-196 -3941 0
483 -3941 0
196 -483 3941 0
846 -3942 0
804 -3942 0
-846 -804 3942 0
552 -3943 0
-140 -3943 0
-552 140 3943 0
430 -3944 0
925 -3944 0
-430 -925 3944 0
598 -3945 0
-607 -3945 0
-598 607 3945 0
656 -3946 0
690 -3946 0
-656 -690 3946 0
749 -3947 0
73 -3947 0
-749 -73 3947 0
-803 -3948 0
826 -3948 0
803 -826 3948 0
-813 -3949 0
859 -3949 0
813 -859 3949 0
892 -3950 0
913 -3950 0
-892 -913 3950 0
-901 -3951 0
753 -3951 0
901 -753 3951 0
863 -3952 0
-227 -3952 0
-863 227 3952 0
16 -3953 0
-109 -3953 0
-16 109 3953 0
516 -3954 0
-6 -3954 0
-516 6 3954 0
56 -3955 0
309 -3955 0
-56 -309 3955 0
191 -3956 0
-87 -3956 0
-191 87 3956 0
768 -3957 0
437 -3957 0
-768 -437 3957 0
448 -3958 0
269 -3958 0
-448 -269 3958 0
-945 -3959 0
691 -3959 0
945 -691 3959 0
709 -3960 0
83 -3960 0
-709 -83 3960 0
-453 -3961 0
177 -3961 0
453 -177 3961 0
-104 -3962 0
780 -3962 0
104 -780 3962 0
677 -3963 0
-63 -3963 0
-677 63 3963 0
56 -3964 0
178 -3964 0
-56 -178 3964 0
759 -3965 0
697 -3965 0
-759 -697 3965 0
646 -3966 0
549 -3966 0
-646 -549 3966 0
381 -3967 0
-79 -3967 0
-381 79 3967 0
898 -3968 0
-894 -3968 0
-898 894 3968 0
879 -3969 0
-998 -3969 0
-879 998 3969 0
207 -3970 0
419 -3970 0
-207 -419 3970 0
-725 -3971 0
579 -3971 0
725 -579 3971 0
-708 -3972 0
772 -3972 0
708 -772 3972 0
-593 -3973 0
655 -3973 0
593 -655 3973 0
816 -3974 0
-602 -3974 0
-816 602 3974 0
-356 -3975 0
84 -3975 0
356 -84 3975 0
-331 -3976 0
169 -3976 0
331 -169 3976 0
-359 -3977 0
777 -3977 0
359 -777 3977 0
23 -3978 0
-121 -3978 0
-23 121 3978 0
-697 -3979 0
783 -3979 0
697 -783 3979 0
749 -3980 0
-853 -3980 0
-749 853 3980 0
-291 -3981 0
970 -3981 0
291 -970 3981 0
-812 -3982 0
234 -3982 0
812 -234 3982 0
252 -3983 0
-47 -3983 0
-252 47 3983 0
381 -3984 0
-943 -3984 0
-381 943 3984 0
486 -3985 0
-477 -3985 0
-486 477 3985 0
-31 -3986 0
681 -3986 0
31 -681 3986 0
775 -3987 0
630 -3987 0
-775 -630 3987 0
-784 -3988 0
74 -3988 0
784 -74 3988 0
663 -3989 0
-602 -3989 0
-663 602 3989 0
301 -3990 0
932 -3990 0
-301 -932 3990 0
444 -3991 0
241 -3991 0
-444 -241 3991 0
723 -3992 0
554 -3992 0
-723 -554 3992 0
517 -3993 0
-726 -3993 0
-517 726 3993 0
265 -3994 0
569 -3994 0
-265 -569 3994 0
-579 -3995 0
332 -3995 0
579 -332 3995 0
566 -3996 0
805 -3996 0
-566 -805 3996 0
877 -3997 0
-871 -3997 0
-877 871 3997 0
368 -3998 0
678 -3998 0
-368 -678 3998 0
-252 -3999 0
746 -3999 0
252 -746 3999 0
429 -4000 0
-263 -4000 0
-429 263 4000 0
-713 -4001 0
394 -4001 0
713 -394 4001 0
-128 -4002 0
177 -4002 0
128 -177 4002 0
855 -4003 0
-961 -4003 0
-855 961 4003 0
792 -4004 0
-1 -4004 0
-792 1 4004 0
175 -4005 0
-715 -4005 0
-175 715 4005 0
-26 -4006 0
878 -4006 0
26 -878 4006 0
-554 -4007 0
500 -4007 0
554 -500 4007 0
-289 -4008 0
996 -4008 0
289 -996 4008 0
-384 -4009 0
826 -4009 0
384 -826 4009 0
8 -4010 0
-623 -4010 0
-8 623 4010 0
-584 -4011 0
501 -4011 0
584 -501 4011 0
717 -4012 0
773 -4012 0
-717 -773 4012 0
-490 -4013 0
858 -4013 0
490 -858 4013 0
-505 -4014 0
940 -4014 0
505 -940 4014 0
328 -4015 0
-723 -4015 0
-328 723 4015 0
784 -4016 0
372 -4016 0
-784 -372 4016 0
-11 -4017 0
523 -4017 0
11 -523 4017 0
487 -4018 0
75 -4018 0
-487 -75 4018 0
820 -4019 0
-559 -4019 0
-820 559 4019 0
-258 -4020 0
651 -4020 0
258 -651 4020 0
437 -4021 0
845 -4021 0
-437 -845 4021 0
245 -4022 0
-955 -4022 0
-245 955 4022 0
48 -4023 0
251 -4023 0
-48 -251 4023 0
730 -4024 0
601 -4024 0
-730 -601 4024 0
-737 -4025 0
249 -4025 0
737 -249 4025 0
-808 -4026 0
823 -4026 0
808 -823 4026 0
-572 -4027 0
691 -4027 0
572 -691 4027 0
983 -4028 0
-307 -4028 0
-983 307 4028 0
-136 -4029 0
77 -4029 0
136 -77 4029 0
301 -4030 0
-172 -4030 0
-301 172 4030 0
-798 -4031 0
482 -4031 0
798 -482 4031 0
21 -4032 0
-573 -4032 0
-21 573 4032 0
704 -4033 0
623 -4033 0
-704 -623 4033 0
232 -4034 0
775 -4034 0
-232 -775 4034 0
252 -4035 0
90 -4035 0
-252 -90 4035 0
504 -4036 0
127 -4036 0
-504 -127 4036 0
264 -4037 0
-279 -4037 0
-264 279 4037 0
935 -4038 0
-218 -4038 0
-935 218 4038 0
344 -4039 0
445 -4039 0
-344 -445 4039 0
680 -4040 0
762 -4040 0
-680 -762 4040 0
716 -4041 0
617 -4041 0
-716 -617 4041 0
806 -4042 0
-686 -4042 0
-806 686 4042 0
-674 -4043 0
153 -4043 0
674 -153 4043 0
-632 -4044 0
54 -4044 0
632 -54 4044 0
-421 -4045 0
298 -4045 0
421 -298 4045 0
-10 -4046 0
409 -4046 0
10 -409 4046 0
638 -4047 0
-229 -4047 0
-638 229 4047 0
-394 -4048 0
697 -4048 0
394 -697 4048 0
503 -4049 0
597 -4049 0
-503 -597 4049 0
-396 -4050 0
498 -4050 0
396 -498 4050 0
394 -4051 0
-526 -4051 0
-394 526 4051 0
-780 -4052 0
706 -4052 0
780 -706 4052 0
656 -4053 0
30 -4053 0
-656 -30 4053 0
156 -4054 0
-527 -4054 0
-156 527 4054 0
752 -4055 0
839 -4055 0
-752 -839 4055 0
90 -4056 0
770 -4056 0
-90 -770 4056 0
286 -4057 0
605 -4057 0
-286 -605 4057 0
-793 -4058 0
429 -4058 0
793 -429 4058 0
-48 -4059 0
887 -4059 0
48 -887 4059 0
336 -4060 0
507 -4060 0
-336 -507 4060 0
-241 -4061 0
694 -4061 0
241 -694 4061 0
652 -4062 0
-748 -4062 0
-652 748 4062 0
672 -4063 0
-976 -4063 0
-672 976 4063 0
581 -4064 0
-243 -4064 0
-581 243 4064 0
32 -4065 0
185 -4065 0
-32 -185 4065 0
-460 -4066 0
969 -4066 0
460 -969 4066 0
847 -4067 0
-292 -4067 0
-847 292 4067 0
-496 -4068 0
955 -4068 0
496 -955 4068 0
-825 -4069 0
919 -4069 0
825 -919 4069 0
-286 -4070 0
258 -4070 0
286 -258 4070 0
-552 -4071 0
862 -4071 0
552 -862 4071 0
155 -4072 0
-917 -4072 0
-155 917 4072 0
522 -4073 0
-759 -4073 0
-522 759 4073 0
944 -4074 0
-135 -4074 0
-944 135 4074 0
438 -4075 0
849 -4075 0
-438 -849 4075 0
442 -4076 0
770 -4076 0
-442 -770 4076 0
750 -4077 0
966 -4077 0
-750 -966 4077 0
327 -4078 0
-711 -4078 0
-327 711 4078 0
47 -4079 0
-290 -4079 0
-47 290 4079 0
-840 -4080 0
350 -4080 0
840 -350 4080 0
-105 -4081 0
957 -4081 0
105 -957 4081 0
-104 -4082 0
634 -4082 0
104 -634 4082 0
877 -4083 0
-5 -4083 0
-877 5 4083 0
229 -4084 0
690 -4084 0
-229 -690 4084 0
294 -4085 0
196 -4085 0
-294 -196 4085 0
648 -4086 0
265 -4086 0
-648 -265 4086 0
74 -4087 0
-823 -4087 0
-74 823 4087 0
878 -4088 0
681 -4088 0
-878 -681 4088 0
832 -4089 0
-179 -4089 0
-832 179 4089 0
-464 -4090 0
3 -4090 0
464 -3 4090 0
111 -4091 0
-922 -4091 0
-111 922 4091 0
631 -4092 0
798 -4092 0
-631 -798 4092 0
565 -4093 0
82 -4093 0
-565 -82 4093 0
-944 -4094 0
415 -4094 0
944 -415 4094 0
262 -4095 0
189 -4095 0
-262 -189 4095 0
159 -4096 0
982 -4096 0
-159 -982 4096 0
952 -4097 0
349 -4097 0
-952 -349 4097 0
815 -4098 0
380 -4098 0
-815 -380 4098 0
495 -4099 0
635 -4099 0
-495 -635 4099 0
62 -4100 0
-559 -4100 0
-62 559 4100 0
301 -4101 0
-925 -4101 0
-301 925 4101 0
31 -4102 0
346 -4102 0
-31 -346 4102 0
724 -4103 0
51 -4103 0
-724 -51 4103 0
-733 -4104 0
441 -4104 0
733 -441 4104 0
7 -4105 0
-482 -4105 0
-7 482 4105 0
-843 -4106 0
153 -4106 0
843 -153 4106 0
-330 -4107 0
474 -4107 0
330 -474 4107 0
239 -4108 0
350 -4108 0
-239 -350 4108 0
227 -4109 0
506 -4109 0
-227 -506 4109 0
143 -4110 0
289 -4110 0
-143 -289 4110 0
461 -4111 0
746 -4111 0
-461 -746 4111 0
99 -4112 0
993 -4112 0
-99 -993 4112 0
832 -4113 0
139 -4113 0
-832 -139 4113 0
85 -4114 0
596 -4114 0
-85 -596 4114 0
-88 -4115 0
846 -4115 0
88 -846 4115 0
686 -4116 0
-980 -4116 0
-686 980 4116 0
198 -4117 0
868 -4117 0
-198 -868 4117 0
919 -4118 0
487 -4118 0
-919 -487 4118 0
595 -4119 0
721 -4119 0
-595 -721 4119 0
742 -4120 0
269 -4120 0
-742 -269 4120 0
207 -4121 0
-918 -4121 0
-207 918 4121 0
830 -4122 0
425 -4122 0
-830 -425 4122 0
946 -4123 0
-119 -4123 0
-946 119 4123 0
-297 -4124 0
477 -4124 0
297 -477 4124 0
-584 -4125 0
739 -4125 0
584 -739 4125 0
437 -4126 0
211 -4126 0
-437 -211 4126 0
168 -4127 0
708 -4127 0
-168 -708 4127 0
320 -4128 0
-628 -4128 0
-320 628 4128 0
-671 -4129 0
705 -4129 0
671 -705 4129 0
415 -4130 0
58 -4130 0
-415 -58 4130 0
-493 -4131 0
185 -4131 0
493 -185 4131 0
-385 -4132 0
356 -4132 0
385 -356 4132 0
679 -4133 0
-875 -4133 0
-679 875 4133 0
592 -4134 0
690 -4134 0
-592 -690 4134 0
-241 -4135 0
956 -4135 0
241 -956 4135 0
838 -4136 0
122 -4136 0
-838 -122 4136 0
167 -4137 0
-279 -4137 0
-167 279 4137 0
552 -4138 0
-334 -4138 0
-552 334 4138 0
-91 -4139 0
820 -4139 0
91 -820 4139 0
-265 -4140 0
228 -4140 0
265 -228 4140 0
-594 -4141 0
221 -4141 0
594 -221 4141 0
40 -4142 0
-670 -4142 0
-40 670 4142 0
888 -4143 0
691 -4143 0
-888 -691 4143 0
-546 -4144 0
77 -4144 0
546 -77 4144 0
12 -4145 0
-831 -4145 0
-12 831 4145 0
621 -4146 0
251 -4146 0
-621 -251 4146 0
-842 -4147 0
931 -4147 0
842 -931 4147 0
253 -4148 0
-670 -4148 0
-253 670 4148 0
-872 -4149 0
456 -4149 0
872 -456 4149 0
-954 -4150 0
358 -4150 0
954 -358 4150 0
451 -4151 0
873 -4151 0
-451 -873 4151 0
878 -4152 0
81 -4152 0
-878 -81 4152 0
693 -4153 0
113 -4153 0
-693 -113 4153 0
948 -4154 0
-285 -4154 0
-948 285 4154 0
684 -4155 0
641 -4155 0
-684 -641 4155 0
23 -4156 0
-715 -4156 0
-23 715 4156 0
-183 -4157 0
577 -4157 0
183 -577 4157 0
-962 -4158 0
161 -4158 0
962 -161 4158 0
693 -4159 0
517 -4159 0
-693 -517 4159 0
228 -4160 0
-805 -4160 0
-228 805 4160 0
840 -4161 0
-91 -4161 0
-840 91 4161 0
-898 -4162 0
977 -4162 0
898 -977 4162 0
-591 -4163 0
89 -4163 0
591 -89 4163 0
-905 -4164 0
667 -4164 0
905 -667 4164 0
167 -4165 0
426 -4165 0
-167 -426 4165 0
56 -4166 0
121 -4166 0
-56 -121 4166 0
-610 -4167 0
265 -4167 0
610 -265 4167 0
253 -4168 0
874 -4168 0
-253 -874 4168 0
104 -4169 0
-546 -4169 0
-104 546 4169 0
895 -4170 0
-179 -4170 0
-895 179 4170 0
-460 -4171 0
579 -4171 0
460 -579 4171 0
654 -4172 0
-471 -4172 0
-654 471 4172 0
211 -4173 0
873 -4173 0
-211 -873 4173 0
-601 -4174 0
951 -4174 0
601 -951 4174 0
-178 -4175 0
236 -4175 0
178 -236 4175 0
-112 -4176 0
906 -4176 0
112 -906 4176 0
441 -4177 0
-911 -4177 0
-441 911 4177 0
126 -4178 0
-27 -4178 0
-126 27 4178 0
638 -4179 0
-142 -4179 0
-638 142 4179 0
-161 -4180 0
802 -4180 0
161 -802 4180 0
240 -4181 0
306 -4181 0
-240 -306 4181 0
879 -4182 0
-780 -4182 0
-879 780 4182 0
23 -4183 0
-311 -4183 0
-23 311 4183 0
960 -4184 0
-866 -4184 0
-960 866 4184 0
272 -4185 0
-711 -4185 0
-272 711 4185 0
-9 -4186 0
23 -4186 0
9 -23 4186 0
376 -4187 0
-178 -4187 0
-376 178 4187 0
-878 -4188 0
738 -4188 0
878 -738 4188 0
-976 -4189 0
432 -4189 0
976 -432 4189 0
606 -4190 0
188 -4190 0
-606 -188 4190 0
-755 -4191 0
409 -4191 0
755 -409 4191 0
229 -4192 0
580 -4192 0
-229 -580 4192 0
-120 -4193 0
940 -4193 0
120 -940 4193 0
-547 -4194 0
164 -4194 0
547 -164 4194 0
582 -4195 0
901 -4195 0
-582 -901 4195 0
491 -4196 0
-38 -4196 0
-491 38 4196 0
592 -4197 0
-380 -4197 0
-592 380 4197 0
-922 -4198 0
877 -4198 0
922 -877 4198 0
502 -4199 0
-350 -4199 0
-502 350 4199 0
-472 -4200 0
933 -4200 0
472 -933 4200 0
-482 -4201 0
380 -4201 0
482 -380 4201 0
32 -4202 0
21 -4202 0
-32 -21 4202 0
66 -4203 0
-726 -4203 0
-66 726 4203 0
-235 -4204 0
316 -4204 0
235 -316 4204 0
600 -4205 0
721 -4205 0
-600 -721 4205 0
-405 -4206 0
385 -4206 0
405 -385 4206 0
144 -4207 0
898 -4207 0
-144 -898 4207 0
253 -4208 0
300 -4208 0
-253 -300 4208 0
267 -4209 0
-951 -4209 0
-267 951 4209 0
-240 -4210 0
277 -4210 0
240 -277 4210 0
85 -4211 0
362 -4211 0
-85 -362 4211 0
884 -4212 0
-54 -4212 0
-884 54 4212 0
477 -4213 0
-350 -4213 0
-477 350 4213 0
526 -4214 0
469 -4214 0
-526 -469 4214 0
318 -4215 0
726 -4215 0
-318 -726 4215 0
899 -4216 0
-335 -4216 0
-899 335 4216 0
108 -4217 0
-52 -4217 0
-108 52 4217 0
936 -4218 0
-624 -4218 0
-936 624 4218 0
428 -4219 0
-997 -4219 0
-428 997 4219 0
422 -4220 0
-211 -4220 0
-422 211 4220 0
800 -4221 0
542 -4221 0
-800 -542 4221 0
-593 -4222 0
65 -4222 0
593 -65 4222 0
-620 -4223 0
370 -4223 0
620 -370 4223 0
-71 -4224 0
297 -4224 0
71 -297 4224 0
890 -4225 0
-151 -4225 0
-890 151 4225 0
56 -4226 0
-666 -4226 0
-56 666 4226 0
679 -4227 0
643 -4227 0
-679 -643 4227 0
28 -4228 0
-68 -4228 0
-28 68 4228 0
983 -4229 0
-493 -4229 0
-983 493 4229 0
895 -4230 0
590 -4230 0
-895 -590 4230 0
878 -4231 0
-499 -4231 0
-878 499 4231 0
694 -4232 0
-646 -4232 0
-694 646 4232 0
-339 -4233 0
403 -4233 0
339 -403 4233 0
-233 -4234 0
49 -4234 0
233 -49 4234 0
430 -4235 0
629 -4235 0
-430 -629 4235 0
400 -4236 0
-59 -4236 0
-400 59 4236 0
928 -4237 0
-7 -4237 0
-928 7 4237 0
720 -4238 0
-962 -4238 0
-720 962 4238 0
-138 -4239 0
947 -4239 0
138 -947 4239 0
330 -4240 0
-830 -4240 0
-330 830 4240 0
-758 -4241 0
657 -4241 0
758 -657 4241 0
683 -4242 0
642 -4242 0
-683 -642 4242 0
662 -4243 0
577 -4243 0
-662 -577 4243 0
-25 -4244 0
293 -4244 0
25 -293 4244 0
-178 -4245 0
581 -4245 0
178 -581 4245 0
223 -4246 0
25 -4246 0
-223 -25 4246 0
238 -4247 0
89 -4247 0
-238 -89 4247 0
-36 -4248 0
139 -4248 0
36 -139 4248 0
334 -4249 0
226 -4249 0
-334 -226 4249 0
941 -4250 0
211 -4250 0
-941 -211 4250 0
272 -4251 0
-807 -4251 0
-272 807 4251 0
-414 -4252 0
178 -4252 0
414 -178 4252 0
-428 -4253 0
938 -4253 0
428 -938 4253 0
664 -4254 0
62 -4254 0
-664 -62 4254 0
951 -4255 0
101 -4255 0
-951 -101 4255 0
-220 -4256 0
564 -4256 0
220 -564 4256 0
567 -4257 0
-106 -4257 0
-567 106 4257 0
5 -4258 0
-511 -4258 0
-5 511 4258 0
-339 -4259 0
529 -4259 0
339 -529 4259 0
771 -4260 0
155 -4260 0
-771 -155 4260 0
-514 -4261 0
482 -4261 0
514 -482 4261 0
-923 -4262 0
602 -4262 0
923 -602 4262 0
-43 -4263 0
162 -4263 0
43 -162 4263 0
976 -4264 0
-497 -4264 0
-976 497 4264 0
-83 -4265 0
261 -4265 0
83 -261 4265 0
64 -4266 0
480 -4266 0
-64 -480 4266 0
375 -4267 0
-663 -4267 0
-375 663 4267 0
735 -4268 0
180 -4268 0
-735 -180 4268 0
301 -4269 0
-443 -4269 0
-301 443 4269 0
5 -4270 0
-997 -4270 0
-5 997 4270 0
293 -4271 0
-804 -4271 0
-293 804 4271 0
-160 -4272 0
934 -4272 0
160 -934 4272 0
-120 -4273 0
845 -4273 0
120 -845 4273 0
520 -4274 0
-837 -4274 0
-520 837 4274 0
106 -4275 0
-63 -4275 0
-106 63 4275 0
616 -4276 0
337 -4276 0
-616 -337 4276 0
367 -4277 0
-742 -4277 0
-367 742 4277 0
468 -4278 0
593 -4278 0
-468 -593 4278 0
-40 -4279 0
474 -4279 0
40 -474 4279 0
205 -4280 0
170 -4280 0
-205 -170 4280 0
656 -4281 0
262 -4281 0
-656 -262 4281 0
-929 -4282 0
781 -4282 0
929 -781 4282 0
996 -4283 0
-671 -4283 0
-996 671 4283 0
512 -4284 0
978 -4284 0
-512 -978 4284 0
197 -4285 0
730 -4285 0
-197 -730 4285 0
167 -4286 0
249 -4286 0
-167 -249 4286 0
-234 -4287 0
805 -4287 0
234 -805 4287 0
483 -4288 0
-863 -4288 0
-483 863 4288 0
512 -4289 0
597 -4289 0
-512 -597 4289 0
-689 -4290 0
932 -4290 0
689 -932 4290 0
-468 -4291 0
444 -4291 0
468 -444 4291 0
639 -4292 0
-966 -4292 0
-639 966 4292 0
487 -4293 0
-631 -4293 0
-487 631 4293 0
-281 -4294 0
694 -4294 0
281 -694 4294 0
808 -4295 0
-884 -4295 0
-808 884 4295 0
-18 -4296 0
907 -4296 0
18 -907 4296 0
816 -4297 0
142 -4297 0
-816 -142 4297 0
-202 -4298 0
220 -4298 0
202 -220 4298 0
-390 -4299 0
457 -4299 0
390 -457 4299 0
932 -4300 0
65 -4300 0
-932 -65 4300 0
-924 -4301 0
122 -4301 0
924 -122 4301 0
-748 -4302 0
835 -4302 0
748 -835 4302 0
446 -4303 0
-965 -4303 0
-446 965 4303 0
132 -4304 0
-45 -4304 0
-132 45 4304 0
678 -4305 0
-410 -4305 0
-678 410 4305 0
932 -4306 0
-885 -4306 0
-932 885 4306 0
-764 -4307 0
755 -4307 0
764 -755 4307 0
548 -4308 0
-463 -4308 0
-548 463 4308 0
572 -4309 0
41 -4309 0
-572 -41 4309 0
735 -4310 0
202 -4310 0
-735 -202 4310 0
368 -4311 0
356 -4311 0
-368 -356 4311 0
-661 -4312 0
321 -4312 0
661 -321 4312 0
570 -4313 0
-95 -4313 0
-570 95 4313 0
909 -4314 0
-924 -4314 0
-909 924 4314 0
757 -4315 0
-823 -4315 0
-757 823 4315 0
141 -4316 0
-982 -4316 0
-141 982 4316 0
-578 -4317 0
242 -4317 0
578 -242 4317 0
654 -4318 0
-851 -4318 0
-654 851 4318 0
380 -4319 0
193 -4319 0
-380 -193 4319 0
320 -4320 0
988 -4320 0
-320 -988 4320 0
80 -4321 0
-275 -4321 0
-80 275 4321 0
-296 -4322 0
212 -4322 0
296 -212 4322 0
15 -4323 0
-681 -4323 0
-15 681 4323 0
880 -4324 0
497 -4324 0
-880 -497 4324 0
647 -4325 0
20 -4325 0
-647 -20 4325 0
-553 -4326 0
274 -4326 0
553 -274 4326 0
224 -4327 0
-871 -4327 0
-224 871 4327 0
568 -4328 0
-998 -4328 0
-568 998 4328 0
-545 -4329 0
442 -4329 0
545 -442 4329 0
-333 -4330 0
946 -4330 0
333 -946 4330 0
-808 -4331 0
526 -4331 0
808 -526 4331 0
197 -4332 0
43 -4332 0
-197 -43 4332 0
600 -4333 0
549 -4333 0
-600 -549 4333 0
332 -4334 0
-181 -4334 0
-332 181 4334 0
944 -4335 0
-931 -4335 0
-944 931 4335 0
309 -4336 0
618 -4336 0
-309 -618 4336 0
-611 -4337 0
113 -4337 0
611 -113 4337 0
431 -4338 0
637 -4338 0
-431 -637 4338 0
244 -4339 0
162 -4339 0
-244 -162 4339 0
518 -4340 0
908 -4340 0
-518 -908 4340 0
935 -4341 0
-842 -4341 0
-935 842 4341 0
-483 -4342 0
553 -4342 0
483 -553 4342 0
-347 -4343 0
818 -4343 0
347 -818 4343 0
-99 -4344 0
981 -4344 0
99 -981 4344 0
124 -4345 0
-85 -4345 0
-124 85 4345 0
557 -4346 0
-948 -4346 0
-557 948 4346 0
307 -4347 0
937 -4347 0
-307 -937 4347 0
-537 -4348 0
161 -4348 0
537 -161 4348 0
989 -4349 0
619 -4349 0
-989 -619 4349 0
-424 -4350 0
930 -4350 0
424 -930 4350 0
416 -4351 0
-913 -4351 0
-416 913 4351 0
718 -4352 0
538 -4352 0
-718 -538 4352 0
132 -4353 0
-221 -4353 0
-132 221 4353 0
-548 -4354 0
59 -4354 0
548 -59 4354 0
328 -4355 0
-19 -4355 0
-328 19 4355 0
-27 -4356 0
765 -4356 0
27 -765 4356 0
-801 -4357 0
627 -4357 0
801 -627 4357 0
-956 -4358 0
825 -4358 0
956 -825 4358 0
972 -4359 0
26 -4359 0
-972 -26 4359 0
-330 -4360 0
412 -4360 0
330 -412 4360 0
488 -4361 0
-362 -4361 0
-488 362 4361 0
100 -4362 0
-95 -4362 0
-100 95 4362 0
-904 -4363 0
744 -4363 0
904 -744 4363 0
406 -4364 0
-165 -4364 0
-406 165 4364 0
904 -4365 0
644 -4365 0
-904 -644 4365 0
-611 -4366 0
331 -4366 0
611 -331 4366 0
-728 -4367 0
577 -4367 0
728 -577 4367 0
-944 -4368 0
139 -4368 0
944 -139 4368 0
639 -4369 0
-949 -4369 0
-639 949 4369 0
-304 -4370 0
516 -4370 0
304 -516 4370 0
832 -4371 0
221 -4371 0
-832 -221 4371 0
773 -4372 0
-268 -4372 0
-773 268 4372 0
55 -4373 0
-476 -4373 0
-55 476 4373 0
-882 -4374 0
165 -4374 0
882 -165 4374 0
936 -4375 0
-529 -4375 0
-936 529 4375 0
141 -4376 0
964 -4376 0
-141 -964 4376 0
-424 -4377 0
993 -4377 0
424 -993 4377 0
350 -4378 0
-515 -4378 0
-350 515 4378 0
-323 -4379 0
317 -4379 0
323 -317 4379 0
-425 -4380 0
286 -4380 0
425 -286 4380 0
331 -4381 0
-974 -4381 0
-331 974 4381 0
826 -4382 0
-743 -4382 0
-826 743 4382 0
-793 -4383 0
317 -4383 0
793 -317 4383 0
309 -4384 0
-951 -4384 0
-309 951 4384 0
815 -4385 0
814 -4385 0
-815 -814 4385 0
64 -4386 0
376 -4386 0
-64 -376 4386 0
-212 -4387 0
180 -4387 0
212 -180 4387 0
-152 -4388 0
573 -4388 0
152 -573 4388 0
399 -4389 0
62 -4389 0
-399 -62 4389 0
206 -4390 0
-868 -4390 0
-206 868 4390 0
176 -4391 0
-316 -4391 0
-176 316 4391 0
116 -4392 0
-805 -4392 0
-116 805 4392 0
871 -4393 0
-245 -4393 0
-871 245 4393 0
-642 -4394 0
629 -4394 0
642 -629 4394 0
803 -4395 0
713 -4395 0
-803 -713 4395 0
955 -4396 0
-911 -4396 0
-955 911 4396 0
627 -4397 0
-950 -4397 0
-627 950 4397 0
165 -4398 0
881 -4398 0
-165 -881 4398 0
932 -4399 0
-340 -4399 0
-932 340 4399 0
891 -4400 0
273 -4400 0
-891 -273 4400 0
103 -4401 0
-548 -4401 0
-103 548 4401 0
-250 -4402 0
227 -4402 0
250 -227 4402 0
-754 -4403 0
364 -4403 0
754 -364 4403 0
-664 -4404 0
156 -4404 0
664 -156 4404 0
259 -4405 0
-662 -4405 0
-259 662 4405 0
-986 -4406 0
558 -4406 0
986 -558 4406 0
477 -4407 0
681 -4407 0
-477 -681 4407 0
333 -4408 0
-126 -4408 0
-333 126 4408 0
-861 -4409 0
315 -4409 0
861 -315 4409 0
430 -4410 0
-518 -4410 0
-430 518 4410 0
136 -4411 0
-840 -4411 0
-136 840 4411 0
291 -4412 0
794 -4412 0
-291 -794 4412 0
708 -4413 0
-316 -4413 0
-708 316 4413 0
-297 -4414 0
553 -4414 0
297 -553 4414 0
229 -4415 0
572 -4415 0
-229 -572 4415 0
-464 -4416 0
746 -4416 0
464 -746 4416 0
319 -4417 0
332 -4417 0
-319 -332 4417 0
-121 -4418 0
129 -4418 0
121 -129 4418 0
828 -4419 0
570 -4419 0
-828 -570 4419 0
606 -4420 0
-405 -4420 0
-606 405 4420 0
943 -4421 0
-452 -4421 0
-943 452 4421 0
712 -4422 0
-547 -4422 0
-712 547 4422 0
-164 -4423 0
387 -4423 0
164 -387 4423 0
116 -4424 0
819 -4424 0
-116 -819 4424 0
408 -4425 0
-19 -4425 0
-408 19 4425 0
824 -4426 0
502 -4426 0
-824 -502 4426 0
286 -4427 0
468 -4427 0
-286 -468 4427 0
-208 -4428 0
597 -4428 0
208 -597 4428 0
584 -4429 0
-684 -4429 0
-584 684 4429 0
834 -4430 0
-279 -4430 0
-834 279 4430 0
-810 -4431 0
385 -4431 0
810 -385 4431 0
403 -4432 0
474 -4432 0
-403 -474 4432 0
-56 -4433 0
145 -4433 0
56 -145 4433 0
-268 -4434 0
233 -4434 0
268 -233 4434 0
212 -4435 0
-622 -4435 0
-212 622 4435 0
270 -4436 0
668 -4436 0
-270 -668 4436 0
133 -4437 0
369 -4437 0
-133 -369 4437 0
318 -4438 0
146 -4438 0
-318 -146 4438 0
-165 -4439 0
937 -4439 0
165 -937 4439 0
-881 -4440 0
561 -4440 0
881 -561 4440 0
194 -4441 0
57 -4441 0
-194 -57 4441 0
-396 -4442 0
489 -4442 0
396 -489 4442 0
638 -4443 0
-226 -4443 0
-638 226 4443 0
-100 -4444 0
3 -4444 0
100 -3 4444 0
-253 -4445 0
779 -4445 0
253 -779 4445 0
-347 -4446 0
761 -4446 0
347 -761 4446 0
45 -4447 0
369 -4447 0
-45 -369 4447 0
-364 -4448 0
809 -4448 0
364 -809 4448 0
408 -4449 0
-806 -4449 0
-408 806 4449 0
229 -4450 0
476 -4450 0
-229 -476 4450 0
807 -4451 0
257 -4451 0
-807 -257 4451 0
-322 -4452 0
826 -4452 0
322 -826 4452 0
83 -4453 0
946 -4453 0
-83 -946 4453 0
-618 -4454 0
285 -4454 0
618 -285 4454 0
-507 -4455 0
820 -4455 0
507 -820 4455 0
525 -4456 0
596 -4456 0
-525 -596 4456 0
-387 -4457 0
250 -4457 0
387 -250 4457 0
987 -4458 0
-246 -4458 0
-987 246 4458 0
-731 -4459 0
980 -4459 0
731 -980 4459 0
653 -4460 0
370 -4460 0
-653 -370 4460 0
418 -4461 0
513 -4461 0
-418 -513 4461 0
852 -4462 0
-125 -4462 0
-852 125 4462 0
809 -4463 0
-528 -4464 0
354 -4464 0
528 -354 4464 0
899 -4465 0
115 -4465 0
-899 -115 4465 0
640 -4466 0
-253 -4466 0
-640 253 4466 0
271 -4467 0
-866 -4467 0
-271 866 4467 0
-223 -4468 0
657 -4468 0
223 -657 4468 0
655 -4469 0
-147 -4469 0
-655 147 4469 0
223 -4470 0
-889 -4470 0
-223 889 4470 0
89 -4471 0
-103 -4471 0
-89 103 4471 0
221 -4472 0
649 -4472 0
-221 -649 4472 0
359 -4473 0
603 -4473 0
-359 -603 4473 0
-841 -4474 0
835 -4474 0
841 -835 4474 0
-698 -4475 0
715 -4475 0
698 -715 4475 0
-509 -4476 0
409 -4476 0
509 -409 4476 0
844 -4477 0
-638 -4477 0
-844 638 4477 0
715 -4478 0
-46 -4478 0
-715 46 4478 0
572 -4479 0
577 -4479 0
-572 -577 4479 0
734 -4480 0
354 -4480 0
-734 -354 4480 0
776 -4481 0
616 -4481 0
-776 -616 4481 0
213 -4482 0
-103 -4482 0
-213 103 4482 0
950 -4483 0
-703 -4483 0
-950 703 4483 0
775 -4484 0
-571 -4484 0
-775 571 4484 0
-186 -4485 0
356 -4485 0
186 -356 4485 0
299 -4486 0
161 -4486 0
-299 -161 4486 0
-713 -4487 0
814 -4487 0
713 -814 4487 0
61 -4488 0
755 -4488 0
-61 -755 4488 0
-585 -4489 0
767 -4489 0
585 -767 4489 0
-816 -4490 0
543 -4490 0
816 -543 4490 0
940 -4491 0
123 -4491 0
-940 -123 4491 0
-361 -4492 0
870 -4492 0
361 -870 4492 0
-352 -4493 0
148 -4493 0
352 -148 4493 0
96 -4494 0
812 -4494 0
-96 -812 4494 0
-824 -4495 0
986 -4495 0
824 -986 4495 0
183 -4496 0
-402 -4496 0
-183 402 4496 0
-892 -4497 0
283 -4497 0
892 -283 4497 0
-475 -4498 0
90 -4498 0
475 -90 4498 0
-550 -4499 0
609 -4499 0
550 -609 4499 0
464 -4500 0
-141 -4500 0
-464 141 4500 0
940 -4501 0
-374 -4501 0
-940 374 4501 0
963 -4502 0
313 -4502 0
-963 -313 4502 0
-547 -4503 0
964 -4503 0
547 -964 4503 0
410 -4504 0
474 -4504 0
-410 -474 4504 0
942 -4505 0
-372 -4505 0
-942 372 4505 0
871 -4506 0
-172 -4506 0
-871 172 4506 0
-362 -4507 0
499 -4507 0
362 -499 4507 0
398 -4508 0
685 -4508 0
-398 -685 4508 0
462 -4509 0
493 -4509 0
-462 -493 4509 0
-659 -4510 0
425 -4510 0
659 -425 4510 0
829 -4511 0
-132 -4511 0
-829 132 4511 0
671 -4512 0
362 -4512 0
-671 -362 4512 0
582 -4513 0
270 -4513 0
-582 -270 4513 0
878 -4514 0
-107 -4514 0
-878 107 4514 0
899 -4515 0
754 -4515 0
-899 -754 4515 0
-912 -4516 0
661 -4516 0
912 -661 4516 0
184 -4517 0
494 -4517 0
-184 -494 4517 0
915 -4518 0
-143 -4518 0
-915 143 4518 0
227 -4519 0
-429 -4519 0
-227 429 4519 0
-888 -4520 0
670 -4520 0
888 -670 4520 0
-921 -4521 0
169 -4521 0
921 -169 4521 0
755 -4522 0
994 -4522 0
-755 -994 4522 0
653 -4523 0
-524 -4523 0
-653 524 4523 0
-90 -4524 0
474 -4524 0
90 -474 4524 0
680 -4525 0
-922 -4525 0
-680 922 4525 0
-857 -4526 0
612 -4526 0
857 -612 4526 0
566 -4527 0
-621 -4527 0
-566 621 4527 0
634 -4528 0
-151 -4528 0
-634 151 4528 0
392 -4529 0
-59 -4529 0
-392 59 4529 0
-760 -4530 0
292 -4530 0
760 -292 4530 0
327 -4531 0
861 -4531 0
-327 -861 4531 0
328 -4532 0
-413 -4532 0
-328 413 4532 0
189 -4533 0
913 -4533 0
-189 -913 4533 0
518 -4534 0
228 -4534 0
-518 -228 4534 0
742 -4535 0
262 -4535 0
-742 -262 4535 0
36 -4536 0
323 -4536 0
-36 -323 4536 0
880 -4537 0
-96 -4537 0
-880 96 4537 0
813 -4538 0
-30 -4538 0
-813 30 4538 0
-240 -4539 0
900 -4539 0
240 -900 4539 0
-597 -4540 0
579 -4540 0
597 -579 4540 0
736 -4541 0
538 -4541 0
-736 -538 4541 0
210 -4542 0
-999 -4542 0
-210 999 4542 0
168 -4543 0
-579 -4543 0
-168 579 4543 0
482 -4544 0
41 -4544 0
-482 -41 4544 0
934 -4545 0
325 -4545 0
-934 -325 4545 0
119 -4546 0
363 -4546 0
-119 -363 4546 0
967 -4547 0
748 -4547 0
-967 -748 4547 0
888 -4548 0
-734 -4548 0
-888 734 4548 0
142 -4549 0
844 -4549 0
-142 -844 4549 0
14 -4550 0
-741 -4550 0
-14 741 4550 0
213 -4551 0
338 -4551 0
-213 -338 4551 0
688 -4552 0
-44 -4552 0
-688 44 4552 0
220 -4553 0
-350 -4553 0
-220 350 4553 0
926 -4554 0
3 -4554 0
-926 -3 4554 0
872 -4555 0
393 -4555 0
-872 -393 4555 0
-910 -4556 0
362 -4556 0
910 -362 4556 0
243 -4557 0
-711 -4557 0
-243 711 4557 0
787 -4558 0
9 -4558 0
-787 -9 4558 0
-734 -4559 0
169 -4559 0
734 -169 4559 0
359 -4560 0
-142 -4560 0
-359 142 4560 0
-881 -4561 0
605 -4561 0
881 -605 4561 0
428 -4562 0
658 -4562 0
-428 -658 4562 0
-234 -4563 0
945 -4563 0
234 -945 4563 0
165 -4564 0
-151 -4564 0
-165 151 4564 0
-986 -4565 0
644 -4565 0
986 -644 4565 0
421 -4566 0
883 -4566 0
-421 -883 4566 0
488 -4567 0
30 -4567 0
-488 -30 4567 0
886 -4568 0
-922 -4568 0
-886 922 4568 0
52 -4569 0
-61 -4569 0
-52 61 4569 0
221 -4570 0
-918 -4570 0
-221 918 4570 0
512 -4571 0
414 -4571 0
-512 -414 4571 0
717 -4572 0
-557 -4572 0
-717 557 4572 0
525 -4573 0
820 -4573 0
-525 -820 4573 0
846 -4574 0
338 -4574 0
-846 -338 4574 0
426 -4575 0
-167 -4575 0
-426 167 4575 0
960 -4576 0
-391 -4576 0
-960 391 4576 0
102 -4577 0
818 -4577 0
-102 -818 4577 0
-25 -4578 0
723 -4578 0
25 -723 4578 0
684 -4579 0
-638 -4579 0
-684 638 4579 0
341 -4580 0
-717 -4580 0
-341 717 4580 0
-49 -4581 0
954 -4581 0
49 -954 4581 0
513 -4582 0
-415 -4582 0
-513 415 4582 0
478 -4583 0
748 -4583 0
-478 -748 4583 0
687 -4584 0
-458 -4584 0
-687 458 4584 0
-994 -4585 0
707 -4585 0
994 -707 4585 0
173 -4586 0
-733 -4586 0
-173 733 4586 0
-92 -4587 0
498 -4587 0
92 -498 4587 0
312 -4588 0
76 -4588 0
-312 -76 4588 0
609 -4589 0
801 -4589 0
-609 -801 4589 0
382 -4590 0
483 -4590 0
-382 -483 4590 0
167 -4591 0
-879 -4591 0
-167 879 4591 0
584 -4592 0
-635 -4592 0
-584 635 4592 0
230 -4593 0
-166 -4593 0
-230 166 4593 0
236 -4594 0
-540 -4594 0
-236 540 4594 0
727 -4595 0
534 -4595 0
-727 -534 4595 0
-525 -4596 0
18 -4596 0
525 -18 4596 0
-385 -4597 0
961 -4597 0
385 -961 4597 0
32 -4598 0
147 -4598 0
-32 -147 4598 0
984 -4599 0
-575 -4599 0
-984 575 4599 0
633 -4600 0
-487 -4600 0
-633 487 4600 0
-955 -4601 0
700 -4601 0
955 -700 4601 0
596 -4602 0
553 -4602 0
-596 -553 4602 0
-62 -4603 0
233 -4603 0
62 -233 4603 0
97 -4604 0
-175 -4604 0
-97 175 4604 0
263 -4605 0
-322 -4605 0
-263 322 4605 0
-956 -4606 0
610 -4606 0
956 -610 4606 0
661 -4607 0
-828 -4607 0
-661 828 4607 0
-376 -4608 0
102 -4608 0
376 -102 4608 0
-216 -4609 0
322 -4609 0
216 -322 4609 0
407 -4610 0
-117 -4610 0
-407 117 4610 0
-48 -4611 0
931 -4611 0
48 -931 4611 0
-6 -4612 0
593 -4612 0
6 -593 4612 0
-369 -4613 0
542 -4613 0
369 -542 4613 0
558 -4614 0
-421 -4614 0
-558 421 4614 0
495 -4615 0
301 -4615 0
-495 -301 4615 0
82 -4616 0
650 -4616 0
-82 -650 4616 0
66 -4617 0
913 -4617 0
-66 -913 4617 0
814 -4618 0
852 -4618 0
-814 -852 4618 0
7 -4619 0
698 -4619 0
-7 -698 4619 0
375 -4620 0
861 -4620 0
-375 -861 4620 0
-433 -4621 0
141 -4621 0
433 -141 4621 0
16 -4622 0
-1 -4622 0
-16 1 4622 0
581 -4623 0
41 -4623 0
-581 -41 4623 0
204 -4624 0
371 -4624 0
-204 -371 4624 0
892 -4625 0
-725 -4625 0
-892 725 4625 0
623 -4626 0
186 -4626 0
-623 -186 4626 0
502 -4627 0
-607 -4627 0
-502 607 4627 0
806 -4628 0
347 -4628 0
-806 -347 4628 0
-320 -4629 0
71 -4629 0
320 -71 4629 0
135 -4630 0
-307 -4630 0
-135 307 4630 0
-552 -4631 0
332 -4631 0
552 -332 4631 0
911 -4632 0
553 -4632 0
-911 -553 4632 0
336 -4633 0
494 -4633 0
-336 -494 4633 0
703 -4634 0
742 -4634 0
-703 -742 4634 0
104 -4635 0
122 -4635 0
-104 -122 4635 0
-714 -4636 0
161 -4636 0
714 -161 4636 0
838 -4637 0
-692 -4637 0
-838 692 4637 0
646 -4638 0
485 -4638 0
-646 -485 4638 0
310 -4639 0
117 -4639 0
-310 -117 4639 0
158 -4640 0
629 -4640 0
-158 -629 4640 0
728 -4641 0
-707 -4641 0
-728 707 4641 0
904 -4642 0
319 -4642 0
-904 -319 4642 0
564 -4643 0
825 -4643 0
-564 -825 4643 0
245 -4644 0
-923 -4644 0
-245 923 4644 0
546 -4645 0
90 -4645 0
-546 -90 4645 0
470 -4646 0
-582 -4646 0
-470 582 4646 0
180 -4647 0
266 -4647 0
-180 -266 4647 0
-624 -4648 0
235 -4648 0
624 -235 4648 0
574 -4649 0
-995 -4649 0
-574 995 4649 0
176 -4650 0
347 -4650 0
-176 -347 4650 0
84 -4651 0
-981 -4651 0
-84 981 4651 0
920 -4652 0
804 -4652 0
-920 -804 4652 0
261 -4653 0
-636 -4653 0
-261 636 4653 0
142 -4654 0
259 -4654 0
-142 -259 4654 0
448 -4655 0
-493 -4655 0
-448 493 4655 0
-497 -4656 0
51 -4656 0
497 -51 4656 0
733 -4657 0
970 -4657 0
-733 -970 4657 0
96 -4658 0
860 -4658 0
-96 -860 4658 0
-419 -4659 0
770 -4659 0
419 -770 4659 0
-416 -4660 0
466 -4660 0
416 -466 4660 0
472 -4661 0
-12 -4661 0
-472 12 4661 0
-496 -4662 0
159 -4662 0
496 -159 4662 0
-105 -4663 0
370 -4663 0
105 -370 4663 0
832 -4664 0
829 -4664 0
-832 -829 4664 0
56 -4665 0
128 -4665 0
-56 -128 4665 0
936 -4666 0
98 -4666 0
-936 -98 4666 0
752 -4667 0
-455 -4667 0
-752 455 4667 0
-683 -4668 0
12 -4668 0
683 -12 4668 0
647 -4669 0
673 -4669 0
-647 -673 4669 0
-426 -4670 0
309 -4670 0
426 -309 4670 0
767 -4671 0
-650 -4671 0
-767 650 4671 0
360 -4672 0
36 -4672 0
-360 -36 4672 0
864 -4673 0
-149 -4673 0
-864 149 4673 0
894 -4674 0
-716 -4674 0
-894 716 4674 0
414 -4675 0
276 -4675 0
-414 -276 4675 0
672 -4676 0
-827 -4676 0
-672 827 4676 0
-946 -4677 0
762 -4677 0
946 -762 4677 0
766 -4678 0
523 -4678 0
-766 -523 4678 0
-769 -4679 0
643 -4679 0
769 -643 4679 0
493 -4680 0
91 -4680 0
-493 -91 4680 0
776 -4681 0
-929 -4681 0
-776 929 4681 0
-984 -4682 0
315 -4682 0
984 -315 4682 0
656 -4683 0
427 -4683 0
-656 -427 4683 0
856 -4684 0
-5 -4684 0
-856 5 4684 0
645 -4685 0
723 -4685 0
-645 -723 4685 0
-488 -4686 0
796 -4686 0
488 -796 4686 0
-647 -4687 0
905 -4687 0
647 -905 4687 0
269 -4688 0
410 -4688 0
-269 -410 4688 0
-1000 -4689 0
529 -4689 0
1000 -529 4689 0
856 -4690 0
512 -4690 0
-856 -512 4690 0
-419 -4691 0
261 -4691 0
419 -261 4691 0
-143 -4692 0
49 -4692 0
143 -49 4692 0
-52 -4693 0
731 -4693 0
52 -731 4693 0
-968 -4694 0
116 -4694 0
968 -116 4694 0
-580 -4695 0
931 -4695 0
580 -931 4695 0
-838 -4696 0
281 -4696 0
838 -281 4696 0
816 -4697 0
216 -4697 0
-816 -216 4697 0
325 -4698 0
66 -4698 0
-325 -66 4698 0
416 -4699 0
89 -4699 0
-416 -89 4699 0
165 -4700 0
-683 -4700 0
-165 683 4700 0
462 -4701 0
-387 -4701 0
-462 387 4701 0
688 -4702 0
453 -4702 0
-688 -453 4702 0
447 -4703 0
577 -4703 0
-447 -577 4703 0
-777 -4704 0
569 -4704 0
777 -569 4704 0
-58 -4705 0
569 -4705 0
58 -569 4705 0
696 -4706 0
-476 -4706 0
-696 476 4706 0
392 -4707 0
855 -4707 0
-392 -855 4707 0
-433 -4708 0
654 -4708 0
433 -654 4708 0
526 -4709 0
949 -4709 0
-526 -949 4709 0
188 -4710 0
-751 -4710 0
-188 751 4710 0
507 -4711 0
-551 -4711 0
-507 551 4711 0
862 -4712 0
-701 -4712 0
-862 701 4712 0
420 -4713 0
570 -4713 0
-420 -570 4713 0
133 -4714 0
-159 -4714 0
-133 159 4714 0
208 -4715 0
773 -4715 0
-208 -773 4715 0
-811 -4716 0
697 -4716 0
811 -697 4716 0
512 -4717 0
-797 -4717 0
-512 797 4717 0
-138 -4718 0
875 -4718 0
138 -875 4718 0
237 -4719 0
258 -4719 0
-237 -258 4719 0
840 -4720 0
-225 -4720 0
-840 225 4720 0
312 -4721 0
-845 -4721 0
-312 845 4721 0
-11 -4722 0
124 -4722 0
11 -124 4722 0
840 -4723 0
-989 -4723 0
-840 989 4723 0
560 -4724 0
-173 -4724 0
-560 173 4724 0
-353 -4725 0
1 -4725 0
353 -1 4725 0
400 -4726 0
-87 -4726 0
-400 87 4726 0
-250 -4727 0
869 -4727 0
250 -869 4727 0
835 -4728 0
-655 -4728 0
-835 655 4728 0
32 -4729 0
136 -4729 0
-32 -136 4729 0
71 -4730 0
201 -4730 0
-71 -201 4730 0
-381 -4731 0
969 -4731 0
381 -969 4731 0
303 -4732 0
-689 -4732 0
-303 689 4732 0
53 -4733 0
-759 -4733 0
-53 759 4733 0
302 -4734 0
-887 -4734 0
-302 887 4734 0
322 -4735 0
81 -4735 0
-322 -81 4735 0
321 -4736 0
-151 -4736 0
-321 151 4736 0
576 -4737 0
269 -4737 0
-576 -269 4737 0
-176 -4738 0
598 -4738 0
176 -598 4738 0
912 -4739 0
-289 -4739 0
-912 289 4739 0
-101 -4740 0
171 -4740 0
101 -171 4740 0
-880 -4741 0
900 -4741 0
880 -900 4741 0
-1 -4742 0
550 -4742 0
1 -550 4742 0
-713 -4743 0
598 -4743 0
713 -598 4743 0
-516 -4744 0
425 -4744 0
516 -425 4744 0
982 -4745 0
-614 -4745 0
-982 614 4745 0
644 -4746 0
-77 -4746 0
-644 77 4746 0
35 -4747 0
-622 -4747 0
-35 622 4747 0
880 -4748 0
-70 -4748 0
-880 70 4748 0
248 -4749 0
-959 -4749 0
-248 959 4749 0
728 -4750 0
-731 -4750 0
-728 731 4750 0
271 -4751 0
306 -4751 0
-271 -306 4751 0
-571 -4752 0
228 -4752 0
571 -228 4752 0
589 -4753 0
475 -4753 0
-589 -475 4753 0
560 -4754 0
-431 -4754 0
-560 431 4754 0
-602 -4755 0
291 -4755 0
602 -291 4755 0
341 -4756 0
826 -4756 0
-341 -826 4756 0
-329 -4757 0
315 -4757 0
329 -315 4757 0
704 -4758 0
-711 -4758 0
-704 711 4758 0
168 -4759 0
-251 -4759 0
-168 251 4759 0
302 -4760 0
-461 -4760 0
-302 461 4760 0
