p cnf 1000 31198
-248 -564 0
-484 685 0
-834 0
-768 0
-210 0
-920 0
123 -130 0
88 -281 0
-210 390 0
-17 0
397 -441 0
777 -989 0
-424 -733 0
-555 -843 0
-372 101 0
-351 0
-314 0
-877 -380 0
-282 -697 0
-886 0
-366 -108 0
-278 -485 0
-665 0
830 -146 0
-592 0
-618 0
-718 0
-337 0
-278 0
-768 0
-703 107 0
-973 -33 0
-689 0
-996 -1 0
261 -802 0
-206 -942 0
184 -882 0
-175 0
225 -196 0
-720 -469 0
-715 0
-519 -674 0
172 -323 0
-117 0
276 -873 0
-208 0
-62 0
-668 0
-814 -588 0
-894 747 0
-751 292 0
-972 0
-859 0
-868 0
-439 -263 0
657 -19 0
612 -954 0
-22 0
-870 564 0
-709 -242 0
-952 0
-33 0
-363 0
-394 -898 0
-49 0
-678 517 0
-403 -643 0
-47 203 0
673 -186 0
109 -649 0
665 -343 0
258 -825 0
-526 0
-252 125 0
-170 -74 0
-676 733 0
-863 0
889 -565 0
323 -395 0
-784 0
-543 887 0
-717 332 0
-956 -737 0
-292 501 0
-29 -227 0
-749 -313 0
-612 0
-147 910 0
584 -722 0
665 -261 0
-461 -644 0
-447 -414 0
-412 0
138 -554 0
-661 -908 0
-376 -520 0
-730 0
-5 0
-156 0
-902 -130 0
-556 -770 0
-399 0
-834 0
-670 0
-848 -412 0
-614 0
362 -489 0
833 -250 0
-88 593 0
-78 -505 0
504 -301 0
689 -706 0
720 -101 0
-96 664 0
-808 -832 0
-350 70 0
-179 21 0
-517 0
-444 0
-91 0
893 -377 0
-145 0
194 -654 0
795 -179 0
371 -578 0
-524 -459 0
-434 -594 0
-759 -682 0
978 -532 0
555 -133 0
964 -540 0
-329 0
-234 0
-711 140 0
-217 -497 0
-310 -785 0
-892 855 0
840 -687 0
-878 0
737 -796 0
-459 0
-627 397 0
-801 0
-907 0
-199 0
-572 -123 0
-131 0
-944 429 0
-220 470 0
-939 0
-135 0
-302 0
-698 0
-916 0
22 -449 0
-615 0
-920 -533 0
-760 -397 0
214 -113 0
-243 806 0
-261 0
-250 -953 0
-368 205 0
-397 837 0
265 -633 0
-962 0
-511 748 0
555 -178 0
-842 0
-374 -474 0
-333 0
-358 -26 0
-975 -947 0
-22 -947 0
-743 644 0
-181 238 0
-740 0
-578 0
496 -87 0
-172 206 0
-300 559 0
-774 0
-33 0
-662 0
-703 963 0
578 -323 0
-47 -324 0
-332 0
-741 -939 0
-851 -786 0
-715 0
-134 -908 0
-110 0
-239 -942 0
-496 -532 0
-780 -915 0
-433 0
-411 0
-484 527 0
-63 0
-157 77 0
-135 0
-195 0
-671 0
268 -250 0
54 -793 0
-957 -385 0
-911 0
-731 63 0
-191 756 0
-292 -298 0
-488 -287 0
-876 -442 0
-366 0
-552 553 0
-527 0
-256 766 0
992 -472 0
-935 0
-709 -477 0
560 -858 0
-133 0
-854 554 0
777 -567 0
-197 -820 0
-340 198 0
-735 -548 0
-911 0
57 -494 0
392 -104 0
456 -399 0
-89 0
-751 0
-591 629 0
512 -839 0
-160 752 0
-381 -657 0
448 -398 0
669 -969 0
100 -586 0
-670 0
-872 0
-901 0
826 -881 0
-974 -933 0
-358 0
909 -865 0
-115 0
-492 -969 0
-934 127 0
-143 0
-760 765 0
246 -17 0
-601 0
-199 588 0
-38 0
-205 -609 0
-667 0
-84 0
-716 0
-353 0
-868 -986 0
-552 0
-433 0
-366 379 0
-487 -293 0
-787 110 0
-496 903 0
-788 -930 0
240 -696 0
-263 220 0
-322 735 0
-167 253 0
-347 0
-147 0
-872 0
-832 0
-892 0
585 -189 0
-976 -876 0
-954 0
435 -122 0
-189 0
-887 803 0
-632 -271 0
-500 0
-606 167 0
-300 0
-561 0
-655 529 0
-49 0
201 -843 0
-305 775 0
-100 0
-181 -169 0
-211 -121 0
-901 0
-692 0
-723 0
904 -153 0
-59 654 0
-520 -121 0
-91 0
-328 0
-87 0
-159 -814 0
268 -579 0
-263 -659 0
-450 0
-555 -483 0
234 -33 0
931 -426 0
-130 0
-630 -99 0
-927 994 0
956 -858 0
-833 0
-765 591 0
-671 -910 0
946 -964 0
-726 0
-314 0
-471 0
-5 0
-347 703 0
-320 138 0
-344 43 0
861 -953 0
-808 -448 0
652 -977 0
-571 135 0
-102 998 0
-60 0
-688 -540 0
-384 0
-784 13 0
-757 -956 0
572 -386 0
-542 -841 0
-544 0
-734 -9 0
158 -42 0
-37 957 0
-679 138 0
-956 669 0
-862 0
-347 0
-327 0
-632 243 0
-976 0
72 -377 0
-604 0
142 -289 0
-712 -194 0
-997 711 0
-341 0
-116 -571 0
687 -705 0
851 -156 0
-935 -385 0
-698 0
-846 0
-478 -419 0
-437 0
448 -325 0
-601 0
-696 -849 0
845 -891 0
-576 951 0
-352 0
-265 -817 0
-757 -787 0
93 -938 0
-694 -462 0
237 -257 0
-797 0
216 -101 0
768 -925 0
-460 0
-302 522 0
-41 0
-216 -92 0
-876 844 0
-226 0
-346 0
-469 102 0
-462 -697 0
-873 0
-382 0
-938 0
520 -98 0
452 -692 0
-14 -633 0
289 -724 0
-768 0
280 -980 0
994 -947 0
-410 0
-278 0
-428 0
352 -693 0
-840 0
568 -17 0
704 -28 0
-197 0
377 -503 0
921 -435 0
-890 0
-843 0
-951 0
-517 0
-463 821 0
-821 -825 0
-213 -57 0
-271 0
505 -634 0
-440 770 0
-763 0
307 -339 0
-514 -841 0
-343 -396 0
-442 0
-707 -523 0
-72 0
-925 0
-275 0
988 -938 0
-967 0
985 -51 0
-680 154 0
730 -739 0
-372 0
21 -433 0
-483 0
-201 0
-499 0
-400 730 0
896 -973 0
-112 0
-359 0
-663 322 0
594 -205 0
-662 -93 0
-391 121 0
-239 0
376 -42 0
794 -556 0
-472 452 0
-156 478 0
-24 0
-147 -43 0
-237 -122 0
963 -829 0
-388 431 0
-779 183 0
-684 0
-968 -185 0
-931 0
-785 0
-192 942 0
39 -585 0
-613 46 0
-650 -905 0
856 -937 0
-938 0
-760 -595 0
354 -773 0
-790 591 0
997 -737 0
-665 0
-282 0
-640 0
-947 0
-791 -190 0
-772 661 0
-790 0
-28 0
-847 0
425 -196 0
-573 102 0
940 -692 0
-324 -449 0
464 -448 0
-184 246 0
-535 -220 0
-2 855 0
-104 -234 0
-68 -260 0
-876 -810 0
-331 -282 0
-718 0
125 -233 0
-484 0
-407 0
-182 -307 0
248 -306 0
-998 0
-16 181 0
-455 0
-602 0
-610 0
848 -439 0
812 -369 0
-333 0
-64 0
-814 0
-951 0
163 -595 0
-547 0
-824 -480 0
-982 -285 0
-852 118 0
-354 0
-531 0
394 -238 0
-199 0
-493 -869 0
-713 0
-16 -18 0
-628 0
-403 0
-108 -460 0
-154 -210 0
-319 0
-19 -611 0
98 -948 0
-258 0
-434 0
-264 0
234 -204 0
-869 0
424 -125 0
685 -730 0
-515 0
-22 766 0
-540 0
628 -139 0
828 -41 0
-825 0
-793 0
-403 0
-413 -522 0
-896 0
-685 0
-132 -642 0
-876 437 0
-336 0
-503 -357 0
-87 -612 0
-458 0
-221 427 0
25 -898 0
-342 442 0
-421 303 0
-800 0
-568 196 0
107 -45 0
-496 -601 0
-240 0
-895 172 0
-899 0
-475 -411 0
-550 0
-930 0
-703 301 0
267 -243 0
-813 0
681 -75 0
-713 0
138 -21 0
-282 0
-76 758 0
-269 0
-73 0
-683 -465 0
700 -484 0
-442 0
-772 0
-453 0
-685 -669 0
-323 -881 0
664 -589 0
541 -283 0
-948 0
396 -539 0
-498 0
-175 838 0
-68 0
-490 0
-894 0
-371 0
334 -473 0
284 -891 0
-632 239 0
-27 0
-370 -305 0
-744 0
-754 0
-942 51 0
-398 0
-152 137 0
-404 0
-990 -260 0
-90 0
-193 0
-804 -659 0
-666 0
-976 -147 0
-23 -838 0
-996 -289 0
819 -35 0
-328 476 0
10 -275 0
682 -685 0
217 -6 0
-327 -683 0
-966 0
-85 254 0
-42 230 0
-270 -572 0
-139 0
-264 0
-579 0
-768 -572 0
-582 460 0
-55 0
-505 0
-358 0
-304 -879 0
-146 0
-584 -420 0
-422 0
-515 0
-343 0
-904 -9 0
-379 0
747 -947 0
-165 -492 0
-296 -274 0
601 -745 0
-805 0
-328 0
153 -302 0
833 -962 0
-924 119 0
-407 858 0
-86 0
-54 -238 0
-294 -445 0
328 -680 0
-480 0
-677 85 0
-772 0
-491 -97 0
-158 0
-460 0
-431 0
547 -356 0
-933 0
385 -566 0
-139 -851 0
-239 0
-624 285 0
604 -706 0
-314 0
449 -898 0
-580 0
688 -946 0
-547 -275 0
-831 0
-537 0
203 -661 0
-273 0
-736 963 0
-13 926 0
-708 -739 0
-142 909 0
740 -954 0
-571 0
-959 -605 0
-337 0
168 -655 0
-797 868 0
-533 -597 0
-359 923 0
-888 613 0
-989 731 0
-56 -121 0
-540 285 0
-332 0
763 -226 0
-714 0
-231 -25 0
-592 834 0
-590 0
-8 983 0
-327 959 0
-306 0
-848 509 0
-239 38 0
-237 435 0
97 -694 0
-416 0
385 -86 0
-583 0
-803 0
-413 212 0
-162 0
-822 -11 0
-517 -570 0
-555 165 0
-500 0
597 -914 0
-384 0
-739 0
112 -764 0
112 -716 0
616 -613 0
-856 -784 0
560 -549 0
-379 319 0
1 -51 0
-704 -138 0
499 -948 0
-528 -19 0
-164 0
-859 -809 0
394 -804 0
-273 0
-413 0
-280 512 0
-136 -598 0
-63 924 0
745 -921 0
-988 893 0
-691 0
-264 -41 0
-679 0
-638 0
-701 -49 0
-328 0
-216 0
-390 -730 0
-255 -93 0
-166 0
971 -851 0
-565 0
-360 -127 0
874 -27 0
-959 -922 0
-38 0
360 -928 0
-383 -372 0
-107 0
-358 0
-440 0
-181 -245 0
-532 903 0
-764 0
320 -39 0
-354 0
-547 502 0
302 -274 0
928 -495 0
-476 -403 0
-18 -481 0
980 -188 0
570 -115 0
-34 0
-459 0
-357 0
-948 0
-11 0
-366 0
321 -820 0
448 -151 0
45 -3 0
-211 711 0
-456 -392 0
-197 -618 0
771 -218 0
-675 -441 0
-344 -273 0
-34 0
-431 -134 0
177 -490 0
-472 -752 0
-597 0
-775 0
-662 0
667 -649 0
-629 0
-388 0
-283 0
-58 0
-46 495 0
-790 0
-23 0
-661 0
-659 118 0
-989 395 0
985 -556 0
-413 0
-943 223 0
-28 157 0
-512 -889 0
-935 554 0
-430 -425 0
777 -750 0
-911 0
-815 -541 0
-301 -642 0
-662 683 0
-659 -121 0
-128 0
-115 0
176 -401 0
-62 0
-683 -922 0
640 -419 0
-117 925 0
-147 887 0
-491 0
-176 667 0
-496 -450 0
-35 559 0
-168 -396 0
-372 0
-17 0
940 -433 0
-184 689 0
-121 0
-919 0
-579 535 0
-464 -687 0
-935 0
-310 -538 0
-892 327 0
867 -241 0
-251 0
-87 -476 0
-47 -370 0
-365 -691 0
625 -684 0
-956 0
-275 0
-150 -209 0
-396 -186 0
-645 -923 0
96 -9 0
-826 0
-40 0
-495 0
-71 -127 0
-46 0
-979 0
921 -25 0
497 -534 0
532 -939 0
-383 0
-396 38 0
443 -987 0
-149 0
-989 0
-718 0
-780 0
957 -785 0
-159 292 0
-360 -233 0
72 -797 0
-452 -305 0
-589 0
193 -643 0
-531 485 0
-494 -925 0
-848 536 0
-403 0
-288 -175 0
-289 0
-978 639 0
-579 118 0
-679 51 0
-315 0
-174 -617 0
-776 -234 0
658 -417 0
-903 0
-917 0
-26 0
-192 220 0
-189 0
-425 0
-56 861 0
-730 391 0
-108 0
720 -518 0
-134 172 0
-469 -889 0
330 -870 0
-752 366 0
-455 906 0
-86 0
-429 0
212 -899 0
-875 0
689 -570 0
73 -878 0
337 -525 0
-732 -891 0
-937 0
-71 -652 0
-609 0
400 -446 0
-877 0
-440 539 0
-345 0
-304 0
-800 691 0
-704 693 0
939 -164 0
-992 291 0
-719 0
473 -61 0
-489 0
-851 0
-613 0
-542 -636 0
-545 0
-94 -858 0
-549 0
-582 74 0
-13 812 0
-983 -635 0
-320 -212 0
-14 0
-872 564 0
-603 -234 0
-568 0
-31 938 0
145 -319 0
930 -153 0
-672 613 0
909 -930 0
-456 0
377 -964 0
-501 0
-634 -241 0
848 -316 0
-916 0
-171 0
211 -394 0
937 -577 0
-582 0
-366 883 0
-63 590 0
35 -329 0
464 -699 0
-443 71 0
-430 -705 0
-915 -66 0
-765 525 0
-47 425 0
-213 0
898 -666 0
-514 0
-614 0
-126 -314 0
-967 -931 0
-288 0
-771 0
-349 -748 0
527 -945 0
-913 0
-399 -209 0
-596 -226 0
712 -355 0
-664 423 0
-937 0
720 -622 0
-829 0
-743 0
-253 -211 0
-502 0
-542 -451 0
-307 -531 0
-95 0
-584 -486 0
-576 103 0
937 -127 0
-78 650 0
-479 194 0
-304 0
-55 79 0
-584 0
-459 583 0
473 -916 0
-528 0
-123 0
-970 0
-7 236 0
-519 798 0
-399 0
-608 -539 0
-528 0
368 -173 0
96 -425 0
-900 695 0
-351 0
-176 777 0
-723 0
356 -90 0
-864 886 0
-291 -73 0
-47 -836 0
-213 -9 0
-927 -259 0
850 -501 0
524 -969 0
-211 0
-802 0
-540 0
-418 0
-816 685 0
464 -852 0
-292 0
-988 0
-582 891 0
-62 -82 0
568 -479 0
-987 0
-485 0
-456 809 0
-973 131 0
-192 -436 0
-878 -612 0
-800 775 0
681 -44 0
-758 -441 0
-410 351 0
-46 667 0
-774 310 0
-426 0
-722 271 0
-685 0
-502 573 0
-663 0
-846 910 0
-227 -475 0
-288 -110 0
-192 0
792 -637 0
-926 -905 0
-306 0
-944 -541 0
-726 0
-305 0
-791 0
-703 410 0
-247 268 0
-387 0
-840 -795 0
-520 -350 0
-193 719 0
-840 0
-94 0
-702 0
-670 0
-790 -73 0
-898 270 0
523 -669 0
-69 0
-629 -940 0
-703 391 0
-284 -227 0
-136 0
233 -953 0
763 -500 0
-600 0
-184 0
-599 0
-835 758 0
-634 0
-370 0
-111 0
-957 -485 0
-435 -290 0
-671 0
-327 866 0
179 -65 0
525 -714 0
-140 0
289 -716 0
-494 -147 0
-765 -979 0
-7 0
-932 -244 0
-160 0
-328 -351 0
157 -34 0
-635 189 0
-623 0
-183 0
720 -212 0
-65 0
-264 0
-250 0
-963 -474 0
56 -770 0
-223 0
-20 671 0
-821 476 0
-506 0
-204 0
425 -13 0
-750 -561 0
-447 596 0
-96 738 0
257 -532 0
-295 -441 0
-983 -145 0
-216 569 0
-487 -969 0
-974 0
-70 726 0
792 -710 0
634 -354 0
-90 0
-871 205 0
-526 0
-766 0
-886 389 0
-687 726 0
-472 0
-550 93 0
-920 0
127 -17 0
-391 0
-800 0
-828 0
-873 0
-245 150 0
-156 0
168 -572 0
-976 0
338 -187 0
337 -962 0
-665 0
-353 0
169 -569 0
-250 0
-192 89 0
-950 0
-535 78 0
-277 -849 0
440 -774 0
-215 0
797 -313 0
-387 0
180 -417 0
394 -516 0
-576 -924 0
-45 997 0
348 -514 0
-24 410 0
-503 -365 0
-48 286 0
-664 491 0
-130 -385 0
409 -842 0
-28 135 0
-41 0
464 -921 0
-837 0
-703 -580 0
-901 -44 0
-535 451 0
57 -427 0
-187 0
554 -571 0
-168 693 0
988 -635 0
-343 209 0
905 -677 0
-79 0
-539 855 0
-30 0
-641 -609 0
-120 870 0
-17 -897 0
-205 -483 0
-661 327 0
-61 -681 0
-213 -233 0
-633 0
-544 -15 0
-565 0
-354 -570 0
-443 0
-864 -119 0
-598 246 0
-111 -514 0
624 -203 0
707 -451 0
640 -315 0
-79 0
702 -25 0
709 -323 0
-487 -29 0
-174 0
811 -410 0
-399 290 0
-380 159 0
-327 -29 0
457 -874 0
-724 0
44 -865 0
-185 0
-252 -243 0
-567 0
-704 741 0
-694 0
963 -804 0
-63 0
810 -508 0
-558 -660 0
-696 -213 0
98 -477 0
-534 0
-834 0
-186 0
-877 -706 0
-981 -721 0
-848 0
298 -548 0
-457 0
-752 723 0
-206 0
-859 0
452 -548 0
-784 0
-327 0
235 -825 0
-279 0
-427 -850 0
-488 0
-480 0
70 -625 0
-564 0
-946 774 0
531 -27 0
-463 -116 0
-517 -417 0
-229 707 0
481 -654 0
-210 0
-457 0
354 -193 0
-31 0
842 -345 0
169 -155 0
-511 635 0
969 -486 0
-316 0
-83 0
-742 0
-476 0
-883 0
-82 0
-380 0
169 -948 0
-133 965 0
-430 0
-897 303 0
237 -354 0
978 -179 0
-446 326 0
-478 338 0
-653 0
-560 841 0
-106 0
-207 -775 0
-455 -43 0
-552 0
-708 -931 0
571 -817 0
-362 0
-945 0
-958 0
-627 278 0
-573 0
-415 0
269 -778 0
-588 0
649 -425 0
-203 -305 0
-3 -370 0
761 -740 0
-692 0
-34 0
-26 0
-325 -364 0
-719 530 0
-366 0
-342 0
-241 0
-147 0
-801 0
-548 0
-991 -657 0
-611 0
-380 0
788 -283 0
-683 0
-571 0
-982 0
65 -60 0
-390 -306 0
-466 -746 0
-207 0
633 -172 0
-904 611 0
-859 0
-23 0
-325 134 0
-200 0
-910 -370 0
-190 61 0
785 -452 0
-39 -694 0
77 -803 0
-940 0
278 -433 0
-176 0
408 -437 0
-562 -282 0
-148 0
-954 0
197 -818 0
-720 -305 0
-85 324 0
-663 239 0
688 -777 0
-528 0
922 -611 0
-212 0
-344 0
-40 0
169 -645 0
-741 -137 0
-124 269 0
300 -865 0
-643 0
-600 0
-198 0
-34 -665 0
-265 0
-616 942 0
-49 0
-440 303 0
-296 0
114 -150 0
-567 0
-198 0
-761 0
-377 0
125 -178 0
-838 0
-291 823 0
-511 772 0
-278 -482 0
-324 0
-896 552 0
-485 0
964 -500 0
-54 -516 0
-309 0
888 -438 0
-596 501 0
-619 0
-22 0
-724 0
-315 -786 0
-399 -609 0
340 -130 0
-366 0
-760 -946 0
-824 0
-326 0
-272 -544 0
-31 0
-152 572 0
-240 0
-675 838 0
-620 0
-261 -345 0
-735 414 0
-845 -821 0
-648 -41 0
-676 -329 0
-963 647 0
-80 646 0
-554 -353 0
-235 487 0
-336 530 0
-18 0
-312 -569 0
-408 0
-997 957 0
-532 0
-519 381 0
-557 0
-511 526 0
-112 -201 0
-479 0
-472 0
-99 0
-188 0
369 -60 0
737 -822 0
616 -739 0
-472 -115 0
-127 -571 0
850 -757 0
-795 0
-514 0
-37 -834 0
560 -29 0
-192 0
-692 719 0
-76 0
-26 0
-200 0
-949 0
217 -998 0
-250 0
-509 -700 0
-456 -907 0
241 -182 0
-170 0
-500 0
-488 0
-312 -44 0
-725 238 0
-21 0
-646 668 0
-613 0
693 -962 0
936 -158 0
-734 -957 0
-360 -331 0
-924 0
-967 0
-739 0
521 -612 0
352 -205 0
-417 0
-310 146 0
234 -21 0
-999 933 0
-952 -900 0
643 -409 0
-454 0
-395 0
-96 424 0
-746 631 0
-491 0
812 -650 0
722 -731 0
-33 0
-493 -77 0
390 -713 0
-808 -466 0
-448 727 0
17 -385 0
928 -759 0
-508 470 0
-976 -350 0
-987 0
-23 812 0
-315 0
-996 0
-169 103 0
137 -844 0
-287 18 0
242 -401 0
-331 -73 0
512 -702 0
-976 0
-344 -545 0
670 -393 0
-632 0
-119 287 0
881 -163 0
585 -878 0
-239 0
112 -415 0
-612 0
-173 0
-51 0
-633 0
-316 0
-252 0
571 -701 0
691 -35 0
-956 0
144 -227 0
-241 -673 0
-712 -307 0
-152 475 0
693 -314 0
-573 0
-557 0
288 -368 0
-160 -423 0
-320 570 0
69 -529 0
-284 453 0
-865 0
-480 -394 0
-838 -338 0
-1000 679 0
-949 -185 0
-35 0
658 -401 0
-88 851 0
-944 935 0
-864 0
-248 -477 0
525 -114 0
-231 0
-663 60 0
-408 0
984 -495 0
451 -443 0
208 -278 0
-70 -517 0
-401 0
-528 0
-241 0
910 -225 0
-285 -4 0
163 -449 0
313 -938 0
-850 0
-72 437 0
-227 0
107 -881 0
-92 0
-812 -162 0
-913 0
59 -699 0
433 -463 0
-84 709 0
-670 550 0
74 -433 0
-311 -307 0
-178 998 0
72 -738 0
-702 91 0
291 -185 0
-978 574 0
-732 365 0
-191 0
-404 0
-751 -902 0
-782 -937 0
-791 0
-372 -155 0
-841 0
-622 -226 0
-682 0
81 -929 0
-38 0
798 -161 0
-468 181 0
-771 0
-214 0
-933 -545 0
752 -961 0
-584 0
-4 0
-398 -641 0
-718 -165 0
-120 430 0
-23 -691 0
579 -733 0
-71 113 0
940 -483 0
-650 -562 0
-89 0
-493 0
-693 459 0
690 -843 0
-95 54 0
-687 -427 0
-851 157 0
-120 0
-449 423 0
-753 0
-417 0
-966 643 0
-737 0
-888 -358 0
-685 822 0
-470 581 0
-672 -28 0
-62 652 0
-632 -708 0
-819 0
545 -29 0
664 -480 0
-256 0
-218 0
-872 0
-780 0
521 -12 0
-852 0
-874 -233 0
-701 44 0
-531 -515 0
457 -570 0
-36 0
-308 0
-264 969 0
-709 0
-395 0
-520 0
-341 0
-682 0
-195 0
984 -397 0
-378 0
-144 -974 0
-632 -109 0
-248 -50 0
-513 0
-294 0
-296 944 0
-139 0
-873 0
-362 0
-248 -561 0
-557 0
-558 -613 0
844 -34 0
-871 -329 0
732 -617 0
35 -850 0
-845 0
-372 527 0
561 -831 0
-64 4 0
-274 0
-927 0
-448 963 0
355 -436 0
-347 0
-563 847 0
-129 0
365 -26 0
-92 0
-439 121 0
-930 0
619 -973 0
-497 0
-958 0
-85 -929 0
-214 0
-541 548 0
-432 788 0
-901 0
-800 -950 0
-902 -698 0
412 -666 0
248 -605 0
-448 -396 0
-248 854 0
-476 0
-572 398 0
-123 901 0
-101 597 0
-960 -649 0
84 -195 0
-64 0
984 -821 0
-922 0
497 -84 0
251 -978 0
-516 0
459 -137 0
-567 0
-736 605 0
-338 0
-383 -285 0
-14 558 0
-223 -644 0
50 -29 0
-341 0
-542 0
-709 -43 0
-1000 514 0
-674 0
-312 0
768 -772 0
41 -36 0
-1000 -899 0
570 -513 0
689 -12 0
-606 -907 0
-771 0
-27 765 0
-951 499 0
733 -321 0
-783 -253 0
-791 420 0
-849 -113 0
-650 502 0
-455 -789 0
-553 0
-712 -622 0
554 -11 0
-943 830 0
-307 0
-756 -907 0
436 -977 0
-600 -449 0
-503 986 0
-193 0
-731 0
-735 0
-712 561 0
-555 750 0
70 -417 0
-535 -969 0
-307 0
-372 0
110 -434 0
266 -914 0
-107 374 0
-128 149 0
-102 0
-181 -610 0
-823 -779 0
-520 -931 0
-613 -666 0
-237 -737 0
-960 -313 0
-763 -859 0
-200 -273 0
-9 0
-72 0
712 -655 0
-488 -30 0
-886 231 0
194 -257 0
-454 0
613 -529 0
-952 -369 0
-255 979 0
-291 366 0
385 -382 0
852 -705 0
521 -129 0
-119 0
-316 -227 0
947 -547 0
-999 0
213 -282 0
-894 0
184 -913 0
-6 -236 0
-629 755 0
-310 0
-403 0
-535 452 0
-409 0
330 -507 0
1000 -611 0
580 -313 0
842 -732 0
-705 359 0
-388 894 0
-138 0
264 -666 0
-286 549 0
-614 0
-655 909 0
-518 0
-920 14 0
-528 0
-926 -205 0
-648 -505 0
-319 -803 0
-584 0
-843 0
-160 663 0
-497 0
-116 -660 0
-95 0
-518 475 0
-489 0
-637 573 0
-866 0
-719 0
-408 -993 0
-261 388 0
548 -113 0
-506 0
-76 0
-610 0
-194 0
-558 0
-852 -297 0
-549 0
434 -922 0
-750 0
-459 0
-21 0
507 -233 0
-19 0
-133 0
-599 0
810 -740 0
-80 0
635 -195 0
-804 -716 0
-664 -820 0
-777 0
-668 0
-25 0
836 -491 0
-358 -593 0
-422 0
-802 0
953 -402 0
-222 -682 0
-424 -179 0
-53 0
-626 0
228 -571 0
-72 -819 0
-455 0
-652 469 0
-586 0
457 -338 0
-293 0
-746 695 0
-884 -618 0
-898 0
-176 0
-375 -649 0
-55 902 0
-431 0
-64 0
152 -10 0
-601 311 0
-328 222 0
-896 0
-793 0
795 -684 0
461 -882 0
-151 0
-752 0
57 -539 0
-165 245 0
-411 0
-531 623 0
-973 0
-854 122 0
-797 -194 0
-706 -713 0
-295 -681 0
-285 0
-394 383 0
552 -829 0
-274 0
-588 0
1000 -747 0
861 -25 0
-295 0
-543 0
-843 0
-192 597 0
-115 878 0
216 -108 0
-499 0
868 -899 0
-684 0
-945 0
-303 0
-907 0
-413 0
-572 590 0
-440 -229 0
194 -630 0
-488 0
-809 0
617 -963 0
-656 -834 0
-448 -282 0
-471 -295 0
-70 170 0
-606 883 0
-97 0
-779 0
-13 0
-718 226 0
-919 -166 0
-232 244 0
-614 0
624 -212 0
-485 565 0
-524 -243 0
-42 0
659 -956 0
-604 -491 0
-224 0
-309 422 0
656 -371 0
-630 0
-469 403 0
619 -987 0
-15 341 0
-735 0
224 -618 0
-338 0
912 -616 0
-260 959 0
734 -706 0
-998 0
-784 -53 0
-362 0
-171 759 0
-864 43 0
-681 0
-304 0
-894 429 0
-512 -619 0
-913 0
-411 0
-106 0
-640 999 0
-655 -421 0
184 -964 0
-929 0
26 -325 0
-853 -629 0
-756 590 0
48 -754 0
-336 -287 0
-511 0
-830 -844 0
-793 0
-561 0
792 -858 0
506 -580 0
-391 0
-470 147 0
-3 -681 0
-213 126 0
457 -942 0
-41 0
-855 0
-32 680 0
681 -145 0
-432 0
-399 -734 0
-199 -386 0
693 -345 0
-639 197 0
-829 0
914 -332 0
-548 695 0
-700 -971 0
-44 0
-584 198 0
-495 -733 0
-534 0
-542 0
-383 -211 0
-254 475 0
-750 0
-229 22 0
275 -373 0
884 -835 0
-701 0
-443 0
-413 0
-624 -534 0
-828 479 0
-317 0
-989 478 0
464 -827 0
-869 -659 0
52 -283 0
-117 -75 0
-70 -525 0
-307 0
347 -971 0
241 -861 0
-46 691 0
-648 -550 0
-29 -916 0
-720 -421 0
-300 0
800 -505 0
-204 911 0
766 -849 0
-1000 0
-977 0
-107 0
-838 0
-788 0
-939 -985 0
-800 -146 0
-926 263 0
-987 0
-753 0
-315 -122 0
985 -756 0
-790 0
838 -378 0
-865 0
833 -794 0
-26 0
-927 0
418 -236 0
-120 0
-502 0
-507 0
261 -682 0
-230 0
-400 -690 0
148 -762 0
-434 0
424 -60 0
-215 0
-173 835 0
-186 0
-491 0
-63 722 0
-876 846 0
-910 0
-649 0
-152 384 0
-704 -782 0
52 -945 0
-325 -324 0
-655 0
-86 -171 0
793 -983 0
-798 -377 0
-845 -44 0
-565 0
-642 0
-870 391 0
-304 163 0
1000 -241 0
595 -988 0
536 -714 0
-613 -692 0
-532 0
-341 260 0
129 -842 0
840 -970 0
-53 -841 0
218 -778 0
435 -730 0
-148 783 0
-659 0
-12 0
-922 375 0
-815 0
-117 294 0
-989 0
-903 167 0
-535 0
-261 0
-836 244 0
-375 0
-42 0
-463 0
595 -868 0
-896 0
-387 142 0
914 -404 0
-301 0
-799 -794 0
-777 0
386 -489 0
-152 0
-638 -626 0
-787 565 0
-24 0
-828 -404 0
-88 0
-665 0
-917 0
-103 573 0
-893 -314 0
-175 -118 0
-556 0
-1 0
-181 821 0
-718 0
617 -941 0
212 -722 0
-494 0
477 -873 0
506 -706 0
673 -25 0
-315 0
-389 -754 0
194 -414 0
297 -473 0
538 -629 0
-483 0
-402 0
-408 0
684 -889 0
668 -378 0
896 -15 0
-36 -27 0
-451 -371 0
-805 -852 0
-334 498 0
-623 541 0
-728 0
576 -340 0
-856 -713 0
296 -565 0
192 -859 0
-351 -493 0
-788 0
-49 0
-315 0
-92 230 0
-786 0
-31 -205 0
-279 0
-922 0
-501 467 0
-480 481 0
-98 494 0
-572 895 0
-878 0
-17 0
200 -197 0
134 -433 0
-656 0
425 -589 0
-262 439 0
-752 0
72 -995 0
-613 -537 0
-617 0
-594 0
-582 0
-101 5 0
314 -130 0
-655 394 0
65 -377 0
-197 -635 0
-261 236 0
130 -106 0
939 -37 0
-840 27 0
92 -771 0
-263 410 0
-772 0
659 -483 0
-233 0
-152 0
928 -122 0
-41 0
592 -436 0
-603 46 0
-332 516 0
-727 498 0
-734 906 0
585 -604 0
-185 0
657 -165 0
29 -345 0
-559 869 0
465 -835 0
-390 -620 0
-887 0
-647 0
-113 0
-635 -866 0
-150 -843 0
-779 0
-617 0
-462 0
142 -905 0
-985 0
-556 0
-528 0
-140 0
-151 277 0
734 -522 0
-402 0
-171 949 0
-735 -773 0
-504 0
-8 459 0
-448 860 0
-894 0
-254 0
-280 0
614 -994 0
-582 0
-782 0
272 -764 0
-251 -963 0
-374 0
-767 0
-442 0
-99 0
-874 0
97 -618 0
-159 -810 0
-773 0
-948 -338 0
-357 190 0
-818 975 0
-607 0
-615 0
874 -541 0
441 -270 0
-12 0
-526 -587 0
-664 -567 0
-952 93 0
-396 0
-819 982 0
267 -308 0
-99 0
-140 0
360 -469 0
-442 727 0
-406 -420 0
-519 474 0
-442 0
-659 0
-88 147 0
-82 0
-315 0
-181 -988 0
-72 870 0
156 -283 0
-502 -699 0
-713 0
-740 0
-455 927 0
-560 0
-364 205 0
-467 0
571 -418 0
705 -370 0
893 -891 0
-365 0
-479 246 0
544 -703 0
-193 0
-54 0
464 -258 0
202 -421 0
891 -53 0
-249 0
-718 -445 0
328 -457 0
-134 0
-457 0
-652 -948 0
-249 647 0
-824 -37 0
-836 -185 0
1000 -88 0
-381 0
251 -36 0
995 -409 0
-409 0
-831 0
-7 0
-54 -27 0
-877 -786 0
-507 0
329 -94 0
-477 -441 0
-880 -70 0
914 -257 0
-496 0
-370 -921 0
-724 0
-858 0
120 -764 0
175 -401 0
-721 0
-650 0
-462 0
592 -361 0
-107 0
-635 0
-368 0
-286 0
-382 199 0
732 -500 0
624 -500 0
-964 109 0
-599 0
-605 0
-612 0
-537 0
-751 0
-670 0
-276 0
75 -761 0
609 -246 0
786 -212 0
867 -716 0
-310 0
-317 0
-766 502 0
-586 -313 0
664 -753 0
-114 0
259 -669 0
-974 370 0
-569 639 0
-275 0
179 -522 0
769 -105 0
-340 -683 0
-606 0
112 -739 0
-260 -178 0
-299 0
-462 182 0
568 -588 0
-264 -193 0
211 -714 0
-26 0
-651 319 0
77 -169 0
-906 0
-910 958 0
-969 0
-168 -866 0
-968 0
-759 703 0
-419 0
130 -786 0
-609 0
-570 823 0
-269 0
-309 0
-879 0
926 -474 0
43 -580 0
-73 0
-142 -467 0
-638 -561 0
-478 0
904 -64 0
-30 0
-335 0
-914 0
-279 0
-609 0
-835 0
-861 0
-469 -138 0
-390 126 0
723 -545 0
-604 0
-628 0
-302 419 0
858 -308 0
-22 -610 0
-296 828 0
-50 0
-414 0
-896 0
-650 0
-247 -769 0
874 -189 0
-716 -659 0
-456 898 0
-188 0
-524 -601 0
-66 0
-185 0
-49 0
-639 0
420 -508 0
-995 -10 0
203 -212 0
-443 0
386 -52 0
-83 102 0
512 -400 0
650 -468 0
-708 0
-171 0
944 -51 0
-335 -413 0
-608 0
-284 0
-552 -2 0
-147 254 0
465 -245 0
-89 0
-309 0
812 -267 0
-860 543 0
-454 -421 0
-517 -291 0
-915 0
-518 245 0
-401 0
-692 0
-979 302 0
-579 -363 0
-207 502 0
-965 -443 0
9 -138 0
-211 453 0
-300 0
-591 0
-326 0
-251 0
538 -219 0
936 -46 0
-307 757 0
-926 -499 0
-585 0
331 -932 0
-144 919 0
-908 -803 0
-541 -980 0
-256 0
-367 -843 0
-264 -604 0
-501 0
-26 0
-956 0
-268 -90 0
-616 730 0
-848 0
-664 74 0
-595 0
-928 0
-391 -539 0
-203 0
-748 622 0
-384 -802 0
-32 0
-72 0
-718 0
-456 -520 0
-408 -180 0
-876 453 0
-677 180 0
-178 0
-791 598 0
992 -844 0
-738 0
-960 995 0
-922 0
-709 0
-632 0
186 -539 0
794 -214 0
-271 -98 0
-192 508 0
-120 -948 0
-808 790 0
-593 0
-882 0
-348 -635 0
-169 0
-49 0
-391 -707 0
-516 599 0
418 -605 0
-294 0
-435 397 0
169 -829 0
387 -945 0
-184 -567 0
-23 126 0
795 -132 0
317 -697 0
-297 0
-701 0
-597 0
-735 -309 0
-339 0
-27 101 0
-502 0
-64 738 0
-568 0
-229 -793 0
-957 0
-927 -406 0
563 -353 0
-900 901 0
835 -99 0
-685 150 0
-973 0
-832 571 0
344 -252 0
-71 154 0
-624 340 0
-965 0
-97 0
-426 87 0
907 -764 0
-384 0
460 -404 0
-885 0
-956 927 0
842 -395 0
-75 119 0
-742 359 0
-33 0
-609 0
-583 0
-589 -393 0
-247 0
-872 0
-63 -47 0
-657 0
-355 0
-485 -554 0
-495 -724 0
-722 855 0
-656 -530 0
-997 0
385 -6 0
-86 103 0
-770 87 0
538 -939 0
-158 -317 0
-976 364 0
-300 494 0
-274 0
964 -898 0
-543 374 0
-664 392 0
-253 -181 0
716 -172 0
-646 -996 0
-155 0
69 -811 0
-740 0
-422 779 0
-818 0
549 -666 0
-319 -542 0
968 -296 0
-471 174 0
-915 0
-807 611 0
-119 777 0
115 -637 0
125 -610 0
872 -731 0
-840 -438 0
-782 0
-903 0
408 -433 0
-392 -965 0
24 -254 0
-431 495 0
-632 951 0
-152 0
897 -613 0
-706 0
-976 0
936 -602 0
208 -648 0
-455 0
115 -172 0
-647 52 0
-845 0
-976 778 0
-30 -907 0
-394 0
961 -949 0
152 -282 0
-343 -715 0
-848 0
441 -921 0
-813 -843 0
-612 -778 0
-76 -147 0
939 -339 0
249 -339 0
1 -785 0
-899 655 0
672 -353 0
-405 508 0
384 -694 0
242 -219 0
884 -939 0
-638 0
-68 317 0
-369 0
200 -701 0
-804 0
654 -394 0
-922 367 0
-532 0
-219 0
-590 -365 0
-919 377 0
-679 0
-818 0
-908 0
-327 674 0
-26 0
-152 0
40 -447 0
-399 -759 0
-819 -274 0
-75 0
148 -28 0
-684 0
-747 0
-691 101 0
-110 0
-199 0
-235 -689 0
-581 0
-657 0
-80 -475 0
-477 612 0
-697 0
-918 0
-487 434 0
-407 387 0
-472 0
-436 0
420 -761 0
-967 -211 0
157 -986 0
-955 0
-813 0
-915 0
-655 850 0
-680 635 0
-591 0
-338 895 0
-690 0
-741 0
664 -537 0
-882 -273 0
985 -844 0
-660 0
520 -315 0
-713 0
499 -977 0
-150 503 0
-208 419 0
-514 0
-514 0
-390 -657 0
-37 0
-776 516 0
476 -377 0
401 -165 0
365 -721 0
-120 0
-537 0
-205 0
-158 0
-371 0
618 -361 0
-276 0
-363 0
-519 -379 0
-618 295 0
-637 0
-941 439 0
-68 0
-868 0
-566 0
-47 555 0
-562 0
-16 373 0
-118 0
-941 718 0
-191 0
-908 0
-957 0
-972 541 0
-594 0
-823 0
-502 853 0
-375 0
-992 180 0
-159 521 0
-394 -473 0
-143 -798 0
-758 0
-44 -123 0
-331 -281 0
-911 499 0
-439 -285 0
-308 -194 0
-375 -156 0
-256 0
-456 0
243 -635 0
-623 0
-270 -53 0
-502 188 0
-844 0
-894 -542 0
-278 660 0
-435 0
-498 0
289 -615 0
-129 0
313 -106 0
-938 0
-980 -19 0
-174 0
146 -821 0
-442 -137 0
-485 -433 0
-583 -809 0
-614 -477 0
-94 159 0
-478 379 0
861 -2 0
-39 859 0
-150 0
-528 459 0
-144 762 0
-48 407 0
-735 0
499 -76 0
-124 0
901 -553 0
758 -609 0
-643 0
-313 863 0
201 -663 0
-851 0
-138 0
-286 0
658 -153 0
-625 0
-839 0
-473 0
-412 0
-64 289 0
-721 0
-367 0
-600 -607 0
-755 445 0
-85 0
955 -460 0
963 -889 0
707 -492 0
-540 0
539 -837 0
-664 -916 0
-848 -409 0
-246 0
-120 -680 0
936 -812 0
-291 0
874 -933 0
870 -89 0
-683 0
-552 196 0
-855 276 0
-83 0
259 -506 0
-953 -169 0
-890 0
-510 0
-94 940 0
-904 -555 0
680 -833 0
-246 955 0
-54 116 0
-548 -994 0
-613 0
-225 0
-968 -907 0
4 -107 0
589 -633 0
-86 0
-964 0
-9 0
-252 0
-938 0
-711 467 0
-973 0
476 -204 0
-695 -957 0
-293 203 0
-388 629 0
-581 -557 0
-924 0
-520 0
-270 0
401 -938 0
-604 0
-64 -818 0
-157 -243 0
-582 894 0
-546 0
-583 -292 0
-584 147 0
660 -642 0
-448 868 0
-495 -628 0
88 -760 0
-493 -587 0
867 -130 0
-532 0
298 -274 0
-764 0
-79 0
532 -539 0
683 -92 0
746 -651 0
146 -355 0
-270 -451 0
-452 725 0
-578 0
-217 0
-334 0
-619 0
-566 870 0
-833 0
169 -991 0
614 -121 0
-493 0
184 -510 0
-16 617 0
-156 0
-549 0
-238 308 0
-910 446 0
-107 0
549 -34 0
17 -634 0
-325 0
-391 501 0
-91 0
-200 0
469 -577 0
-549 0
-198 0
-195 0
-782 0
-566 0
-191 -701 0
-777 375 0
-152 0
-239 501 0
-997 -449 0
-415 0
953 -861 0
-470 566 0
-491 0
-86 0
-865 0
278 -881 0
-88 888 0
-770 0
34 -828 0
-4 0
-277 693 0
-688 715 0
-981 -113 0
-586 0
176 -222 0
-196 0
-958 381 0
-190 0
-613 0
-551 0
-84 148 0
-574 870 0
643 -68 0
353 -986 0
-883 -218 0
411 -825 0
-436 0
-131 -281 0
162 -789 0
-791 -147 0
-476 0
-832 595 0
-154 0
-851 0
40 -798 0
-601 0
-991 -666 0
-391 -942 0
-761 0
-183 487 0
-681 0
-795 213 0
640 -108 0
-79 0
-242 0
-144 -778 0
-342 -602 0
-954 0
-400 585 0
-670 717 0
-396 0
-406 710 0
-802 607 0
-611 -9 0
-260 0
-480 911 0
-560 -405 0
-652 0
-869 534 0
-178 0
662 -249 0
-110 0
-991 861 0
-216 -494 0
-670 0
-127 0
321 -58 0
-697 0
-186 0
-77 -307 0
656 -140 0
-652 285 0
-563 0
160 -151 0
-757 -530 0
-70 0
788 -746 0
-288 0
-125 662 0
755 -826 0
-756 0
-888 484 0
-256 447 0
-816 0
-987 0
-692 -379 0
962 -734 0
-444 0
57 -511 0
-906 0
-653 -109 0
-496 -202 0
238 -433 0
-697 0
624 -866 0
-843 0
-48 -587 0
-355 0
-227 0
-952 -301 0
-828 0
-254 397 0
-174 509 0
675 -428 0
-406 -333 0
-101 0
649 -428 0
-632 0
-847 0
-86 531 0
-181 -931 0
-554 0
-335 -286 0
-824 -741 0
-636 364 0
-179 925 0
-863 0
-750 -509 0
-411 0
-311 0
-52 0
-714 0
899 -308 0
-34 0
-784 688 0
-978 0
554 -529 0
-91 0
428 -651 0
-210 0
-881 0
568 -27 0
-944 4 0
-362 0
-702 -74 0
-117 383 0
-182 0
-887 22 0
-376 -575 0
-272 890 0
-205 0
-263 237 0
-144 -392 0
-558 0
-975 589 0
-221 -977 0
118 -362 0
-139 0
-238 0
-135 -140 0
-791 959 0
-609 0
-742 0
418 -468 0
-525 0
304 -349 0
136 -11 0
-401 567 0
-575 0
-848 514 0
-544 159 0
-65 0
117 -258 0
-524 -745 0
-788 748 0
-301 453 0
-312 -70 0
-22 644 0
-365 0
-512 -477 0
-467 246 0
938 -467 0
-544 0
-413 246 0
-624 -158 0
-272 0
-591 0
131 -284 0
-604 294 0
-231 0
-539 0
883 -409 0
-261 -948 0
-942 0
866 -321 0
-490 0
-791 -15 0
483 -436 0
-925 -10 0
-375 0
-204 0
-22 0
801 -422 0
841 -234 0
-682 839 0
-41 0
-917 0
-797 -605 0
-570 0
-451 0
-822 -956 0
-579 0
-996 0
-919 247 0
-76 0
-78 0
-94 974 0
-576 -858 0
88 -324 0
-207 -993 0
-361 0
-365 0
-261 -612 0
467 -737 0
-479 457 0
-61 0
-224 0
-302 -11 0
-7 0
-219 575 0
864 -511 0
414 -434 0
-23 -44 0
-350 0
-951 -916 0
-467 -825 0
-92 343 0
472 -314 0
-745 0
-919 -762 0
-886 0
72 -556 0
-363 0
72 -904 0
595 -338 0
738 -699 0
425 -565 0
457 -575 0
-331 -553 0
-905 0
-413 404 0
-292 0
-776 0
-624 -362 0
657 -137 0
-128 0
-936 412 0
-247 44 0
-776 0
-528 0
856 -63 0
-206 -729 0
835 -285 0
-344 0
-762 0
188 -266 0
872 -746 0
-860 613 0
873 -713 0
-56 -991 0
-822 -659 0
-970 0
-934 -410 0
-135 -759 0
-29 483 0
-944 -545 0
-604 887 0
788 -195 0
-384 0
-877 0
-200 -483 0
860 -643 0
-583 362 0
-442 703 0
-901 0
-138 0
-294 0
-326 510 0
675 -988 0
673 -149 0
-339 0
-949 -473 0
-279 505 0
384 -275 0
-821 -380 0
-32 0
555 -777 0
-647 0
-922 0
-153 -449 0
-220 0
-660 822 0
-114 0
-198 853 0
-880 -803 0
-989 0
-810 0
808 -152 0
-750 -241 0
-8 881 0
-407 0
-511 718 0
-379 286 0
-622 -468 0
-624 61 0
-63 0
973 -825 0
-690 862 0
-944 -632 0
-25 0
-820 0
-358 533 0
-163 0
713 -515 0
92 -385 0
-715 -194 0
-538 0
-176 -189 0
-679 0
-857 0
-672 0
-476 0
489 -27 0
-546 0
-48 -962 0
-291 -27 0
-540 0
-491 543 0
-221 -917 0
-690 774 0
-609 0
908 -521 0
-256 622 0
-431 0
-893 709 0
-164 366 0
-63 -961 0
-424 -967 0
-484 0
-278 0
-677 0
-422 71 0
-657 -609 0
710 -970 0
-234 -762 0
24 -784 0
-462 0
-74 0
-985 383 0
-225 0
-764 -427 0
-194 0
-24 -570 0
232 -671 0
586 -813 0
-937 0
-887 0
-671 0
-823 -348 0
-611 0
-494 855 0
-206 743 0
603 -661 0
-256 574 0
120 -416 0
-230 117 0
601 -999 0
-65 0
214 -138 0
-847 637 0
-996 0
-890 0
-645 39 0
-836 0
-287 -516 0
2 -186 0
-88 229 0
-349 639 0
-535 -513 0
-570 0
-608 -876 0
-400 0
-135 0
-616 0
-891 -34 0
-596 660 0
-45 0
-987 0
-671 0
-265 0
-723 -322 0
728 -256 0
-883 0
-58 0
544 -321 0
594 -628 0
-358 331 0
-381 0
-615 -705 0
-376 0
584 -875 0
-508 0
-447 0
-118 0
-973 0
248 -690 0
-670 0
-804 0
-2 0
217 -602 0
920 -934 0
-447 -673 0
-858 -201 0
-37 -404 0
506 -685 0
-590 0
-920 -244 0
-536 965 0
-469 0
-518 263 0
-83 0
-943 865 0
368 -645 0
-59 0
-211 -377 0
-929 0
-127 -36 0
-232 -259 0
659 -81 0
-608 -943 0
45 -265 0
-131 -466 0
626 -201 0
-604 -186 0
-725 494 0
344 -750 0
-907 0
-646 0
-838 0
-530 0
-731 0
170 -302 0
872 -995 0
808 -954 0
-480 274 0
-400 105 0
472 -331 0
370 -579 0
-453 0
331 -921 0
-891 0
-98 14 0
781 -833 0
-228 781 0
-913 0
-455 -807 0
424 -961 0
-443 0
428 -186 0
-151 0
-701 -730 0
-959 0
-692 326 0
-797 0
-782 110 0
-356 0
-906 0
-112 -312 0
-167 -958 0
-287 -635 0
-359 0
608 -33 0
-251 -866 0
-632 831 0
-934 0
808 -108 0
-156 -658 0
-287 0
-844 0
-699 0
-428 -402 0
-126 -157 0
657 -73 0
-150 0
-265 0
-989 963 0
-47 71 0
-638 142 0
-537 0
88 -843 0
-949 476 0
-224 -851 0
-149 -837 0
-798 755 0
995 -426 0
-939 0
-926 114 0
-485 0
59 -585 0
579 -597 0
-391 0
138 -913 0
-861 822 0
-436 0
30 -241 0
-939 -851 0
-390 6 0
106 -372 0
720 -697 0
548 -674 0
-771 247 0
-966 679 0
122 -994 0
-645 422 0
-980 -203 0
-809 0
-700 0
-671 0
-158 935 0
940 -315 0
713 -842 0
-121 0
-275 503 0
-780 565 0
-10 0
-904 -54 0
-171 0
286 -18 0
-855 269 0
-96 0
-933 0
-275 0
-190 0
-16 107 0
-876 0
-183 -155 0
226 -786 0
-327 -276 0
426 -212 0
-413 0
838 -514 0
-261 -570 0
96 -399 0
1000 -258 0
-638 413 0
-257 0
392 -433 0
-472 861 0
-319 -547 0
-452 0
65 -99 0
-700 0
-694 507 0
-312 214 0
-542 0
-383 0
-751 358 0
-308 0
-958 0
-614 0
-70 0
-644 0
-117 0
-375 0
-909 0
-610 70 0
-405 0
-666 -473 0
-678 803 0
-866 574 0
-498 0
-698 0
-366 374 0
415 -705 0
-24 6 0
-387 0
-264 114 0
-209 0
-103 -791 0
-373 -17 0
754 -796 0
-844 0
-542 378 0
-575 -299 0
35 -777 0
857 -182 0
-556 -866 0
-966 38 0
-466 -449 0
-384 239 0
133 -41 0
404 -723 0
-653 -747 0
539 -26 0
-266 0
-438 0
114 -281 0
-653 509 0
-52 0
-237 0
-181 -281 0
-766 -222 0
-696 0
-37 0
-448 170 0
-595 0
-587 0
764 -658 0
-63 -253 0
-567 -17 0
562 -934 0
-279 0
290 -787 0
-56 -424 0
850 -841 0
-823 245 0
205 -850 0
-464 0
-740 0
-542 0
-453 -404 0
-181 -113 0
-268 0
-610 743 0
405 -586 0
392 -337 0
-276 0
417 -282 0
-573 0
-168 465 0
-252 0
-338 0
465 -58 0
-901 172 0
518 -498 0
931 -684 0
-180 0
-525 0
-43 93 0
-61 287 0
816 -801 0
-257 0
-651 0
-87 0
-64 0
-644 -475 0
-136 0
-639 261 0
-148 0
-438 -932 0
-619 0
-414 -625 0
-166 0
-16 0
251 -27 0
-568 -630 0
921 -726 0
884 -211 0
249 -834 0
491 -545 0
-832 571 0
-860 614 0
40 -773 0
-67 0
-977 0
-449 0
-578 0
-879 -283 0
-851 0
-308 365 0
-71 0
-609 0
-126 0
-729 0
722 -43 0
986 -700 0
-637 0
-620 0
-974 0
-511 -217 0
-518 0
-583 -147 0
-56 0
-499 693 0
-903 -628 0
-61 -393 0
-721 0
-909 0
-299 0
-733 -771 0
-629 0
-872 0
-561 0
-844 702 0
-805 981 0
740 -314 0
978 -925 0
-24 296 0
-423 0
-252 799 0
-445 0
-839 0
-370 -834 0
-441 0
152 -438 0
-91 175 0
-443 0
-974 775 0
-23 0
-796 -203 0
-695 -866 0
729 -999 0
11 -522 0
-908 0
-678 0
-34 502 0
611 -692 0
-843 -90 0
-21 -786 0
27 -913 0
451 -51 0
-347 0
-621 0
-190 510 0
-240 -90 0
-579 438 0
-119 291 0
-989 0
-662 0
802 -978 0
-239 -732 0
-601 0
-422 879 0
-391 0
376 -190 0
962 -25 0
-712 0
107 -493 0
-430 -435 0
-285 -188 0
800 -92 0
-187 0
-645 0
-841 0
-248 -810 0
473 -134 0
-557 0
-787 0
-782 0
-656 0
-461 -36 0
427 -218 0
-383 0
-928 876 0
-648 954 0
-273 -929 0
-511 -777 0
-12 0
839 -73 0
-315 0
-132 0
-167 271 0
-467 0
-750 -637 0
-419 422 0
83 -476 0
-327 0
-772 325 0
-580 -433 0
-320 0
-426 0
-692 439 0
-238 0
-447 990 0
-686 -789 0
-823 988 0
-559 596 0
-887 0
-529 0
-494 -100 0
-897 0
-817 0
-262 0
-639 524 0
-598 340 0
-229 855 0
-533 0
242 -979 0
-127 -462 0
-870 300 0
-676 -723 0
818 -493 0
-423 -485 0
-791 0
785 -973 0
-804 0
-724 0
-119 0
-380 0
-765 396 0
-995 -138 0
-866 0
-573 -953 0
-264 756 0
-754 0
-134 -702 0
-579 0
-255 0
-300 0
-323 0
203 -697 0
-528 0
763 -827 0
-159 0
-324 -393 0
-826 0
-502 0
-126 -731 0
579 -60 0
-501 -572 0
-853 366 0
337 -395 0
-520 -542 0
-747 598 0
-395 0
-967 158 0
-58 0
-281 0
-270 -1 0
-719 0
-287 0
-302 -782 0
-347 0
-571 0
-953 231 0
290 -205 0
-31 813 0
-486 0
859 -19 0
-349 0
-585 0
-896 0
203 -738 0
835 -460 0
176 -318 0
-130 0
-85 317 0
-169 0
-856 -844 0
-175 0
-640 13 0
-83 0
-223 -829 0
-705 935 0
64 -937 0
704 -446 0
800 -581 0
-435 -643 0
450 -258 0
-387 0
-394 0
-427 886 0
-344 971 0
-262 71 0
-646 0
512 -724 0
-582 431 0
928 -599 0
-915 0
817 -725 0
-526 916 0
443 -348 0
-871 549 0
-493 892 0
-230 15 0
-901 -338 0
-567 878 0
-974 -939 0
815 -657 0
-795 0
-731 -697 0
-991 -213 0
-513 0
88 -54 0
-609 0
467 -961 0
-832 -282 0
-90 0
-661 116 0
-136 -802 0
-581 -835 0
-573 -20 0
-389 0
-21 837 0
835 -763 0
-751 -972 0
-991 0
-822 522 0
-418 0
-662 135 0
-176 0
-975 -756 0
-735 476 0
-490 0
-871 -106 0
156 -956 0
-895 -94 0
-899 0
-510 0
-216 0
368 -364 0
474 -124 0
-765 -523 0
953 -318 0
-580 997 0
-792 0
-341 52 0
-536 35 0
-407 -83 0
633 -326 0
-284 223 0
-998 117 0
-848 -410 0
-977 0
-896 -957 0
467 -899 0
-619 79 0
-352 0
899 -291 0
-195 0
-204 0
-419 0
-657 0
-381 0
-186 0
-152 0
137 -509 0
-324 -738 0
-770 0
441 -91 0
-360 226 0
-381 253 0
-151 0
-433 0
987 -723 0
-239 0
250 -12 0
-683 -946 0
-710 717 0
-261 0
-950 854 0
-544 388 0
-781 405 0
-358 0
-732 0
-313 0
-544 0
-750 0
-870 414 0
490 -241 0
729 -757 0
-102 15 0
-893 -105 0
-581 -529 0
-136 840 0
-575 -546 0
-993 0
69 -562 0
761 -227 0
-759 41 0
-312 0
786 -155 0
-966 -513 0
-495 0
-563 0
-328 0
-674 815 0
-305 0
-462 0
-535 0
-285 492 0
-723 -858 0
-357 0
-743 0
-423 -702 0
218 -180 0
394 -196 0
-860 -418 0
-358 -430 0
-594 0
-487 0
-524 0
-333 -778 0
-607 -865 0
-254 0
-631 0
-716 0
-571 0
-694 126 0
-335 0
146 -107 0
-832 0
-980 0
48 -82 0
-720 0
-211 998 0
-392 0
-575 0
-888 -173 0
-816 175 0
-863 399 0
-840 -518 0
-146 159 0
-935 0
-638 228 0
610 -268 0
-526 0
921 -698 0
-853 863 0
-902 479 0
-571 365 0
-874 0
-510 751 0
-424 0
-800 849 0
-345 0
-566 -865 0
-728 261 0
-823 -754 0
-981 60 0
-373 0
-178 0
-943 372 0
-757 735 0
-863 190 0
72 -407 0
-184 0
-264 -455 0
-991 -985 0
-270 0
-696 0
-771 -987 0
-687 0
942 -329 0
536 -10 0
726 -737 0
-742 -116 0
-215 0
-200 -41 0
379 -490 0
924 -91 0
813 -698 0
-232 0
648 -983 0
-536 0
-606 0
-141 0
-304 0
-989 117 0
-823 0
-158 0
-800 -617 0
-817 0
-615 0
618 -220 0
391 -105 0
-434 0
-824 0
648 -846 0
52 -650 0
-143 -886 0
-927 0
464 -939 0
-564 -803 0
-767 0
-488 0
667 -522 0
58 -889 0
-449 0
309 -193 0
-462 146 0
-732 543 0
-223 -932 0
-522 279 0
-796 0
-88 526 0
-585 0
105 -878 0
-461 0
-544 151 0
62 -586 0
-890 -930 0
-856 0
641 -868 0
-32 -343 0
-701 0
-394 0
-432 -935 0
-993 0
-419 615 0
-160 0
323 -700 0
-558 94 0
-559 395 0
-801 0
-567 -670 0
-198 374 0
-453 0
120 -401 0
745 -532 0
-864 -647 0
-32 0
-310 -91 0
-222 -171 0
138 -613 0
-342 207 0
-368 434 0
128 -74 0
-567 390 0
-749 447 0
-438 935 0
-531 0
160 -894 0
-405 0
-960 0
-688 0
248 -773 0
166 -889 0
144 -37 0
-503 0
108 -331 0
-621 0
-192 0
-894 0
984 -249 0
797 -298 0
-693 0
-654 26 0
-84 278 0
-878 158 0
248 -117 0
-15 0
344 -860 0
-216 411 0
-112 0
-621 0
-152 0
-783 0
-616 802 0
473 -339 0
-599 911 0
-93 0
-6 0
-12 -18 0
-374 0
-130 -538 0
-589 524 0
-141 0
256 -191 0
-546 0
-416 -981 0
-894 -901 0
-440 0
-862 -468 0
-380 -641 0
-392 0
-222 0
416 -243 0
-694 90 0
-696 897 0
726 -513 0
-212 -297 0
-393 -265 0
-872 943 0
-510 0
-213 -180 0
-122 22 0
-927 -806 0
-758 564 0
-366 -489 0
-941 0
-46 0
947 -276 0
-351 0
-527 0
-343 459 0
-637 415 0
-484 -850 0
-616 0
928 -571 0
-772 0
-144 291 0
-451 0
-894 0
-698 0
-599 860 0
-913 767 0
-318 0
-260 445 0
-252 -756 0
-311 0
-630 -202 0
961 -231 0
-884 -442 0
-195 0
451 -595 0
-699 -290 0
-96 -207 0
-178 0
-259 133 0
-502 -522 0
720 -536 0
-64 -327 0
152 -123 0
-217 0
899 -114 0
-590 0
-144 0
-702 0
-942 -773 0
-126 0
-573 -325 0
-175 0
-263 -668 0
-313 0
-679 276 0
-594 0
-493 0
-814 0
-516 0
-289 0
-913 -153 0
-430 -865 0
-483 0
-103 95 0
-393 0
-591 0
-824 -34 0
-54 0
-716 254 0
291 -338 0
-607 422 0
977 -26 0
-335 0
-520 -467 0
-838 -273 0
-165 0
120 -693 0
-477 251 0
-471 -441 0
-635 0
-676 -378 0
-670 0
564 -731 0
108 -329 0
-887 -76 0
821 -273 0
-691 -115 0
-800 0
497 -614 0
-288 0
963 -161 0
-678 -109 0
-138 0
121 -566 0
-769 0
-421 0
-118 538 0
-782 287 0
112 -615 0
579 -220 0
-156 990 0
-640 -805 0
-950 627 0
-976 788 0
657 -833 0
59 -225 0
464 -273 0
-112 -51 0
-487 0
-119 0
-663 940 0
-344 -998 0
-929 0
-562 0
-651 0
236 -331 0
-316 0
922 -254 0
-531 0
873 -942 0
-295 0
-358 0
865 -958 0
315 -867 0
-570 0
-827 -75 0
126 -721 0
-646 -259 0
911 -57 0
107 -443 0
136 -754 0
-139 -851 0
-749 -45 0
-759 0
-43 0
-632 159 0
-568 0
-742 0
376 -1 0
-316 0
-741 295 0
517 -105 0
-469 -293 0
-483 0
-112 0
-724 0
-213 0
-948 0
512 -122 0
545 -121 0
520 -263 0
-940 -554 0
-972 -956 0
-958 0
900 -98 0
-926 0
-371 0
-280 554 0
461 -777 0
-465 0
-907 0
-899 -354 0
-316 0
-686 125 0
-446 -754 0
-573 0
-238 895 0
-251 0
-892 0
958 -90 0
-928 0
-351 0
-25 -641 0
-472 -793 0
-3 0
-299 -418 0
-857 0
-771 0
-343 0
-101 -251 0
210 -843 0
-845 943 0
-128 453 0
742 -81 0
-476 517 0
300 -259 0
-775 597 0
-349 0
-935 0
-14 0
-367 0
99 -794 0
-573 -948 0
-514 0
736 -916 0
-141 0
-878 0
-77 -266 0
-376 -486 0
-827 -106 0
-142 963 0
-738 0
-972 598 0
242 -937 0
-207 0
-369 0
-217 0
892 -611 0
539 -877 0
-747 0
-461 940 0
-863 0
-291 0
-279 -53 0
-359 0
-339 0
-157 -820 0
-463 0
-461 0
-158 -298 0
-613 28 0
-928 865 0
-490 0
-647 -483 0
-93 -466 0
-526 828 0
-328 0
-915 -154 0
665 -204 0
-127 308 0
-231 0
-73 0
-352 0
803 -581 0
-848 641 0
882 -233 0
-982 -18 0
-531 0
-222 0
-207 765 0
-232 954 0
-81 0
-964 701 0
-871 0
-703 -278 0
-834 414 0
203 -249 0
832 -325 0
-835 0
-270 0
-188 0
-870 0
-898 -513 0
368 -685 0
808 -113 0
401 -326 0
459 -51 0
-152 0
-261 0
-835 0
-750 0
-971 437 0
-800 0
-56 -945 0
-119 -2 0
-333 0
24 -159 0
572 -922 0
-56 0
-315 0
-648 0
419 -805 0
-246 630 0
225 -468 0
-856 0
-892 13 0
625 -187 0
-644 -867 0
858 -731 0
-581 0
-720 0
-664 300 0
-660 0
-230 -675 0
-583 0
336 -398 0
-671 0
752 -696 0
-408 -706 0
209 -697 0
-319 42 0
-600 0
-318 500 0
604 -979 0
-474 -978 0
-671 511 0
-380 0
-207 -36 0
-898 0
-820 0
-821 0
-943 -854 0
-16 -829 0
-934 -21 0
-912 986 0
-680 0
-797 260 0
-576 387 0
809 -502 0
-698 0
472 -992 0
-437 0
28 -162 0
-724 -762 0
556 -195 0
-68 0
-735 -349 0
-702 -821 0
-17 0
-820 727 0
-440 -265 0
-724 0
-788 -497 0
-40 0
-12 -537 0
-885 0
880 -430 0
-488 993 0
-873 0
-314 -1 0
-24 126 0
834 -899 0
-338 0
64 -40 0
-39 0
450 -556 0
-566 0
310 -857 0
-175 97 0
-719 165 0
-275 0
-495 0
448 -185 0
-159 0
-949 0
-463 0
-788 0
-222 619 0
-797 -98 0
88 -965 0
890 -421 0
-296 683 0
-790 60 0
-395 0
-489 0
-332 0
-157 765 0
-788 454 0
-357 -194 0
-531 0
41 -282 0
-505 -961 0
-671 -135 0
267 -737 0
-976 849 0
114 -523 0
-947 0
658 -996 0
-46 0
-492 0
-358 0
-595 -721 0
-661 -692 0
-230 0
-157 0
-347 0
755 -220 0
-504 -339 0
-691 0
550 -433 0
-346 0
336 -948 0
195 -885 0
-392 751 0
-411 174 0
978 -213 0
-795 -58 0
-840 926 0
-753 0
-741 975 0
273 -478 0
-399 513 0
-156 0
-494 -995 0
-452 639 0
-654 -905 0
169 -505 0
-116 975 0
714 -891 0
450 -628 0
-271 966 0
-460 0
526 -689 0
-391 0
-48 0
931 -164 0
-221 0
985 -421 0
837 -57 0
-519 -307 0
-792 0
462 -154 0
-398 599 0
-178 0
-410 0
-335 -194 0
-989 0
-694 403 0
-951 82 0
-638 0
-272 916 0
98 -149 0
-622 -546 0
-5 0
-510 -333 0
-333 0
-239 258 0
-203 0
730 -412 0
-365 -788 0
-183 -863 0
-611 998 0
-460 0
-505 0
-169 0
-894 -380 0
-109 284 0
984 -894 0
48 -656 0
-992 621 0
-254 -801 0
-261 0
-960 486 0
-422 0
-149 0
-303 -962 0
-347 -778 0
-101 0
630 -393 0
-816 -744 0
-85 0
-694 788 0
360 -235 0
-12 -738 0
-519 0
-853 0
624 -128 0
-628 -980 0
313 -654 0
-534 -762 0
-240 0
46 -617 0
-574 428 0
-820 0
-991 -569 0
-992 0
-463 596 0
-803 0
-508 -145 0
-717 0
-720 0
-902 -660 0
-422 0
-965 0
-810 167 0
862 -809 0
-615 0
-176 0
-36 412 0
-174 932 0
-681 0
-136 0
-798 0
-152 0
-145 0
-604 -987 0
600 -571 0
-310 0
-897 0
-416 349 0
757 -305 0
-830 110 0
-557 0
-464 0
-521 0
-728 -422 0
-560 0
-238 0
-388 -987 0
-646 701 0
-805 0
-463 0
-592 351 0
-383 -522 0
-851 0
-548 0
-268 0
-528 0
131 -946 0
-185 0
-571 445 0
-555 0
-700 702 0
122 -796 0
-794 0
-558 -172 0
-383 237 0
-197 0
-155 0
728 -610 0
969 -459 0
209 -596 0
-566 0
-288 -684 0
-542 0
-244 0
-755 405 0
-135 -838 0
-820 526 0
-261 0
-117 447 0
-286 373 0
-157 0
-309 887 0
-28 318 0
-391 -587 0
-675 0
-478 0
-590 0
-567 -235 0
-599 0
-703 -68 0
-741 -451 0
-831 0
-672 -814 0
-565 -203 0
-446 -902 0
588 -473 0
-941 0
-337 0
-157 6 0
-532 -98 0
152 -836 0
821 -865 0
-462 -473 0
-189 0
-750 715 0
800 -874 0
-604 0
155 -602 0
-814 0
-492 -706 0
549 -123 0
-217 0
-746 0
-243 239 0
-263 0
-256 643 0
-750 -269 0
857 -579 0
-294 0
909 -65 0
-441 0
-912 -735 0
240 -190 0
-150 286 0
-731 951 0
593 -866 0
-100 37 0
-476 0
-261 -691 0
-582 -485 0
865 -387 0
-576 0
-395 0
87 -385 0
-609 0
755 -857 0
-663 68 0
-703 0
-879 -550 0
-991 641 0
-237 -460 0
-413 0
-248 -379 0
-350 -812 0
-461 212 0
-447 0
-288 0
-582 0
-159 173 0
33 -469 0
-408 407 0
-298 0
-995 0
114 -675 0
-411 -163 0
-267 0
-829 0
-237 238 0
-136 -883 0
-583 -324 0
-248 0
344 -947 0
-621 0
995 -841 0
403 -145 0
-995 0
-774 -75 0
148 -595 0
839 -169 0
928 -448 0
-926 0
-878 0
221 -113 0
-950 0
-80 0
-677 308 0
-237 534 0
-913 0
-136 391 0
-700 0
-325 0
-564 -996 0
220 -267 0
465 -883 0
-888 0
-354 0
-238 -681 0
-693 0
848 -70 0
-727 173 0
465 -674 0
577 -734 0
-135 399 0
-128 0
-599 0
-394 0
844 -946 0
570 -826 0
-982 0
-85 175 0
-629 -209 0
-737 0
496 -729 0
-373 0
530 -508 0
-732 0
-422 871 0
11 -859 0
-295 0
-737 0
-854 0
-399 -980 0
-956 -889 0
-116 0
877 -522 0
384 -177 0
-494 0
-298 463 0
490 -785 0
635 -675 0
-494 0
-94 0
552 -518 0
-776 989 0
129 -846 0
-742 0
-984 -619 0
-1000 547 0
-566 0
-755 749 0
-330 0
-821 0
-149 0
-75 0
-870 -700 0
925 -58 0
-181 244 0
-599 0
-413 174 0
-649 -33 0
-464 0
-664 415 0
187 -443 0
-902 0
-262 -275 0
432 -212 0
-927 10 0
184 -740 0
928 -330 0
-80 -843 0
120 -390 0
857 -834 0
-48 0
512 -261 0
96 -310 0
-368 -978 0
-267 0
-740 -89 0
-970 911 0
-270 0
979 -772 0
-603 510 0
-824 -546 0
-108 0
290 -701 0
-586 0
-79 -457 0
673 -85 0
-126 0
467 -394 0
-427 0
-159 -747 0
280 -781 0
-201 0
-608 -211 0
364 -628 0
-759 -700 0
899 -772 0
-176 -396 0
-600 -611 0
-577 0
-257 0
-507 0
-793 0
329 -367 0
161 -819 0
-86 435 0
505 -836 0
-456 774 0
-708 279 0
-512 0
-966 -589 0
-916 -379 0
-158 0
-683 0
-264 257 0
-88 555 0
-841 0
-70 499 0
296 -939 0
-408 -30 0
-684 0
-739 141 0
-846 887 0
-814 0
492 -865 0
674 -858 0
-821 0
-232 -527 0
-405 0
-576 807 0
112 -781 0
659 -297 0
-437 -85 0
-270 589 0
-480 -97 0
-577 0
-975 0
-157 -426 0
-38 -709 0
-466 -738 0
-261 0
-528 -273 0
-614 0
-54 -365 0
-721 0
-404 0
146 -369 0
-83 0
-313 0
-421 -781 0
-220 -769 0
-520 -277 0
-640 611 0
-741 0
-926 663 0
-496 -827 0
523 -818 0
259 -787 0
-119 -353 0
-188 0
-221 380 0
-399 0
938 -628 0
-380 0
-422 -649 0
-1000 0
531 -339 0
-328 474 0
-200 0
-883 959 0
-702 117 0
-289 0
-332 -451 0
-878 0
-232 0
-534 318 0
-352 180 0
-113 0
-431 142 0
-469 -156 0
-884 0
-860 -532 0
-139 0
-798 4 0
-495 0
-26 0
-946 0
-789 -697 0
-237 0
-648 -624 0
-535 0
274 -929 0
-693 -596 0
944 -857 0
-175 427 0
-380 0
-99 -794 0
-148 0
-551 606 0
-173 -59 0
-979 0
-61 0
-263 -43 0
-448 188 0
-843 0
-111 0
970 -181 0
-309 -580 0
-742 821 0
-89 0
-533 0
-215 0
-695 -381 0
626 -478 0
-366 -737 0
-423 -812 0
566 -113 0
891 -291 0
329 -550 0
-71 -420 0
-759 299 0
-757 0
-670 -148 0
-947 -658 0
-172 0
-376 -927 0
-658 0
-796 455 0
-586 0
-1000 0
-460 0
-568 485 0
-429 -452 0
989 -842 0
-895 0
-713 0
716 -212 0
-727 0
-844 -849 0
-328 859 0
-376 -575 0
-852 0
-461 651 0
290 -433 0
-415 -211 0
-596 -313 0
178 -475 0
32 -590 0
-332 -201 0
-643 0
-473 0
-179 0
-348 0
-95 0
-764 0
-234 79 0
-882 0
650 -613 0
-945 0
-299 0
-716 -834 0
364 -475 0
-745 0
-24 0
856 -117 0
-862 0
-452 -378 0
-608 299 0
-558 639 0
673 -941 0
-703 0
-20 -266 0
312 -859 0
-42 0
-23 835 0
-248 0
-923 0
-477 0
-601 -449 0
-784 0
-653 76 0
252 -275 0
-241 0
-956 -457 0
-378 -825 0
-238 -715 0
484 -105 0
-608 -369 0
-1 0
16 -562 0
-147 86 0
-153 711 0
35 -525 0
-455 0
-324 0
-517 0
-212 -226 0
-450 0
-869 359 0
-961 0
-471 -267 0
-895 731 0
-601 0
-584 0
-164 0
-733 548 0
-886 276 0
-116 0
-7 557 0
18 -257 0
-741 493 0
547 -332 0
-272 -955 0
-412 0
-506 0
-893 0
-47 0
-801 -225 0
-457 0
-637 0
-712 782 0
-114 0
-478 -889 0
-224 0
-33 0
-425 0
273 -933 0
-916 502 0
-29 884 0
-947 0
-186 623 0
-344 0
-950 -993 0
-599 484 0
242 -101 0
624 -451 0
-802 0
-21 0
952 -471 0
581 -746 0
96 -989 0
-358 338 0
-71 0
-998 35 0
-616 0
-759 0
521 -230 0
-944 0
649 -644 0
210 -901 0
-669 0
-328 0
-616 515 0
-553 0
-779 -945 0
-306 -673 0
-545 0
-904 -654 0
-874 0
-656 0
-539 0
-616 -162 0
-5 0
77 -609 0
-928 0
443 -34 0
-713 0
-274 0
-84 0
-425 0
-606 0
-620 -954 0
-646 388 0
-395 0
-195 759 0
-603 0
-796 0
-630 367 0
240 -313 0
-103 875 0
-806 -348 0
868 -481 0
965 -337 0
-616 -429 0
-131 967 0
-454 0
658 -453 0
9 -689 0
-68 0
-77 0
592 -332 0
-453 583 0
-364 -722 0
224 -697 0
69 -986 0
-117 277 0
337 -308 0
-31 0
668 -721 0
-806 -11 0
-601 -353 0
-548 542 0
-240 -602 0
-790 0
-363 0
-687 551 0
-156 284 0
770 -757 0
-219 0
-756 -771 0
-153 0
-450 430 0
-913 0
-752 -687 0
-588 0
-596 748 0
-685 -908 0
-771 -585 0
27 -692 0
-900 -675 0
-974 -411 0
-71 -2 0
-859 0
658 -579 0
-527 -162 0
-396 0
-199 -607 0
-869 0
-257 0
-335 0
826 -19 0
589 -537 0
-419 0
336 -59 0
-743 0
-275 -682 0
155 -811 0
-167 -46 0
-185 0
-774 747 0
-168 -863 0
862 -890 0
-722 0
-835 0
-599 0
-728 704 0
-640 -325 0
-136 -69 0
-557 0
-333 324 0
869 -17 0
-519 0
-983 276 0
-867 -658 0
-334 -282 0
-950 0
-718 61 0
-864 654 0
-984 71 0
-344 -774 0
252 -883 0
-919 579 0
-71 497 0
-640 0
-988 -705 0
-599 -83 0
-672 -9 0
282 -700 0
-980 -611 0
-510 0
-777 0
-551 0
-628 -204 0
10 -133 0
-302 -611 0
-530 -545 0
913 -413 0
-954 -881 0
656 -353 0
-556 0
-297 0
-530 0
-991 0
-101 174 0
-653 975 0
-781 -889 0
429 -794 0
-640 -217 0
-71 0
-931 0
-366 0
-251 262 0
-675 0
-66 0
224 -85 0
-886 394 0
8 -709 0
-254 0
-887 937 0
-898 -249 0
-348 415 0
-522 0
-975 -405 0
-237 606 0
506 -819 0
-13 0
-807 687 0
-283 0
-632 926 0
-316 0
-768 -16 0
-699 0
-334 0
-368 931 0
-856 0
-437 0
-256 -135 0
-76 725 0
789 -945 0
-124 0
-218 0
504 -71 0
-999 -578 0
-288 0
370 -997 0
-264 351 0
121 -979 0
-883 214 0
-782 61 0
-528 0
-490 0
-652 0
-72 0
586 -556 0
-847 -477 0
-110 0
216 -541 0
699 -138 0
-544 551 0
-777 0
-149 230 0
-461 979 0
496 -601 0
-340 0
313 -691 0
90 -940 0
-348 500 0
-950 -93 0
-627 0
416 -838 0
-774 123 0
-979 -506 0
-500 0
-401 0
-364 -988 0
-18 0
-130 0
-698 -745 0
651 -772 0
-31 0
145 -618 0
-519 625 0
-156 0
973 -795 0
883 -469 0
-574 0
-788 431 0
-920 700 0
-72 931 0
-646 735 0
-150 0
-434 0
-317 932 0
-541 934 0
350 -714 0
342 -225 0
-153 0
-283 -562 0
-625 0
-658 0
-173 214 0
-137 0
772 -443 0
178 -522 0
377 -822 0
-926 746 0
-510 406 0
-487 -451 0
512 -218 0
876 -259 0
-998 951 0
-315 0
-914 0
-926 0
-566 747 0
-236 127 0
-424 0
-956 -530 0
913 -717 0
-877 0
954 -378 0
-173 0
-72 -19 0
-734 0
-974 -499 0
827 -698 0
-79 -986 0
-683 0
385 -513 0
-128 0
-543 204 0
-933 0
715 -2 0
-778 0
-656 0
608 -746 0
631 -793 0
-940 -841 0
-101 0
-575 137 0
-769 0
-293 0
-449 0
-506 0
-372 127 0
-228 0
-100 0
-601 0
-573 -866 0
-689 0
243 -202 0
-248 -977 0
-407 0
-704 947 0
-216 0
-609 0
-482 0
-190 267 0
-461 0
320 -489 0
-167 -594 0
-894 0
-743 -857 0
457 -814 0
-757 0
-963 942 0
-707 750 0
-239 47 0
-301 0
-952 0
-879 -385 0
-665 0
312 -340 0
-509 0
-292 311 0
-277 -161 0
-623 0
988 -825 0
-518 -362 0
612 -129 0
-649 0
-806 0
-305 0
-696 0
-238 0
-231 -253 0
-157 0
-704 -783 0
-703 361 0
-432 -628 0
-79 0
-277 -522 0
-434 126 0
-240 -737 0
-492 0
-988 604 0
306 -553 0
461 -883 0
-522 0
715 -970 0
-103 -547 0
-573 989 0
-747 0
286 -89 0
608 -181 0
-736 0
93 -177 0
-279 0
-84 822 0
-916 70 0
-344 418 0
897 -849 0
-856 -163 0
946 -458 0
-698 742 0
-865 -297 0
-563 0
-109 -953 0
-33 0
-451 0
-111 -979 0
-424 -359 0
-483 0
-139 0
500 -281 0
-236 516 0
280 -951 0
-93 332 0
-997 87 0
522 -805 0
-62 491 0
626 -226 0
-672 322 0
-831 -52 0
-543 0
-746 335 0
-380 588 0
-990 0
-367 718 0
-287 0
580 -939 0
-144 374 0
-54 -691 0
-799 -422 0
293 -793 0
-332 -721 0
-503 0
-651 574 0
616 -307 0
-684 -977 0
-673 0
-38 815 0
-87 0
-616 492 0
-528 447 0
-83 -234 0
-739 -258 0
-584 -597 0
-526 332 0
-224 0
66 -683 0
-666 0
889 -499 0
-481 0
-257 0
232 -325 0
652 -409 0
945 -354 0
-200 0
-985 0
-206 -867 0
-702 0
-648 0
-942 476 0
-276 295 0
696 -779 0
-231 -178 0
-376 687 0
-126 0
-45 0
-880 0
-408 -825 0
624 -95 0
-543 0
212 -289 0
-359 -398 0
-573 366 0
-463 -222 0
-76 270 0
593 -457 0
-555 0
-529 0
-816 -611 0
-751 538 0
-837 191 0
-455 -701 0
531 -905 0
-973 0
-482 0
-692 -641 0
297 -267 0
-865 0
-376 211 0
-740 63 0
-827 677 0
-85 0
-804 -658 0
-253 268 0
-631 0
-38 0
985 -141 0
349 -849 0
435 -899 0
-910 286 0
-640 130 0
120 -867 0
-878 372 0
-880 0
604 -508 0
952 -711 0
-839 0
-330 0
-315 0
-559 -969 0
70 -273 0
-61 0
-224 953 0
-693 -553 0
553 -315 0
419 -277 0
955 -289 0
-682 0
-510 0
-742 0
-680 0
-568 405 0
-34 0
-72 -464 0
-470 373 0
-736 -45 0
-204 933 0
-764 0
674 -163 0
-678 175 0
-687 0
-208 613 0
-59 0
-379 0
-856 0
-664 721 0
-81 0
-211 365 0
-69 0
-248 956 0
848 -242 0
875 -650 0
-662 0
-901 0
371 -500 0
253 -729 0
473 -991 0
-388 446 0
960 -561 0
-916 789 0
753 -787 0
-779 0
912 -410 0
-55 0
-51 0
-303 -857 0
705 -883 0
-703 169 0
-278 917 0
-335 -531 0
-588 0
-666 0
465 -311 0
-268 -539 0
-670 -484 0
-185 0
-294 -185 0
-741 -844 0
771 -962 0
-919 0
-279 0
808 -782 0
-418 0
-512 0
-997 0
-180 0
-568 0
843 -701 0
-528 0
-878 0
-237 0
-476 -930 0
-213 0
-26 0
-952 851 0
-590 31 0
-567 0
-426 727 0
-830 -646 0
-71 -491 0
-982 0
-120 0
-852 0
756 -362 0
-47 782 0
-691 0
593 -915 0
-860 0
-684 551 0
-329 0
833 -903 0
-895 0
-426 0
-373 0
158 -313 0
-307 -138 0
-748 -66 0
-459 79 0
-347 0
365 -82 0
-281 0
151 -201 0
279 -113 0
-810 0
-861 0
-550 355 0
-828 0
-479 -636 0
723 -915 0
946 -379 0
-530 0
461 -385 0
-607 572 0
-943 0
-229 -298 0
-977 0
-568 325 0
-554 0
776 -544 0
-171 0
-493 -772 0
-318 931 0
-834 798 0
-270 107 0
-910 -938 0
-119 -867 0
-634 359 0
-768 715 0
443 -956 0
-94 0
-903 0
-376 130 0
-447 0
-534 0
542 -305 0
-176 823 0
-132 0
-951 710 0
-888 462 0
-904 313 0
-531 0
-800 541 0
-803 0
744 -641 0
230 -745 0
-724 -305 0
601 -658 0
-462 0
-792 0
-707 142 0
-578 0
64 -708 0
-720 439 0
-545 0
-714 0
680 -723 0
202 -545 0
-107 0
-242 0
509 -794 0
-3 -473 0
173 -313 0
-440 -342 0
532 -753 0
-959 0
-636 0
-48 0
-992 0
-360 363 0
252 -634 0
-809 0
-187 0
-177 0
-101 0
-401 0
840 -247 0
-351 294 0
-415 361 0
-760 507 0
-277 0
961 -725 0
-21 -234 0
376 -231 0
-451 0
-32 0
-213 -565 0
-670 0
-556 0
-600 982 0
-151 -663 0
-627 -562 0
-791 -310 0
-299 0
384 -571 0
-541 775 0
-783 0
160 -211 0
-482 -305 0
232 -788 0
96 -645 0
65 -699 0
-765 -481 0
-156 -411 0
-392 0
-504 189 0
-682 -209 0
-623 778 0
-255 -91 0
-528 0
-693 606 0
-567 639 0
242 -883 0
-186 -497 0
-238 0
406 -18 0
-914 0
-253 455 0
206 -674 0
-5 485 0
-668 0
756 -651 0
721 -854 0
-710 86 0
-166 0
150 -89 0
-457 0
-328 0
-160 701 0
-940 0
-810 0
637 -419 0
-670 0
-796 0
-656 -165 0
616 -911 0
-532 0
-361 0
-542 -515 0
-824 686 0
-43 415 0
-167 0
-833 0
490 -211 0
201 -870 0
3 -452 0
-884 0
192 -294 0
-382 0
-7 0
-456 0
-765 0
-145 0
-607 0
-899 -273 0
-935 0
-976 68 0
-123 0
84 -601 0
-520 329 0
-632 531 0
-218 0
-900 0
964 -906 0
930 -251 0
-313 0
-847 -892 0
-707 0
964 -265 0
504 -965 0
-223 557 0
-525 204 0
-325 -635 0
-711 0
-454 -769 0
-876 95 0
-729 0
-301 0
129 -63 0
-893 741 0
-808 0
-333 230 0
-57 0
-641 95 0
-221 836 0
408 -372 0
-316 -505 0
49 -38 0
-549 0
-270 0
-976 967 0
-990 0
-463 614 0
-599 -143 0
130 -901 0
-323 839 0
-360 -100 0
-536 -579 0
-845 0
-832 -846 0
712 -837 0
-919 618 0
-246 0
-975 963 0
-527 829 0
-716 0
-113 0
-781 0
1 -482 0
-999 0
-907 901 0
-124 517 0
-817 0
-615 557 0
-864 0
-708 0
-309 582 0
-342 652 0
-940 0
-391 50 0
795 -794 0
-895 0
946 -853 0
-559 0
-159 771 0
-810 -177 0
-966 0
220 -12 0
-465 0
-118 -702 0
716 -929 0
-334 60 0
808 -682 0
-527 -58 0
-930 0
-544 847 0
371 -188 0
-183 0
-619 0
-257 0
-807 19 0
-288 -322 0
-32 135 0
-49 0
-887 935 0
-325 0
-441 0
-412 0
-227 0
-908 0
-998 -118 0
-75 0
-372 949 0
-999 0
-719 162 0
-548 69 0
-256 604 0
-6 0
-140 231 0
-187 -233 0
-15 0
410 -525 0
506 -148 0
-630 908 0
-251 -643 0
-691 767 0
-609 0
832 -29 0
-941 -850 0
-955 214 0
-590 0
-976 -733 0
-893 -25 0
-389 0
-5 0
-420 0
-262 -129 0
-391 0
841 -211 0
-463 689 0
-181 0
-669 0
-183 -773 0
-738 0
-238 -947 0
-996 -673 0
-65 0
-936 -567 0
-491 0
-156 108 0
57 -334 0
-520 -100 0
-781 0
-331 0
-575 0
-781 0
-70 -102 0
-135 -749 0
-963 -210 0
-751 927 0
-35 0
-183 819 0
-760 0
-527 -365 0
-734 0
-33 0
296 -30 0
-368 0
-750 -277 0
-872 562 0
-516 22 0
212 -411 0
-777 0
-908 0
-755 39 0
848 -845 0
-842 0
-267 0
-650 0
417 -443 0
-996 909 0
-927 0
-127 -900 0
-918 518 0
-347 814 0
-446 0
635 -81 0
-703 0
-376 0
-158 0
-911 -979 0
-340 -283 0
-384 -978 0
130 -925 0
-752 0
-54 -676 0
-187 0
-197 0
-780 -561 0
-210 0
-969 0
-32 -532 0
-31 -74 0
-376 0
80 -810 0
-963 0
-993 0
355 -684 0
-604 0
-779 0
-22 -37 0
-439 0
-6 23 0
806 -961 0
264 -579 0
-874 -993 0
-596 710 0
-306 -913 0
-855 0
-162 0
-848 612 0
-902 0
-213 -860 0
-151 950 0
650 -605 0
-329 0
-742 -169 0
-886 766 0
-566 0
-593 503 0
-855 0
-291 919 0
-61 -908 0
-583 -955 0
-214 0
-701 0
-176 0
-358 0
-792 0
-799 -802 0
-469 0
-351 473 0
-684 582 0
56 -723 0
-859 0
-367 407 0
-717 0
475 -612 0
-659 879 0
-712 -278 0
-602 0
-872 0
-85 -476 0
-768 -783 0
-682 0
-903 -411 0
-771 0
-1 0
-623 98 0
-974 803 0
-601 0
128 -277 0
698 -609 0
-705 -257 0
-204 0
-325 0
619 -153 0
-905 -177 0
-460 -921 0
-198 915 0
-710 0
-815 796 0
-964 0
-567 387 0
936 -160 0
-976 -651 0
147 -273 0
-228 0
-677 0
-605 0
-487 0
-893 0
-674 0
259 -585 0
-12 -898 0
-291 0
-723 0
-486 -235 0
-806 -986 0
-855 515 0
-992 -831 0
905 -57 0
-400 69 0
680 -940 0
-536 -85 0
-711 183 0
-226 -249 0
-231 0
424 -370 0
-436 0
-446 47 0
-525 0
-394 0
129 -180 0
505 -974 0
-44 -907 0
-1000 0
-853 0
-51 -977 0
-111 0
-411 0
50 -857 0
-858 -145 0
970 -228 0
513 -937 0
649 -956 0
-870 0
208 -846 0
571 -283 0
890 -682 0
-494 0
927 -89 0
-826 0
986 -220 0
-559 745 0
-95 193 0
-856 -92 0
-600 -989 0
-142 0
-749 0
707 -458 0
-466 0
-62 349 0
-823 -185 0
553 -324 0
-986 0
-464 380 0
-959 0
-810 0
-182 0
-388 221 0
-726 -449 0
-349 630 0
274 -578 0
-628 -716 0
-105 0
-791 -805 0
-898 0
-936 237 0
-195 0
-53 0
-311 0
555 -605 0
-480 0
-539 0
-601 0
81 -364 0
-166 -908 0
-427 63 0
-646 0
-803 0
-732 -306 0
-602 0
-217 887 0
-582 -349 0
-819 191 0
-618 -353 0
-447 830 0
-387 0
-256 -858 0
-509 -386 0
392 -76 0
-417 0
873 -587 0
1000 -108 0
50 -212 0
-856 0
-632 -468 0
504 -692 0
160 -60 0
-480 0
-958 -499 0
-317 47 0
-543 316 0
-273 0
72 -125 0
-895 -394 0
-609 0
-800 921 0
-765 -338 0
-1000 484 0
312 -156 0
-877 0
-525 0
800 -80 0
-68 487 0
-246 195 0
-818 -513 0
-755 646 0
-569 0
-170 0
689 -78 0
200 -702 0
-567 0
-983 572 0
-688 0
-830 98 0
387 -804 0
-135 214 0
-656 553 0
-319 0
-824 685 0
-716 0
-443 0
-892 0
651 -489 0
-177 0
-292 0
-67 0
-902 0
-222 270 0
-448 -449 0
82 -91 0
-680 0
82 -844 0
578 -203 0
-189 0
156 -747 0
-968 785 0
-917 0
-583 0
804 -137 0
-22 650 0
-703 0
-44 0
-815 94 0
-47 654 0
-903 0
926 -817 0
-260 -161 0
-712 8 0
938 -188 0
-505 0
888 -322 0
-632 0
-183 0
-440 -711 0
673 -444 0
-96 897 0
-152 752 0
-830 975 0
-456 -392 0
-747 0
772 -346 0
-78 859 0
-487 0
-583 0
-103 0
-456 -319 0
-37 958 0
-438 -197 0
666 -106 0
-924 0
-17 -177 0
-600 271 0
1 -218 0
-805 0
-769 0
-369 0
-848 -794 0
-296 0
-192 0
-413 0
-815 0
-293 0
-638 0
968 -101 0
-126 780 0
-744 0
540 -618 0
-770 0
-574 0
666 -381 0
481 -691 0
-83 0
-614 0
-759 0
-560 -630 0
-143 0
-942 974 0
-888 -226 0
-816 209 0
-853 0
179 -323 0
-679 275 0
-307 0
-881 0
-10 0
523 -332 0
-646 550 0
-724 0
-280 0
-909 0
-702 789 0
-404 892 0
-420 901 0
-820 0
-763 0
-440 0
-732 438 0
-181 279 0
-664 140 0
-606 0
-612 268 0
-994 0
-927 0
-342 749 0
-712 687 0
-294 0
-63 734 0
-512 -191 0
-894 36 0
-820 0
-654 -561 0
-272 -486 0
-690 0
-767 711 0
-662 523 0
-975 0
-71 543 0
944 -225 0
-700 0
209 -107 0
185 -418 0
-7 0
-559 0
-135 -362 0
-246 -745 0
-543 0
-709 0
-695 -205 0
101 -705 0
-598 828 0
-817 0
-390 0
-794 0
-641 983 0
-878 -276 0
-655 0
-440 485 0
-785 0
-55 0
-685 -629 0
-396 412 0
-301 -285 0
-479 0
-647 0
-84 0
-862 -302 0
-809 0
-933 -130 0
-639 -777 0
-854 270 0
-288 994 0
-798 0
-43 -257 0
-165 0
611 -113 0
-722 0
-743 0
-334 -563 0
-166 0
-806 -494 0
-491 0
-700 703 0
-211 870 0
-55 117 0
-218 0
-441 0
-923 0
-614 0
-328 137 0
-199 0
-355 639 0
-883 750 0
770 -177 0
-600 -195 0
-64 -403 0
-218 0
-799 -58 0
-870 0
-958 766 0
-961 0
-116 0
-366 226 0
980 -276 0
156 -524 0
-333 750 0
-893 -715 0
931 -491 0
-725 0
458 -809 0
-946 -697 0
544 -492 0
-434 0
-828 0
-650 0
-227 0
-70 -148 0
-863 26 0
-991 0
-1000 0
-942 93 0
-141 223 0
-379 559 0
200 -972 0
-807 -214 0
-856 -244 0
-629 -497 0
659 -362 0
-56 0
-301 463 0
976 -682 0
-910 780 0
-445 0
-352 0
-88 0
-121 0
713 -358 0
611 -683 0
-282 0
-565 -978 0
843 -764 0
-867 0
-158 0
882 -803 0
-484 0
-872 0
-572 0
-723 454 0
-32 -655 0
-107 0
261 -961 0
-286 -556 0
760 -78 0
-744 -729 0
-382 -394 0
-247 -501 0
-981 0
-951 892 0
842 -971 0
-165 0
-928 988 0
-98 0
233 -522 0
937 -299 0
-79 -122 0
-888 770 0
-14 0
-454 -745 0
-170 0
-323 0
34 -139 0
-296 0
-694 796 0
-205 0
-517 0
-784 891 0
-446 810 0
-960 0
32 -366 0
-327 -372 0
-727 996 0
-904 0
258 -649 0
-470 -913 0
931 -11 0
507 -380 0
-948 -890 0
-503 -179 0
-370 0
-991 -442 0
-638 -481 0
-291 0
57 -499 0
-602 247 0
-679 359 0
797 -121 0
-82 0
-466 0
-245 436 0
-462 0
-108 607 0
-358 191 0
-367 114 0
-580 -219 0
745 -598 0
-782 0
880 -986 0
-425 0
882 -971 0
-30 0
-53 0
-812 0
86 -970 0
-70 0
-996 -963 0
-389 375 0
-363 -825 0
-254 -324 0
-518 590 0
-149 -177 0
-674 -545 0
352 -954 0
520 -810 0
-80 518 0
-780 -457 0
528 -709 0
-798 0
-939 0
-583 -755 0
-68 -290 0
-359 -204 0
-308 -241 0
905 -13 0
-163 0
-320 0
234 -874 0
712 -419 0
-26 0
818 -630 0
-860 548 0
-892 0
-109 0
-535 0
76 -243 0
-395 -777 0
-85 126 0
-942 -684 0
-303 0
-124 0
-408 510 0
-457 0
-952 540 0
-580 -300 0
-565 -217 0
-397 0
-672 -106 0
-200 904 0
-38 -534 0
-159 0
-26 -482 0
-698 551 0
-219 0
814 -841 0
-716 0
-91 -569 0
553 -98 0
-427 0
-549 -953 0
-846 0
-986 0
731 -969 0
-254 0
251 -299 0
-152 -701 0
708 -435 0
-342 923 0
-652 0
-319 -316 0
-799 343 0
-875 0
-568 -451 0
-127 0
-11 0
324 -634 0
-60 0
68 -201 0
-799 -509 0
-172 -539 0
-132 998 0
-111 0
913 -865 0
-285 -371 0
-166 -885 0
-760 -315 0
148 -802 0
-196 470 0
-886 98 0
-311 0
-816 263 0
-843 0
-479 0
-212 0
-877 0
688 -705 0
-315 0
-623 0
-660 -537 0
-771 0
-182 0
-150 46 0
-163 0
-197 291 0
-720 -204 0
-501 0
-96 0
88 -387 0
-71 -771 0
-979 -331 0
-831 0
-68 191 0
715 -90 0
-17 0
-865 0
-543 0
744 -151 0
-485 0
-43 -338 0
-383 -863 0
-636 0
-132 0
-976 0
-16 -692 0
872 -530 0
-681 0
-562 0
-538 0
-48 -411 0
201 -180 0
-968 -982 0
-679 451 0
-173 875 0
-346 0
-262 0
-717 724 0
-963 0
-984 174 0
361 -610 0
938 -22 0
-184 0
-175 0
-38 0
-969 0
-813 0
-671 -205 0
-340 -644 0
-87 589 0
-719 -309 0
-696 0
-389 0
-302 -347 0
-362 0
890 -660 0
-175 -879 0
-750 0
-955 271 0
-51 0
-316 0
-792 -940 0
-701 0
-941 901 0
-972 0
-741 0
-847 0
-276 -411 0
521 -361 0
769 -476 0
-687 0
942 -913 0
-660 0
412 -634 0
-84 830 0
-288 94 0
-165 0
-11 815 0
-133 -483 0
-308 -339 0
610 -521 0
-756 637 0
-528 0
-488 -786 0
-687 755 0
-111 -715 0
-272 75 0
261 -35 0
-865 0
-381 0
-84 0
-751 -204 0
-718 0
-643 159 0
-63 220 0
114 -377 0
805 -466 0
-847 0
-975 -716 0
565 -323 0
-280 268 0
-501 774 0
-666 -105 0
-263 899 0
434 -139 0
-722 -25 0
-117 292 0
-801 0
-39 596 0
-534 -908 0
-312 -577 0
-395 0
-8 -977 0
-7 31 0
66 -403 0
-304 0
251 -275 0
-146 0
-291 0
-707 0
-574 807 0
-75 0
102 -57 0
-179 0
-124 -452 0
-470 0
-706 0
651 -434 0
132 -913 0
-927 0
-360 -729 0
-29 301 0
-235 0
-705 0
-30 438 0
-598 715 0
194 -42 0
-472 0
884 -12 0
-952 170 0
-802 0
-741 -890 0
-97 0
-712 -820 0
513 -166 0
-944 0
-819 0
-381 261 0
-928 158 0
-35 -482 0
-910 -21 0
-225 -929 0
-1000 -607 0
-223 -921 0
-724 359 0
-671 -633 0
-826 -641 0
-173 507 0
-675 0
485 -147 0
-830 0
-144 98 0
-992 0
-770 -785 0
-385 0
-686 -961 0
-838 94 0
320 -161 0
-836 0
-868 485 0
856 -697 0
-96 -890 0
-90 0
-589 0
-130 0
277 -346 0
-904 698 0
833 -22 0
-151 0
-911 0
352 -193 0
-539 0
-847 -444 0
-373 0
-510 0
-781 893 0
-85 -433 0
-406 0
-888 0
-324 0
-2 0
301 -833 0
-200 0
-814 0
-320 431 0
-132 0
-856 297 0
35 -177 0
-476 998 0
811 -3 0
-24 516 0
954 -150 0
-686 0
-163 693 0
-952 497 0
-592 -802 0
-791 0
-739 -313 0
-259 -986 0
-468 0
802 -250 0
-208 0
-999 0
297 -139 0
958 -786 0
-491 0
-600 -357 0
-989 -396 0
-591 -37 0
-247 0
169 -422 0
-281 0
-665 0
-133 0
-412 0
-467 453 0
-781 0
746 -589 0
-434 -633 0
88 -267 0
-814 -27 0
-249 839 0
-101 71 0
-518 0
900 -891 0
-982 0
-9 0
-366 0
-582 14 0
-411 0
-348 919 0
-32 0
-573 -659 0
-381 -659 0
-544 0
-286 875 0
-152 -570 0
-973 -369 0
-298 0
-498 -697 0
-855 -162 0
17 -812 0
-805 0
-572 0
-736 894 0
82 -301 0
-727 0
355 -321 0
-423 796 0
681 -930 0
-885 0
-38 548 0
-285 0
-589 -52 0
451 -156 0
-124 0
-69 70 0
-725 -29 0
-508 0
-383 0
666 -209 0
-375 -795 0
-790 0
-567 0
-994 0
36 -514 0
-908 0
-182 -339 0
-783 -403 0
-688 279 0
-32 0
-875 0
-767 -172 0
-463 526 0
-892 0
-782 0
-362 0
-804 0
-53 0
-149 0
-644 -714 0
-149 0
-23 510 0
-391 -70 0
-397 0
-411 -595 0
-680 802 0
-784 569 0
-914 0
-894 950 0
-376 -378 0
-538 0
-696 178 0
-159 17 0
-43 -362 0
-578 0
-48 -114 0
-191 -721 0
-96 -526 0
-55 500 0
-282 -113 0
-364 0
-661 0
-635 -674 0
-901 0
-388 0
712 -392 0
-327 178 0
922 -781 0
-111 -206 0
-230 -505 0
-993 0
-954 0
690 -834 0
-699 0
-595 574 0
800 -621 0
-927 673 0
754 -533 0
-639 -941 0
-311 -886 0
-618 0
-897 0
-367 0
41 -710 0
-138 0
-101 0
-382 -37 0
678 -265 0
-54 390 0
-260 0
302 -858 0
-699 0
-547 429 0
-614 -420 0
275 -659 0
-615 0
-638 -934 0
-137 0
-139 -458 0
219 -690 0
-134 -505 0
-55 -699 0
449 -465 0
-666 0
-747 -11 0
-265 0
69 -42 0
-250 0
-714 -18 0
-94 0
708 -851 0
-199 -604 0
-808 -142 0
-854 189 0
-266 591 0
-5 343 0
-627 167 0
-733 -131 0
890 -150 0
-936 0
-821 0
-440 102 0
-47 18 0
681 -594 0
-102 0
-199 0
-542 -828 0
-906 0
-767 0
-494 -186 0
-964 501 0
699 -645 0
-71 -383 0
-799 -387 0
-322 0
-779 142 0
-526 893 0
544 -81 0
-928 -722 0
97 -676 0
505 -795 0
-947 0
-380 -617 0
-87 980 0
-991 -284 0
-327 -738 0
-424 821 0
-18 0
-416 0
-679 -372 0
-27 -713 0
-850 0
768 -186 0
-185 887 0
-481 0
-326 0
352 -960 0
-254 438 0
-79 158 0
-424 831 0
-382 0
-827 0
80 -291 0
-41 0
-846 446 0
-910 -754 0
-826 0
-835 0
-693 -513 0
-844 -1 0
-415 0
-942 53 0
-882 0
187 -611 0
508 -34 0
-94 0
-163 0
794 -230 0
-323 0
-275 0
-959 -454 0
-131 -145 0
-654 0
-920 28 0
-884 -433 0
-699 -450 0
-151 0
184 -96 0
-867 0
-453 -898 0
-87 990 0
-559 -430 0
-207 -113 0
812 -34 0
-495 0
793 -618 0
484 -915 0
-912 -783 0
-752 273 0
-768 36 0
992 -41 0
-997 -355 0
-411 711 0
-631 0
-843 0
-1 -33 0
-900 0
-788 182 0
370 -149 0
-852 0
-590 0
-742 0
-215 0
198 -353 0
-370 0
-719 0
939 -524 0
-360 0
-268 -740 0
-504 749 0
-174 -126 0
-369 0
-499 0
-48 0
-575 -100 0
-470 0
-796 359 0
273 -99 0
-10 0
-467 0
-327 -466 0
190 -498 0
-317 621 0
-488 798 0
402 -508 0
-808 0
-696 878 0
-656 0
188 -787 0
-572 -514 0
-788 -521 0
840 -853 0
-395 438 0
490 -316 0
178 -61 0
-408 0
103 -273 0
-584 598 0
-896 462 0
-652 671 0
-786 0
763 -242 0
-296 0
-630 971 0
-695 251 0
-435 0
-815 -133 0
-766 486 0
-658 799 0
-586 446 0
778 -293 0
-66 0
-2 0
-750 0
-98 -273 0
-24 617 0
-452 0
-624 -485 0
-431 0
-941 -329 0
-886 0
-108 0
-667 0
-776 0
-152 -257 0
-312 0
968 -557 0
-214 0
-657 0
-49 0
-405 -356 0
396 -98 0
688 -847 0
-319 -619 0
-632 -110 0
-247 436 0
-838 -114 0
-260 125 0
-816 0
65 -673 0
-120 0
-755 0
480 -543 0
-455 0
-713 0
-832 -950 0
-457 0
-978 -873 0
-388 -905 0
-653 0
-264 0
-168 623 0
-154 0
-523 935 0
-382 0
-569 -849 0
750 -673 0
-970 0
-820 -300 0
-765 0
90 -148 0
57 -401 0
-553 0
-103 0
-716 -114 0
-247 -340 0
-560 0
665 -372 0
-121 0
492 -851 0
-624 0
-614 0
-486 -97 0
448 -753 0
-669 5 0
-15 0
760 -259 0
-621 0
-308 0
-399 0
645 -953 0
-974 0
-458 0
-559 0
-944 430 0
-308 390 0
-759 0
-671 0
-92 0
-399 -169 0
-487 -638 0
153 -628 0
888 -758 0
-792 0
-414 831 0
-259 0
-721 0
-997 -993 0
196 -508 0
-543 347 0
68 -273 0
730 -790 0
-846 0
-712 250 0
-180 143 0
-144 -137 0
-766 0
-194 0
-279 0
-824 517 0
346 -237 0
-709 228 0
-879 0
-407 -209 0
-311 -997 0
91 -787 0
-951 -701 0
-839 -577 0
-848 -867 0
-452 -386 0
-639 0
-879 0
-860 0
336 -85 0
-109 575 0
-6 685 0
360 -559 0
708 -755 0
614 -729 0
-939 189 0
293 -67 0
-552 -206 0
-644 -180 0
-63 563 0
411 -860 0
-506 0
586 -700 0
291 -26 0
-784 179 0
861 -281 0
-15 0
-210 0
809 -41 0
-441 0
-866 0
-454 -603 0
-785 0
-982 0
-526 844 0
-743 -226 0
-155 -298 0
-256 565 0
-851 0
-259 885 0
940 -202 0
-270 0
-328 -398 0
-268 0
-950 294 0
33 -302 0
347 -51 0
-262 820 0
-424 0
-813 0
-983 764 0
-636 0
979 -76 0
-487 0
416 -981 0
-939 0
-41 0
688 -940 0
250 -428 0
137 -733 0
585 -119 0
-920 881 0
-733 -533 0
925 -793 0
-739 -786 0
-702 -997 0
-120 478 0
120 -87 0
-368 -273 0
-94 331 0
-598 0
-615 -817 0
-376 351 0
-479 0
-540 0
-648 812 0
-495 817 0
10 -785 0
769 -20 0
26 -653 0
-749 556 0
-573 0
-909 -876 0
-126 -361 0
-144 0
-815 -417 0
-640 465 0
-279 367 0
-727 0
-753 0
-130 0
-106 0
-536 -631 0
-352 0
-180 0
-470 231 0
-563 591 0
-463 716 0
-634 926 0
553 -914 0
612 -393 0
-695 -651 0
316 -266 0
-636 0
-728 -213 0
-410 0
-928 0
-989 -545 0
-815 -332 0
-261 0
-736 0
282 -298 0
-899 679 0
-761 0
-530 0
-269 0
-48 0
-851 0
-377 0
-760 0
-147 0
-385 0
-448 0
772 -554 0
-640 -388 0
-761 0
-408 0
-268 0
-677 0
-255 782 0
385 -100 0
-640 0
-575 0
-731 0
-523 0
-175 0
-487 -822 0
-566 -540 0
-623 497 0
-37 -365 0
-79 -853 0
-546 0
-566 0
-828 -179 0
-582 0
-376 618 0
-782 867 0
421 -313 0
816 -201 0
-248 42 0
-973 0
-611 87 0
226 -258 0
-856 190 0
752 -281 0
-24 0
-641 -153 0
-191 -436 0
776 -997 0
586 -444 0
-984 950 0
-295 595 0
858 -148 0
-771 791 0
-760 -82 0
-168 812 0
-534 0
-829 -529 0
-813 -259 0
-552 192 0
-48 0
-656 -437 0
649 -772 0
-837 549 0
-701 0
456 -410 0
922 -450 0
-68 0
386 -267 0
-229 275 0
-488 211 0
-456 812 0
-966 -42 0
-220 0
-162 0
-749 93 0
-311 0
209 -475 0
-137 0
-502 819 0
-233 -977 0
489 -530 0
-411 0
-685 -177 0
-110 -779 0
-742 -165 0
-168 -236 0
-189 0
-164 0
-456 377 0
-454 0
-592 -836 0
674 -382 0
-118 -268 0
-747 0
-939 0
-109 365 0
-528 75 0
802 -724 0
-415 0
-479 0
-388 0
-125 0
-174 630 0
-66 0
-628 0
-691 0
-913 0
-921 0
-244 0
-396 -499 0
-391 -697 0
-342 0
26 -908 0
168 -794 0
-233 0
-508 0
-786 0
-155 0
488 -959 0
868 -434 0
-32 -855 0
-65 -265 0
-424 97 0
-941 -876 0
-933 -530 0
622 -449 0
561 -806 0
-88 -81 0
-652 70 0
-747 0
996 -417 0
-696 0
-893 822 0
-244 541 0
-327 -629 0
-904 0
-676 0
-208 -681 0
-302 -459 0
-997 0
-566 -537 0
-43 0
-82 0
-232 908 0
-275 -249 0
529 -676 0
-744 -789 0
-720 409 0
-199 285 0
-131 0
-839 -388 0
-397 0
-953 0
237 -826 0
-13 0
-316 0
-902 -315 0
-521 0
-481 831 0
-719 0
409 -805 0
-290 -305 0
-809 0
-534 821 0
-46 -459 0
-491 0
-441 0
634 -873 0
-705 0
648 -652 0
-75 -121 0
-291 0
-167 885 0
-819 742 0
-410 0
-31 -398 0
202 -539 0
640 -946 0
-154 0
-451 0
-279 -854 0
-250 0
-98 998 0
-771 0
256 -258 0
-499 46 0
8 -65 0
-24 -521 0
273 -883 0
-216 0
-648 0
-402 415 0
-456 -377 0
-726 909 0
-87 298 0
-644 662 0
724 -641 0
888 -643 0
-697 0
489 -890 0
-622 0
-304 854 0
-342 50 0
-970 0
113 -793 0
-974 0
-254 -693 0
-317 0
-470 -173 0
857 -210 0
-577 0
-712 441 0
-380 39 0
-86 924 0
-272 936 0
-543 0
-854 0
-101 0
-743 -108 0
-465 0
-881 0
-20 0
-36 -940 0
-199 0
-297 0
-534 0
-235 0
320 -830 0
-345 0
-546 0
-386 -65 0
-648 802 0
-64 588 0
945 -677 0
-218 0
-883 790 0
-542 0
-896 0
64 -829 0
-214 734 0
-137 0
-16 375 0
-173 0
-59 -978 0
-872 761 0
-545 0
-310 -716 0
-210 0
-979 0
-448 -292 0
867 -172 0
-859 0
685 -577 0
-518 0
-992 75 0
569 -491 0
-101 229 0
-814 0
-487 -508 0
457 -893 0
-136 0
-764 0
-352 0
-429 0
-28 -457 0
-434 135 0
-799 0
-164 -771 0
-414 0
-599 -903 0
-546 558 0
546 -361 0
-379 0
-439 0
-515 -835 0
-643 0
-54 -606 0
-891 463 0
-532 -460 0
112 -308 0
-723 358 0
-198 -501 0
-161 0
-248 438 0
-520 -326 0
256 -510 0
-207 0
829 -266 0
-756 -59 0
243 -660 0
482 -462 0
72 -859 0
-691 71 0
-604 -106 0
-823 0
-719 0
-38 0
-77 0
256 -340 0
921 -73 0
-305 0
-420 -995 0
-5 558 0
-680 0
-488 -757 0
102 -530 0
381 -418 0
-837 0
-680 0
-906 0
-593 0
317 -129 0
-959 846 0
-589 679 0
-904 0
-840 355 0
355 -12 0
-370 0
-292 0
-560 981 0
-314 0
-767 -74 0
-180 0
-250 0
-210 0
-453 0
-468 0
-207 -311 0
-80 -191 0
-292 0
-631 -903 0
-840 0
-537 543 0
-580 0
-971 -226 0
-333 660 0
-45 670 0
504 -495 0
-917 -794 0
-79 370 0
210 -233 0
-173 278 0
-285 0
-696 0
64 -457 0
-927 -547 0
-242 0
-583 -211 0
314 -538 0
-437 0
-64 -701 0
-414 139 0
659 -507 0
-830 -362 0
-21 276 0
-62 126 0
-363 0
-164 0
-603 0
-679 570 0
-502 -35 0
-10 -953 0
-918 0
912 -570 0
-531 286 0
-511 -521 0
-804 477 0
-560 705 0
968 -420 0
-527 0
32 -113 0
377 -119 0
-158 -6 0
-685 -612 0
-699 0
-501 628 0
-678 499 0
-978 0
-366 -601 0
-952 877 0
-814 268 0
-280 -979 0
-383 341 0
214 -81 0
-152 -154 0
-352 550 0
-415 781 0
1 -658 0
-83 0
-121 0
-679 -205 0
-431 441 0
74 -4 0
474 -444 0
921 -308 0
67 -333 0
-360 417 0
-540 -346 0
120 -972 0
-734 780 0
-749 0
448 -747 0
-587 0
-811 0
-353 0
-667 0
-841 0
-766 0
-214 684 0
730 -900 0
-848 -828 0
-327 0
136 -931 0
201 -582 0
309 -570 0
-528 0
-275 445 0
-908 461 0
292 -867 0
-391 -895 0
-727 -90 0
-84 0
-503 0
-707 0
-334 0
-408 -319 0
-464 280 0
-107 0
-857 0
-227 0
946 -834 0
-671 0
-698 -530 0
932 -699 0
16 -714 0
-671 529 0
-838 551 0
-732 0
-997 527 0
-698 -770 0
102 -585 0
-723 0
-286 0
-242 0
-654 0
-109 0
-196 -978 0
-385 0
-774 0
-267 0
-216 50 0
208 -868 0
-724 -284 0
766 -161 0
-992 593 0
-767 -781 0
-288 -623 0
-25 0
-364 437 0
-309 0
-191 -438 0
-973 995 0
-791 786 0
-296 646 0
-910 0
-993 0
-983 0
334 -433 0
-335 -940 0
328 -500 0
-199 -83 0
417 -909 0
628 -706 0
-830 922 0
-661 868 0
867 -843 0
-46 0
150 -809 0
251 -917 0
-208 976 0
-632 468 0
425 -771 0
949 -818 0
-286 91 0
-26 359 0
-183 -258 0
-255 -649 0
-472 0
-437 260 0
-837 -203 0
569 -796 0
-403 0
111 -681 0
-23 0
-924 0
-974 -492 0
-322 0
-934 0
186 -997 0
-906 623 0
64 -479 0
-405 0
401 -517 0
-861 -771 0
-875 0
-127 0
-274 0
-435 279 0
-119 28 0
-751 0
-433 0
-975 0
-706 -25 0
-323 0
872 -185 0
-170 0
-576 0
-984 35 0
712 -54 0
-813 0
-852 -435 0
-403 0
834 -323 0
-718 -441 0
-207 -854 0
-235 0
-229 5 0
346 -653 0
-578 0
-32 508 0
-376 0
-62 0
-960 0
-23 0
-634 0
171 -314 0
-279 0
42 -971 0
-59 0
-491 0
-928 0
-629 0
-485 -661 0
-337 0
-519 -425 0
122 -130 0
522 -353 0
-604 -700 0
-467 853 0
-152 0
-410 0
-881 -201 0
-215 0
-106 0
-287 -577 0
-427 157 0
824 -479 0
-749 0
-128 0
-461 0
153 -715 0
-200 -508 0
-951 -106 0
-757 0
211 -298 0
-292 0
-574 829 0
-502 0
-876 0
806 -90 0
-339 0
-206 79 0
789 -473 0
-404 847 0
-337 0
-552 108 0
-502 943 0
-480 0
-189 -565 0
769 -705 0
-297 -145 0
240 -320 0
-679 154 0
-527 0
314 -925 0
-438 818 0
-62 463 0
-923 830 0
-21 -924 0
190 -577 0
-686 0
842 -785 0
-781 725 0
-992 0
-377 0
-197 0
816 -487 0
-989 835 0
-555 0
301 -723 0
-469 0
-148 847 0
-971 0
-974 0
-66 0
-205 887 0
-191 530 0
64 -82 0
-420 -426 0
-591 -646 0
-240 0
-918 -290 0
-733 885 0
-826 0
-741 332 0
752 -158 0
-408 -671 0
-807 -388 0
-957 0
434 -788 0
-321 0
-360 101 0
-298 0
-480 -783 0
-62 594 0
33 -667 0
857 -589 0
171 -611 0
-862 -758 0
-618 0
224 -134 0
-462 238 0
627 -130 0
-542 0
-524 0
-316 0
347 -557 0
-909 0
-22 239 0
177 -665 0
-254 -97 0
-21 -993 0
-543 0
-269 412 0
-86 0
-423 -787 0
650 -521 0
-220 -746 0
322 -105 0
-69 0
-79 0
-346 -873 0
-341 -210 0
-644 -57 0
-138 0
-989 0
-802 0
-397 0
-139 118 0
-198 0
89 -513 0
-783 0
-199 566 0
-218 0
-110 -300 0
-20 263 0
-354 790 0
888 -681 0
-834 0
678 -250 0
-480 -853 0
554 -165 0
-722 0
-983 -522 0
-212 -139 0
725 -625 0
650 -429 0
-679 998 0
-995 -75 0
-431 -51 0
-71 0
856 -860 0
-749 0
-485 982 0
367 -569 0
937 -633 0
556 -722 0
-515 0
563 -76 0
896 -962 0
-290 -898 0
-150 0
-608 819 0
264 -931 0
-604 -267 0
648 -449 0
432 -451 0
-776 0
-266 0
-420 -947 0
-768 0
-59 0
803 -210 0
-813 0
-862 0
-317 47 0
-661 0
-163 -417 0
-732 0
-567 -700 0
-903 -498 0
-147 0
-10 0
-248 666 0
-514 0
-167 -427 0
-7 -421 0
-255 0
-540 0
624 -438 0
-212 -249 0
-358 0
-446 399 0
-17 0
240 -579 0
-79 365 0
-504 0
-390 -337 0
-835 0
-523 0
-162 0
565 -827 0
-154 14 0
-899 -409 0
510 -649 0
-862 0
-836 0
-466 0
396 -404 0
8 -375 0
671 -737 0
-775 0
-774 0
912 -790 0
-460 0
680 -53 0
-5 0
-838 -578 0
-166 0
261 -441 0
-420 0
700 -412 0
42 -254 0
-429 175 0
-123 350 0
-488 0
592 -561 0
-762 0
-574 101 0
-290 0
-376 -385 0
-962 0
-165 -196 0
-228 -947 0
-208 0
986 -910 0
602 -890 0
-825 0
-755 -418 0
-286 926 0
-245 0
714 -926 0
-368 -304 0
-633 0
588 -563 0
-503 -241 0
-988 0
978 -830 0
126 -202 0
-360 -377 0
-967 -290 0
-377 0
-324 0
-799 0
-967 430 0
-142 0
-309 0
-931 -619 0
-434 0
-70 363 0
-341 -362 0
401 -882 0
-156 0
173 -986 0
-975 118 0
-396 0
-727 0
-4 -657 0
-279 -523 0
-248 217 0
-384 0
-950 98 0
458 -250 0
-661 -594 0
-610 0
-581 221 0
-431 0
-264 -231 0
-50 0
-40 0
-943 -249 0
-837 -676 0
-786 -737 0
516 -683 0
-568 0
-623 0
-268 0
689 -115 0
-75 -587 0
971 -11 0
322 -18 0
754 -19 0
-234 0
-251 0
-896 -343 0
-176 371 0
-789 -821 0
-106 0
-376 36 0
-447 -305 0
-871 -962 0
97 -358 0
-747 -58 0
111 -113 0
-841 0
96 -76 0
-768 -763 0
-244 0
-886 0
-852 198 0
-616 -766 0
-219 0
-351 937 0
-192 0
-203 -442 0
-62 571 0
853 -393 0
-283 0
-491 -642 0
-652 0
165 -305 0
-744 -554 0
-463 -267 0
676 -220 0
489 -338 0
-727 0
906 -109 0
-563 431 0
-147 -209 0
345 -292 0
-863 0
-502 955 0
-724 0
260 -953 0
-961 0
694 -905 0
-440 0
-328 0
-375 -607 0
-653 612 0
-556 0
-648 0
-214 188 0
-376 0
-160 -660 0
-542 52 0
289 -258 0
-38 0
-335 428 0
232 -149 0
746 -522 0
277 -66 0
171 -331 0
926 -417 0
-213 -228 0
729 -732 0
493 -817 0
-187 -635 0
-104 750 0
-708 0
-485 -412 0
-212 0
-679 0
478 -193 0
-598 195 0
326 -201 0
-96 0
-140 0
-554 7 0
-776 0
8 -162 0
-862 0
-677 93 0
-655 -346 0
-926 0
-904 -259 0
-168 530 0
-104 -521 0
-968 609 0
922 -226 0
-616 0
-304 -352 0
673 -541 0
-656 534 0
657 -509 0
-773 -666 0
-662 -3 0
532 -627 0
113 -906 0
-286 -147 0
522 -164 0
-812 -139 0
-808 0
-477 646 0
-403 0
-289 -401 0
-166 0
-113 0
-428 0
-681 23 0
163 -921 0
-982 540 0
-719 0
-93 0
-707 797 0
-255 654 0
473 -265 0
946 -558 0
-184 258 0
-983 663 0
932 -394 0
-237 0
-800 -412 0
260 -756 0
-469 -665 0
-189 28 0
272 -913 0
-573 0
62 -945 0
-77 437 0
-602 0
-320 581 0
-17 0
-584 0
905 -571 0
-370 0
-548 735 0
675 -761 0
384 -951 0
616 -384 0
-86 -826 0
-916 0
-358 -457 0
-307 0
268 -602 0
773 -969 0
-936 242 0
248 -769 0
-891 0
-44 0
-455 -317 0
-483 0
-206 -276 0
-550 0
-290 0
-687 -511 0
-751 686 0
-415 -297 0
-477 0
-899 -155 0
608 -40 0
-628 0
-447 842 0
707 -739 0
-765 -594 0
-70 0
354 -673 0
-870 0
-669 0
-346 0
-428 0
981 -835 0
-172 710 0
24 -922 0
-505 0
-254 765 0
-528 -903 0
-914 0
-261 951 0
-158 0
356 -427 0
875 -466 0
40 -52 0
-447 0
-862 631 0
-935 -559 0
-476 0
-839 -746 0
-628 0
-499 471 0
-888 449 0
676 -915 0
556 -17 0
-510 0
-791 -227 0
-31 -660 0
-779 406 0
-725 -875 0
-774 -188 0
-231 0
96 -518 0
473 -947 0
-254 507 0
-796 0
-924 935 0
-408 699 0
-518 155 0
739 -565 0
-504 172 0
-886 0
-808 -387 0
192 -404 0
-659 0
-416 600 0
-717 0
-402 0
-174 -834 0
-205 525 0
-880 0
230 -609 0
-411 0
-38 -275 0
-568 0
-637 0
400 -572 0
-795 166 0
-510 212 0
-621 -713 0
-53 0
-880 694 0
-996 0
-163 0
-480 -569 0
148 -417 0
480 -2 0
972 -401 0
-835 0
-1 0
-89 0
-160 0
-415 617 0
-512 9 0
-416 -413 0
-152 -194 0
-731 0
-246 370 0
-283 0
968 -345 0
-815 686 0
-795 0
-377 0
-599 0
-679 0
-632 561 0
-335 181 0
426 -214 0
-497 0
-574 -388 0
-145 -361 0
-323 -90 0
-628 0
-674 0
-222 662 0
-89 0
-415 814 0
-961 591 0
459 -249 0
946 -73 0
-199 687 0
-664 0
-427 0
-878 -953 0
-807 0
-64 -491 0
317 -339 0
-254 -705 0
-750 117 0
-40 0
-809 0
424 -483 0
921 -393 0
-912 177 0
778 -549 0
-298 0
-368 183 0
-375 0
-967 270 0
-456 0
-473 0
395 -650 0
-463 -828 0
712 -976 0
-698 607 0
-664 -876 0
-694 -970 0
-525 302 0
-495 0
506 -445 0
602 -257 0
-453 918 0
-20 517 0
-254 0
-36 0
-719 -483 0
-80 0
-901 0
953 -868 0
-699 0
-317 -161 0
-787 -323 0
448 -251 0
-742 0
-760 0
928 -697 0
-81 0
-152 -730 0
65 -526 0
-230 -401 0
-189 0
-6 -186 0
84 -97 0
-69 -802 0
321 -266 0
-418 0
-837 0
-145 823 0
9 -945 0
-436 -74 0
-679 -889 0
-919 486 0
-400 734 0
-340 0
-376 430 0
-85 133 0
-517 0
-46 555 0
-229 0
-880 0
-936 -56 0
-491 -641 0
257 -646 0
-803 0
-628 0
-982 319 0
-939 0
811 -700 0
-639 0
-624 0
-166 -74 0
-873 0
-552 0
-528 415 0
526 -401 0
-302 691 0
578 -716 0
927 -153 0
-680 0
-607 -454 0
-193 0
-595 0
-910 -797 0
792 -151 0
-764 0
-7 0
-919 604 0
-52 0
-62 996 0
-591 -578 0
-677 0
-685 0
-603 0
649 -293 0
210 -498 0
-332 -193 0
-831 -122 0
-128 302 0
-358 0
-16 -12 0
-304 -354 0
-243 0
-280 0
-161 0
-15 1 0
-667 238 0
-304 -338 0
-351 0
-675 0
-766 0
10 -645 0
529 -674 0
-210 0
666 -228 0
-586 495 0
-862 -153 0
-158 0
-672 0
-886 -793 0
-509 0
-900 -43 0
-119 -60 0
-301 0
-471 -721 0
148 -745 0
-218 0
-510 0
-411 167 0
-832 -508 0
851 -489 0
-74 0
328 -138 0
-886 -706 0
-793 0
-2 0
-612 183 0
-25 0
300 -691 0
-848 0
-677 -458 0
907 -338 0
-488 -211 0
708 -913 0
-483 510 0
-542 839 0
-21 -92 0
131 -829 0
-647 -831 0
309 -442 0
-440 0
-989 0
118 -994 0
-5 0
-758 0
-449 895 0
-699 0
-334 0
962 -283 0
858 -829 0
-362 0
-135 773 0
-607 0
-191 0
-747 0
-664 -661 0
-182 -773 0
-320 0
-96 524 0
-533 -581 0
-738 0
360 -577 0
-816 447 0
-754 343 0
-805 -19 0
-401 0
-585 0
64 -306 0
619 -90 0
-99 406 0
-773 671 0
-622 943 0
921 -902 0
-10 0
-195 0
-15 164 0
53 -370 0
-451 0
-743 0
-633 343 0
-802 0
-20 927 0
-217 0
-421 0
464 -793 0
-783 -540 0
-666 0
-375 0
-541 0
-733 0
-600 0
-334 0
-287 0
-373 509 0
-589 261 0
-798 0
-580 -706 0
-205 0
-44 0
-617 0
-743 -459 0
-701 276 0
-920 -970 0
81 -607 0
-885 -793 0
-550 0
-331 0
704 -501 0
-911 -389 0
-32 501 0
-121 0
-429 0
496 -418 0
-926 -225 0
-313 0
-828 -883 0
-470 0
379 -833 0
779 -820 0
-29 0
-128 0
-136 382 0
-774 110 0
-645 0
-327 475 0
-425 0
922 -997 0
-505 0
-77 0
-286 725 0
-986 0
-336 0
-392 0
-253 0
-769 -33 0
-685 0
-980 -748 0
-388 0
-588 469 0
416 -805 0
-104 -855 0
-380 0
-808 -377 0
-121 79 0
-495 679 0
-381 0
-677 -113 0
-848 913 0
-556 0
336 -359 0
216 -235 0
-26 0
-962 0
-995 319 0
-204 -420 0
-222 0
-927 731 0
-51 662 0
-938 0
668 -154 0
-608 -554 0
99 -289 0
-415 -614 0
-542 379 0
-923 -499 0
-120 0
-606 0
-146 0
-115 -18 0
403 -737 0
-830 0
64 -863 0
-10 0
-225 0
-776 -166 0
-479 -229 0
-276 0
-628 0
672 -71 0
-486 0
-189 -258 0
-120 -555 0
-790 0
-848 0
-986 -897 0
-618 0
-703 -453 0
-301 0
-261 799 0
-244 0
-278 190 0
-70 0
290 -683 0
-686 -818 0
-246 0
-405 0
-669 0
-799 0
-406 0
-920 538 0
-741 0
752 -628 0
-886 0
-152 417 0
-536 -247 0
-953 0
-48 -615 0
-527 0
-999 402 0
-653 0
-331 663 0
-962 95 0
-320 0
-977 0
-617 0
-607 0
-521 0
-515 -385 0
-69 -596 0
-830 0
-860 798 0
636 -651 0
-574 -907 0
466 -337 0
100 -812 0
-880 906 0
-69 0
-433 0
-340 0
-84 -340 0
-704 0
-313 151 0
-216 0
-139 0
-158 -683 0
-576 247 0
-2 0
-197 -613 0
-134 0
-788 0
-428 0
-606 -412 0
-909 0
-606 331 0
-287 0
-403 981 0
-327 -254 0
-972 -330 0
-76 -876 0
-262 -329 0
-386 0
-663 0
40 -325 0
-106 0
-664 0
-580 -268 0
-931 0
-650 0
-989 0
-922 -897 0
-389 0
-931 0
897 -654 0
-62 93 0
-791 130 0
992 -748 0
635 -364 0
-432 0
652 -954 0
-701 0
-29 0
-558 679 0
874 -683 0
328 -383 0
-320 0
229 -849 0
-66 0
-868 0
730 -260 0
-423 0
242 -995 0
-766 0
549 -450 0
-301 0
-579 -554 0
-148 686 0
-572 -83 0
-131 0
97 -178 0
-462 -947 0
-538 0
-889 0
-707 0
-171 0
777 -393 0
-776 0
-110 0
-219 0
-359 -674 0
-79 391 0
303 -577 0
-487 791 0
-358 839 0
-719 876 0
-291 0
652 -532 0
-181 -611 0
-467 941 0
-841 0
-928 0
-273 0
-248 0
-116 559 0
-478 -58 0
-757 -157 0
-334 -836 0
-935 930 0
521 -66 0
-549 0
336 -664 0
-886 0
-731 133 0
-674 0
-170 0
168 -356 0
-386 0
-977 0
-18 0
-993 0
-368 647 0
-195 0
-826 -786 0
-360 0
-749 0
-867 0
-924 0
-66 0
-544 510 0
-545 0
-303 877 0
-298 0
-673 0
-478 0
-271 957 0
-688 0
-48 751 0
-758 342 0
-376 853 0
-832 0
-363 0
-884 0
-919 282 0
-760 332 0
-542 0
293 -745 0
-33 0
-15 -275 0
-574 0
856 -99 0
-61 0
756 -193 0
-797 -586 0
-777 0
-40 -244 0
-999 978 0
-112 607 0
634 -187 0
794 -146 0
-16 -263 0
817 -332 0
-510 0
-171 0
-20 0
-974 -636 0
224 -380 0
-487 0
-822 0
-537 0
-810 -57 0
-919 6 0
-249 0
-749 0
-985 0
-691 0
-800 36 0
-431 318 0
-120 0
-47 -437 0
-918 76 0
165 -83 0
-756 0
-469 0
-859 366 0
288 -305 0
-964 -417 0
-584 470 0
-768 -622 0
-332 0
-162 0
355 -17 0
-111 -406 0
-503 0
-285 0
-850 -801 0
-5 -379 0
-13 -924 0
-638 0
177 -545 0
-708 -617 0
-920 94 0
-32 -127 0
-262 0
-152 0
-398 0
-751 -757 0
-185 0
-179 0
-612 0
-760 -493 0
-355 0
593 -210 0
577 -468 0
-622 438 0
-215 -836 0
-654 563 0
837 -323 0
-911 0
-243 0
-633 0
-201 0
906 -731 0
124 -714 0
97 -267 0
-806 60 0
-28 0
-285 0
488 -330 0
-675 0
-641 0
643 -195 0
-952 -18 0
-173 0
-864 -694 0
-928 998 0
40 -479 0
-439 0
-351 0
746 -246 0
211 -530 0
-863 -218 0
-659 0
8 -799 0
-456 786 0
-988 0
-319 0
-968 523 0
214 -2 0
-653 0
-43 870 0
-943 773 0
-153 -689 0
-323 0
865 -333 0
-719 5 0
-378 0
-688 66 0
-671 282 0
-832 717 0
619 -346 0
-282 0
-129 0
-619 0
349 -771 0
685 -913 0
-517 0
-643 -650 0
147 -649 0
-236 429 0
-518 0
-537 0
-920 0
-508 71 0
-539 -937 0
-573 0
162 -877 0
-158 0
-99 -297 0
-712 0
152 -706 0
80 -731 0
-502 0
-907 0
-584 0
-428 597 0
-289 0
-218 0
-66 0
-262 0
-626 0
-990 988 0
-728 -539 0
-819 0
-5 0
890 -308 0
-458 -522 0
-710 0
38 -465 0
-149 -553 0
-652 0
339 -691 0
-672 400 0
906 -410 0
-352 -111 0
-254 -393 0
-833 0
-750 525 0
-182 0
-229 0
-493 -193 0
-816 10 0
-734 0
-117 0
-302 0
-320 0
-143 -572 0
-584 0
-107 0
-7 -198 0
-759 975 0
-240 0
-669 374 0
-559 485 0
-367 0
-508 0
-961 0
-430 -366 0
-15 -413 0
-270 0
56 -987 0
-65 0
-352 376 0
-653 236 0
96 -792 0
-516 119 0
-363 0
817 -394 0
-116 0
-959 -801 0
-749 -412 0
-667 0
-681 0
-327 0
-487 -310 0
90 -705 0
24 -744 0
-93 751 0
482 -611 0
-279 698 0
-136 885 0
-940 0
-766 -269 0
-39 -265 0
-574 -73 0
-577 0
-411 0
-731 0
-34 -418 0
-611 0
-56 399 0
488 -536 0
-587 391 0
-599 -77 0
-59 326 0
-1000 -847 0
-241 0
605 -945 0
-951 627 0
-748 734 0
-99 774 0
959 -209 0
676 -193 0
-144 0
9 -828 0
-922 0
-25 0
-786 0
-88 280 0
-603 0
-159 0
-136 -165 0
-112 0
-775 -666 0
-554 0
-58 0
-999 0
355 -475 0
904 -993 0
881 -729 0
-608 668 0
-432 -646 0
803 -821 0
-384 947 0
-417 0
-583 377 0
-465 0
-800 0
-262 0
-998 587 0
528 -459 0
-28 0
-245 -881 0
-27 0
-969 0
467 -155 0
-558 -734 0
-15 -574 0
-911 -401 0
-340 -339 0
-35 0
-500 214 0
-494 530 0
-429 -828 0
345 -797 0
-294 -490 0
-264 427 0
553 -907 0
-878 -25 0
992 -174 0
-148 0
-888 271 0
114 -513 0
-726 -260 0
609 -965 0
234 -884 0
-371 0
907 -275 0
-282 0
117 -425 0
-727 339 0
-46 -843 0
-297 0
-42 639 0
-272 0
771 -141 0
-150 653 0
-145 0
501 -194 0
46 -433 0
-4 -147 0
-607 226 0
-741 0
-878 -324 0
-534 0
-763 142 0
-34 598 0
-408 -814 0
-514 -841 0
547 -316 0
416 -203 0
-690 0
-31 74 0
226 -795 0
-83 -393 0
-769 0
-149 -531 0
-693 0
-337 -17 0
-954 0
-464 -255 0
52 -138 0
-112 597 0
558 -890 0
-326 -449 0
-418 0
-732 -172 0
-191 -108 0
424 -868 0
-177 0
-835 999 0
-640 969 0
-212 0
-638 0
-247 0
-389 0
-505 0
-676 0
-189 -59 0
204 -754 0
-669 0
-934 -749 0
-811 0
-533 0
-873 0
-751 162 0
-431 0
-503 0
-299 0
-789 -754 0
779 -258 0
-435 0
-982 -644 0
-18 0
-61 0
336 -818 0
-615 0
-810 79 0
-633 0
-403 0
-152 -596 0
-124 548 0
-735 -471 0
-882 0
-368 635 0
-869 759 0
-570 -641 0
-558 0
-888 -960 0
-532 -67 0
-710 -793 0
586 -61 0
-24 0
-966 134 0
-327 28 0
-486 0
-312 684 0
-529 0
282 -641 0
704 -502 0
-449 0
-449 0
-744 223 0
-399 778 0
-1000 204 0
-308 0
-839 -493 0
-464 150 0
-674 999 0
-40 -273 0
-658 0
-707 0
-300 0
-829 0
-210 0
561 -235 0
91 -300 0
-965 740 0
222 -946 0
994 -593 0
392 -916 0
-420 0
764 -873 0
1000 -454 0
-387 0
-43 0
-561 0
-307 0
-828 -417 0
394 -122 0
-729 0
-182 0
-807 791 0
-908 990 0
-793 0
-668 -369 0
23 -89 0
-984 -565 0
-841 0
-449 0
-535 -630 0
618 -925 0
834 -909 0
-125 340 0
-80 -708 0
-886 998 0
315 -380 0
-413 31 0
-40 -810 0
-150 843 0
-616 -961 0
-195 -649 0
396 -866 0
-536 829 0
-551 253 0
569 -770 0
-88 599 0
-519 909 0
216 -213 0
-375 150 0
415 -177 0
-637 726 0
-218 0
-35 0
11 -346 0
-564 0
-702 855 0
-744 591 0
-153 -889 0
-689 0
-124 -76 0
-845 575 0
-59 462 0
-829 -769 0
-53 0
-520 908 0
622 -721 0
-523 909 0
-675 0
-491 -826 0
-312 -769 0
-422 759 0
-255 -909 0
-603 0
-782 660 0
387 -729 0
578 -572 0
192 -966 0
-7 0
-23 0
-608 0
-727 0
-677 -20 0
-457 0
690 -204 0
-256 -785 0
507 -187 0
-216 433 0
-291 0
770 -890 0
-671 0
428 -714 0
-457 0
-542 150 0
-281 0
-175 821 0
-220 0
866 -11 0
-492 430 0
762 -203 0
-47 0
875 -780 0
-791 -281 0
250 -659 0
842 -740 0
-767 0
-247 -419 0
-16 -109 0
-803 0
-77 0
712 -593 0
-575 0
-590 -36 0
-429 0
-114 0
-228 -420 0
-119 -685 0
-725 -692 0
-620 0
329 -981 0
-604 0
-482 0
-550 118 0
-159 643 0
151 -65 0
-116 -178 0
570 -548 0
232 -273 0
-593 0
-112 333 0
-295 0
-671 -633 0
-56 306 0
-545 0
-605 0
-68 0
-997 0
-414 0
-101 -115 0
-536 -531 0
-188 0
-174 973 0
-847 0
-968 714 0
-912 -887 0
-590 0
-152 -634 0
475 -779 0
64 -857 0
-231 0
-398 644 0
-511 778 0
-792 0
123 -57 0
-191 370 0
365 -859 0
-667 685 0
-366 0
-845 -460 0
-398 794 0
-550 270 0
-621 196 0
-330 0
-885 0
-961 -9 0
-508 -274 0
-825 0
-790 -666 0
-623 0
-749 0
-950 307 0
403 -161 0
-854 0
-685 0
-722 0
-931 0
756 -778 0
-82 0
-850 0
-753 0
626 -234 0
433 -726 0
-973 0
-743 0
852 -683 0
-85 302 0
-901 813 0
-290 0
-36 -980 0
-749 0
-959 0
-521 0
-40 59 0
-429 0
-449 0
499 -732 0
-967 -235 0
-670 0
-643 0
-726 -537 0
-964 0
853 -738 0
803 -473 0
-812 0
-314 0
-286 0
-266 0
-907 0
-390 518 0
-794 0
953 -65 0
-690 62 0
-886 -949 0
-797 0
-468 0
-159 90 0
-564 0
-749 -348 0
-431 0
-784 347 0
585 -154 0
-457 0
-29 0
-599 883 0
-943 0
-384 319 0
-90 0
-425 0
-868 -859 0
-290 0
-581 189 0
537 -716 0
-590 0
-616 771 0
-691 0
-323 886 0
504 -365 0
-732 86 0
268 -994 0
-802 0
-668 0
-960 24 0
528 -519 0
-982 -617 0
704 -175 0
-566 0
-999 -726 0
-175 179 0
-683 0
-560 -191 0
-94 0
252 -74 0
-329 0
-866 0
-749 -396 0
-552 431 0
-442 0
633 -297 0
-536 0
176 -11 0
918 -289 0
-865 0
-507 0
730 -372 0
-742 0
-595 0
-464 -172 0
-783 235 0
289 -542 0
-510 0
-101 -675 0
-774 0
-602 -122 0
-965 293 0
-607 -595 0
-426 -977 0
274 -353 0
-552 0
-23 715 0
-175 556 0
855 -97 0
581 -961 0
-646 -597 0
306 -485 0
-984 851 0
-46 0
-432 0
-756 0
605 -106 0
-216 0
-752 -180 0
897 -358 0
256 -793 0
680 -465 0
-264 0
150 -321 0
-357 -403 0
-277 0
-31 266 0
-230 0
-426 0
-424 596 0
-881 0
-335 426 0
-303 62 0
134 -994 0
612 -460 0
-246 100 0
633 -772 0
-580 0
98 -213 0
-80 212 0
-407 0
-285 0
-221 59 0
43 -634 0
-78 214 0
-261 0
477 -835 0
-717 -306 0
-272 630 0
-460 -708 0
-55 -988 0
-318 0
-333 0
-787 -178 0
-182 0
-972 0
-170 0
96 -251 0
-460 -723 0
-966 703 0
-493 0
801 -502 0
-97 -649 0
-591 -698 0
452 -619 0
-862 -763 0
-934 459 0
-520 182 0
-210 511 0
-41 0
-775 0
-989 0
-776 -53 0
-191 0
-420 -49 0
-444 0
200 -433 0
-182 708 0
-447 57 0
-854 199 0
-862 -461 0
241 -957 0
-359 0
-113 0
-267 -930 0
-941 604 0
-672 340 0
-349 356 0
-778 831 0
-326 277 0
-388 0
-773 0
-611 0
800 -625 0
-248 0
220 -939 0
-496 970 0
-812 743 0
409 -614 0
-517 0
-211 0
-679 -78 0
-981 436 0
-72 0
-837 0
-41 0
899 -75 0
562 -829 0
-303 0
-807 610 0
450 -445 0
-71 372 0
-140 0
-220 0
-188 0
-815 -123 0
-545 -57 0
-434 0
-813 0
-842 -530 0
-498 0
-845 0
-120 0
-848 -502 0
-416 675 0
-23 0
303 -833 0
-763 0
-965 0
-571 0
-995 0
-454 0
-563 447 0
-954 279 0
-62 0
-776 0
-850 0
437 -497 0
-336 -315 0
-804 0
791 -801 0
-772 0
187 -436 0
-204 -465 0
-535 0
-327 -313 0
-584 0
-374 -694 0
-288 685 0
946 -483 0
-615 598 0
-339 0
-876 0
563 -51 0
-170 -466 0
888 -129 0
-199 167 0
-251 0
-272 0
-675 0
-553 0
-738 0
-987 0
518 -953 0
-829 22 0
-253 0
-490 0
352 -813 0
-424 -415 0
716 -211 0
-852 -834 0
928 -1 0
-324 0
-55 0
825 -258 0
-153 0
-119 283 0
944 -982 0
-124 87 0
688 -137 0
538 -850 0
-50 0
-155 342 0
899 -203 0
-957 45 0
-750 0
-444 0
-161 0
-602 0
-198 -516 0
-885 0
177 -85 0
-484 0
-652 -460 0
-63 -6 0
16 -550 0
-533 0
-808 0
-852 0
-689 0
947 -683 0
-239 -135 0
-685 0
535 -377 0
-995 0
-552 138 0
-181 -689 0
-358 612 0
-855 -891 0
-957 932 0
232 -995 0
566 -945 0
-152 -427 0
-427 0
-900 0
-687 -591 0
88 -405 0
89 -383 0
457 -172 0
-285 -705 0
-648 23 0
-420 0
445 -905 0
-815 0
336 -926 0
-615 0
611 -290 0
-816 -461 0
-79 -662 0
-116 0
-535 -27 0
-597 382 0
729 -559 0
-777 0
-216 557 0
-270 0
-82 0
-311 0
-654 -850 0
-992 884 0
-261 0
384 -575 0
-689 0
-738 0
-685 893 0
905 -230 0
-50 0
-344 977 0
-848 762 0
-207 0
-741 0
-473 0
-986 0
-493 0
665 -41 0
130 -603 0
-348 -145 0
616 -77 0
-830 0
-460 0
-808 0
128 -25 0
832 -852 0
185 -453 0
-364 0
565 -897 0
-200 0
801 -169 0
-608 -689 0
-214 -388 0
-558 -795 0
-52 -314 0
-704 93 0
-408 -540 0
-694 0
-63 -356 0
502 -9 0
-168 -900 0
-500 -91 0
245 -617 0
-718 0
-414 0
-808 -588 0
-676 0
-229 0
-942 -945 0
928 -289 0
-556 0
-30 0
-429 -701 0
-288 708 0
-704 0
-484 0
-32 305 0
-140 0
-454 0
-1000 -510 0
557 -730 0
-595 0
-808 0
-202 -225 0
-568 78 0
-860 863 0
-46 318 0
-584 0
-213 0
876 -748 0
-963 0
-127 135 0
-883 119 0
-799 0
-28 0
631 -433 0
-968 989 0
-539 0
-50 0
-883 0
-709 0
-294 -507 0
804 -337 0
849 -841 0
-187 0
136 -338 0
-515 287 0
633 -349 0
-687 961 0
-976 238 0
-559 468 0
-490 0
-29 -365 0
-703 -929 0
-144 -91 0
-398 0
-934 0
-364 -788 0
344 -15 0
-958 0
-781 0
150 -226 0
-308 -619 0
-643 0
-421 286 0
-909 -377 0
210 -777 0
-225 0
-414 957 0
459 -379 0
472 -824 0
-102 0
-542 70 0
397 -217 0
-520 0
-664 -160 0
-616 -443 0
-360 -662 0
-728 65 0
-973 0
-265 0
-685 0
913 -402 0
-336 589 0
-535 0
-296 0
-759 0
744 -905 0
71 -585 0
-957 0
-367 -149 0
-816 0
-215 210 0
-484 0
-552 940 0
281 -27 0
-564 0
-164 -137 0
-552 970 0
-836 318 0
816 -533 0
-965 -427 0
-711 0
146 -77 0
-312 -507 0
-590 0
-643 -122 0
-327 0
-707 0
-13 -700 0
-634 0
-884 -987 0
529 -279 0
986 -173 0
-696 -51 0
-832 588 0
616 -154 0
-891 0
-286 894 0
-412 -641 0
-759 0
-50 0
356 -91 0
-656 0
-831 -645 0
-387 0
-932 0
-997 204 0
-352 -455 0
-663 626 0
-952 0
-433 -17 0
-582 0
-955 782 0
483 -457 0
-838 0
881 -443 0
-975 0
-490 0
-819 -450 0
-94 -162 0
-373 996 0
-127 -244 0
-350 157 0
-599 0
-558 -333 0
-643 0
-511 -107 0
-868 317 0
594 -794 0
395 -491 0
932 -771 0
443 -313 0
431 -553 0
-279 -974 0
26 -331 0
-742 141 0
894 -417 0
337 -483 0
-872 637 0
-860 -130 0
-721 0
552 -633 0
-771 0
-877 -617 0
-40 0
-197 0
-722 0
-144 54 0
-745 0
-447 -427 0
-964 742 0
-366 0
-900 0
-291 0
-261 -884 0
-508 -874 0
-475 0
-738 0
-390 0
-702 0
326 -97 0
-571 0
-15 116 0
-388 0
-428 358 0
123 -427 0
-920 -491 0
-551 -116 0
419 -105 0
35 -581 0
-648 -750 0
-534 0
440 -803 0
-967 0
36 -387 0
-472 -50 0
784 -866 0
-32 709 0
498 -338 0
-752 -784 0
529 -710 0
-611 0
-72 43 0
-519 751 0
-303 126 0
-254 204 0
-979 0
-327 -12 0
-283 879 0
-144 0
-424 719 0
-650 -90 0
-661 -969 0
505 -946 0
-812 78 0
-214 0
-188 -203 0
-564 901 0
729 -310 0
-728 -653 0
-991 921 0
-19 0
-208 739 0
-422 538 0
-530 0
273 -90 0
-828 591 0
-988 -489 0
945 -922 0
-76 0
505 -451 0
-125 0
691 -529 0
-780 0
-586 0
-898 0
625 -950 0
-459 -338 0
-353 0
-398 0
-479 348 0
496 -263 0
-731 -850 0
-408 0
896 -36 0
196 -860 0
-631 111 0
-382 -757 0
546 -308 0
-96 -930 0
-382 0
-208 53 0
-896 -755 0
-867 0
-981 0
-631 -470 0
-484 247 0
-133 244 0
253 -162 0
-369 0
705 -798 0
-157 -549 0
-848 542 0
-922 0
-204 0
-923 0
-87 603 0
-738 0
-795 0
-280 -9 0
-354 0
-443 0
-735 0
-340 0
-343 -882 0
-591 965 0
-474 0
-424 516 0
-872 0
-901 158 0
858 -662 0
123 -621 0
-940 0
-863 490 0
-1 0
-403 0
-200 830 0
-422 980 0
56 -972 0
856 -43 0
-703 -185 0
-732 0
-200 708 0
-645 743 0
-724 982 0
-103 675 0
-715 0
-492 0
-719 -882 0
-902 0
-192 368 0
-733 -665 0
-673 0
129 -87 0
-19 -18 0
-584 306 0
-334 0
-778 0
-450 0
-742 -737 0
-710 -90 0
976 -485 0
413 -337 0
-304 0
-692 326 0
-446 0
-201 0
-424 -298 0
-345 0
-767 900 0
-501 -674 0
-212 -274 0
355 -396 0
-272 -51 0
-311 0
491 -180 0
-462 -781 0
-142 0
-853 0
-400 -555 0
-920 0
-423 0
-93 0
-387 0
-919 -545 0
-527 0
-628 0
-427 0
-500 175 0
-842 0
463 -897 0
-492 0
-952 0
-558 -699 0
-184 0
-461 995 0
-349 0
667 -44 0
-696 -817 0
-64 -599 0
-471 -964 0
-372 0
-15 0
-32 -665 0
-67 0
-489 0
923 -419 0
-56 0
-883 0
-969 0
-848 -79 0
-348 0
-678 739 0
-373 0
-836 0
-487 239 0
-918 -260 0
-942 -205 0
-61 0
-144 0
-619 0
-175 -571 0
-846 0
156 -75 0
-95 -309 0
220 -953 0
916 -177 0
-410 0
-528 -415 0
781 -674 0
-826 0
-726 511 0
-430 -436 0
-474 -505 0
-753 0
-722 0
587 -154 0
417 -287 0
-470 -628 0
-823 27 0
-983 0
904 -201 0
-370 0
-221 0
-824 0
-499 -921 0
-941 0
-749 0
-58 -242 0
-557 0
-831 0
-11 0
936 -426 0
-248 377 0
-889 0
-190 482 0
-152 289 0
-832 878 0
-16 97 0
968 -713 0
-11 854 0
-364 0
-447 -673 0
-903 286 0
-277 263 0
-357 0
626 -844 0
-264 538 0
-163 0
-510 317 0
713 -235 0
554 -51 0
-344 0
-147 798 0
-612 -209 0
585 -778 0
-632 441 0
-495 -225 0
624 -187 0
-576 -989 0
-525 0
-526 -787 0
-910 0
-859 0
537 -325 0
-320 -907 0
348 -67 0
-543 0
-22 831 0
-736 694 0
-878 0
-383 0
-711 0
-391 0
-886 0
-768 253 0
-15 0
-951 -41 0
-622 0
610 -113 0
-823 -10 0
-902 853 0
-300 341 0
-809 0
-100 0
393 -649 0
-746 0
-943 0
-184 857 0
-467 0
-661 -34 0
100 -892 0
-685 0
-676 0
-262 0
-163 -587 0
-824 0
-245 0
-878 -916 0
-663 325 0
-949 -795 0
-759 234 0
-500 605 0
-810 0
-749 -869 0
-528 417 0
995 -202 0
-813 0
916 -386 0
-215 0
-791 -358 0
-565 0
-777 0
231 -697 0
-368 -226 0
-688 461 0
-70 -821 0
-252 631 0
-916 -851 0
-299 0
-683 719 0
717 -482 0
-102 -593 0
938 -33 0
944 -772 0
-311 0
-396 0
-916 -187 0
-711 541 0
-740 70 0
-756 0
-220 0
-102 0
-374 0
360 -201 0
-524 0
-998 158 0
-451 0
-407 891 0
64 -754 0
-837 0
721 -275 0
-709 -701 0
-211 0
297 -670 0
-670 -13 0
-720 200 0
-742 -851 0
-966 0
154 -314 0
-967 -554 0
-267 397 0
-60 -745 0
-916 0
-643 0
-637 0
-946 0
-157 0
-977 0
-544 -502 0
-305 0
688 -248 0
-678 0
36 -617 0
-740 0
-261 0
-102 820 0
-359 250 0
-581 0
-833 0
-987 -297 0
-266 0
369 -662 0
617 -921 0
-998 775 0
-397 -641 0
-868 0
-855 0
-265 0
-811 0
-869 0
-973 0
-815 310 0
-558 -998 0
-305 0
-110 0
588 -491 0
-926 -17 0
-271 -254 0
-670 203 0
14 -57 0
-316 0
676 -428 0
-341 -481 0
-941 -235 0
-623 -101 0
632 -468 0
-841 0
-578 0
-564 -628 0
67 -691 0
-753 799 0
-353 0
-681 0
426 -946 0
-989 572 0
-687 0
-685 0
-504 117 0
-210 0
533 -674 0
-692 -35 0
-237 -466 0
-887 0
-424 0
-248 -357 0
-1000 -869 0
-888 850 0
-796 966 0
-551 0
186 -562 0
689 -682 0
-256 0
-557 0
-318 339 0
-144 0
-800 822 0
-421 0
-47 719 0
-927 -45 0
-16 0
-904 0
-869 -83 0
-102 0
-471 901 0
-533 335 0
899 -65 0
-436 0
-158 -445 0
-264 0
939 -570 0
192 -868 0
522 -186 0
-29 0
-341 188 0
-376 0
-307 0
210 -12 0
-19 0
280 -476 0
656 -413 0
-896 0
-851 0
-955 -667 0
-175 0
-840 -926 0
-183 764 0
-195 -129 0
-788 534 0
-70 996 0
-292 0
-514 246 0
-22 0
-441 0
-884 -242 0
-303 0
-261 0
978 -57 0
-416 -630 0
289 -106 0
-782 0
-514 0
-542 524 0
-680 -798 0
-91 0
923 -337 0
-430 0
976 -946 0
-171 223 0
961 -567 0
-328 -89 0
-116 0
-942 0
-192 0
854 -33 0
-424 727 0
-300 0
-998 0
-463 0
-126 890 0
-633 0
730 -773 0
226 -865 0
-776 0
-134 503 0
-407 -662 0
-463 0
-381 0
-510 -300 0
592 -268 0
-396 0
-616 824 0
-412 373 0
-845 950 0
-936 -908 0
986 -958 0
72 -695 0
-82 0
-15 0
-704 -665 0
-776 -966 0
121 -306 0
313 -275 0
-926 774 0
837 -209 0
152 -418 0
-988 0
-792 486 0
81 -131 0
-81 0
-896 -415 0
414 -650 0
-400 482 0
700 -371 0
-24 0
-295 -625 0
-486 -833 0
-760 0
433 -812 0
-468 0
-360 -281 0
-445 0
-431 572 0
-564 349 0
-325 0
-438 541 0
-751 -297 0
-822 -277 0
832 -740 0
-771 0
-43 0
-766 15 0
-896 -68 0
-896 0
-852 0
-238 0
656 -999 0
574 -682 0
445 -105 0
-555 0
-716 -780 0
-959 0
-141 0
-23 -993 0
-192 0
-863 -234 0
-150 882 0
-518 -634 0
-235 0
485 -945 0
-135 -44 0
-331 -897 0
-696 0
-338 -633 0
-170 0
337 -135 0
-970 0
-770 0
-277 0
-783 645 0
-582 0
-695 -330 0
665 -281 0
-596 813 0
-340 0
-16 270 0
747 -881 0
-800 940 0
-111 -226 0
-180 0
-399 171 0
-757 987 0
-632 -215 0
-427 0
-207 0
-911 0
757 -571 0
-39 226 0
-123 0
-784 -910 0
-339 0
-828 916 0
611 -19 0
89 -642 0
-184 -782 0
336 -734 0
-797 -988 0
-270 471 0
-556 -155 0
-130 0
-992 0
-653 0
-189 0
-503 0
-847 801 0
-679 -28 0
-740 0
-981 502 0
-435 0
-198 0
-755 199 0
-71 -105 0
-567 0
-961 0
-310 -481 0
-678 -237 0
-697 0
59 -27 0
840 -816 0
146 -67 0
-845 0
-681 0
-822 631 0
-758 460 0
-878 -629 0
-549 0
-902 -498 0
-230 -990 0
-535 0
-111 986 0
-434 215 0
-14 0
-796 0
391 -41 0
-402 0
-424 -588 0
-15 0
-958 0
-709 651 0
-908 780 0
873 -492 0
-492 0
-700 13 0
-62 132 0
248 -529 0
-96 -554 0
-516 0
-5 0
-70 223 0
-854 0
-248 434 0
-718 -438 0
-558 268 0
-624 -749 0
-315 0
17 -138 0
-9 0
-591 0
777 -382 0
-991 0
-888 0
-106 0
-604 0
829 -377 0
-369 0
-98 0
-734 0
-455 -540 0
192 -87 0
428 -764 0
-860 100 0
127 -857 0
908 -321 0
17 -930 0
-80 701 0
-843 0
-615 0
-941 150 0
194 -834 0
-207 -957 0
-655 0
-353 0
-533 0
-318 -843 0
897 -300 0
-566 663 0
-614 -676 0
-834 0
-372 -498 0
-141 0
626 -436 0
-283 0
-15 306 0
-164 0
769 -655 0
-567 -620 0
185 -243 0
-712 -401 0
-550 -747 0
-304 -925 0
-657 0
250 -131 0
-495 0
-136 915 0
-490 0
-54 -140 0
865 -635 0
-463 0
-317 765 0
-307 -147 0
978 -811 0
444 -657 0
-419 0
-693 0
-156 822 0
-162 0
-599 101 0
-98 0
-310 0
-816 0
-575 -762 0
-320 -235 0
-72 983 0
-615 804 0
-638 -27 0
792 -41 0
-616 0
-699 0
-429 -329 0
-615 285 0
861 -593 0
-158 -402 0
-439 743 0
-229 0
390 -537 0
856 -886 0
307 -716 0
-570 0
-963 0
-453 0
-907 0
474 -305 0
-442 0
401 -834 0
-998 -140 0
-388 0
-109 694 0
-798 0
302 -2 0
-632 0
91 -682 0
-615 863 0
-76 0
-168 0
-436 0
498 -201 0
-680 531 0
-429 0
772 -194 0
786 -829 0
-87 0
747 -265 0
211 -242 0
-143 571 0
625 -493 0
-771 0
188 -401 0
-691 0
-414 454 0
-55 902 0
-878 0
676 -299 0
472 -435 0
-719 247 0
-920 -338 0
753 -890 0
-815 0
853 -883 0
-944 -117 0
-839 -325 0
576 -252 0
-259 0
451 -308 0
-327 0
-831 0
-523 0
-824 -499 0
-95 0
-613 -450 0
-278 949 0
928 -619 0
-142 0
-854 -769 0
-209 -441 0
-270 0
-910 822 0
91 -354 0
-94 0
-233 -401 0
182 -457 0
506 -317 0
-226 991 0
705 -814 0
-374 613 0
333 -161 0
-196 0
468 -924 0
-223 0
-197 -827 0
-359 -922 0
-546 0
-542 -257 0
-218 0
-988 0
-128 0
-959 0
-517 0
362 -246 0
-190 883 0
-651 -9 0
872 -652 0
82 -585 0
105 -141 0
-281 0
-516 0
-259 22 0
-548 0
-313 0
-85 276 0
-408 0
-909 -682 0
-488 0
-295 -313 0
-152 0
-992 994 0
-62 -857 0
-511 -721 0
889 -853 0
1000 -313 0
-949 310 0
-646 0
-726 547 0
-391 981 0
-200 559 0
-944 890 0
-896 223 0
-519 257 0
-652 734 0
276 -682 0
132 -970 0
-381 -257 0
-549 182 0
435 -163 0
976 -652 0
-456 -165 0
-110 0
-489 -601 0
-184 -558 0
-659 0
-719 35 0
-262 0
-448 372 0
173 -954 0
-142 0
-952 -252 0
-175 685 0
-348 -106 0
626 -123 0
-970 0
216 -98 0
-441 0
-986 574 0
-952 395 0
-758 -158 0
-668 -219 0
846 -113 0
-991 226 0
-611 374 0
-991 0
-377 0
-427 318 0
587 -716 0
-774 0
-44 0
-829 0
-343 0
-408 607 0
-861 0
622 -97 0
-246 -12 0
-564 0
-720 0
-321 -729 0
-967 15 0
-758 -593 0
-886 -915 0
-246 0
-334 0
-311 -942 0
-305 0
-311 -581 0
-784 0
-340 564 0
-667 0
-318 -474 0
37 -42 0
939 -275 0
-703 341 0
430 -625 0
-767 851 0
-732 0
589 -787 0
-558 0
832 -164 0
-324 0
-379 14 0
608 -972 0
73 -598 0
697 -94 0
-854 0
-404 -802 0
-255 -516 0
-698 0
626 -942 0
-735 0
-392 -517 0
-136 0
-951 0
-922 0
-376 562 0
-519 410 0
314 -252 0
-376 -900 0
-45 0
-434 0
-48 -961 0
-988 0
-271 0
-95 -623 0
-893 85 0
-863 122 0
-236 -218 0
-93 0
-501 0
-361 0
-89 0
-22 -509 0
-639 -790 0
412 -169 0
-274 0
-85 -617 0
-4 0
-299 0
546 -81 0
-610 0
-600 0
-711 0
-311 582 0
-997 -564 0
963 -457 0
785 -836 0
-79 0
-469 0
-311 754 0
-464 70 0
-93 -794 0
-446 -747 0
-259 575 0
835 -995 0
-208 0
682 -229 0
-512 -188 0
-919 389 0
434 -539 0
-431 590 0
-672 58 0
-711 0
-88 952 0
-178 0
-296 -820 0
113 -545 0
-311 0
-478 0
809 -75 0
41 -625 0
-591 967 0
-896 0
-345 0
-921 0
-792 0
-181 0
-75 0
-662 0
84 -25 0
-773 0
370 -340 0
714 -123 0
-704 -574 0
-213 886 0
-797 711 0
464 -705 0
958 -65 0
-863 -850 0
-12 772 0
-128 714 0
-807 -850 0
-408 490 0
-131 0
-424 -387 0
-644 0
-410 0
-598 0
-735 942 0
-612 766 0
731 -626 0
-360 138 0
-834 0
-279 0
-110 597 0
-605 0
-986 0
441 -490 0
578 -126 0
-853 220 0
-357 0
66 -202 0
-164 0
-607 0
-878 773 0
-592 0
408 -647 0
-119 0
168 -550 0
-574 990 0
26 -269 0
-5 -362 0
-9 0
-727 716 0
-12 541 0
-910 0
-574 -642 0
-324 0
-681 0
-269 -212 0
-656 830 0
-886 0
-445 259 0
-824 0
-963 437 0
-177 0
-642 0
307 -947 0
-202 0
-86 683 0
-80 0
822 -625 0
-868 -409 0
251 -339 0
-311 83 0
968 -31 0
-422 0
-941 0
-892 143 0
-427 -363 0
-894 0
-878 -453 0
-691 302 0
416 -949 0
-800 252 0
-581 0
-429 12 0
-893 -322 0
-224 819 0
-151 0
-750 -210 0
-680 534 0
98 -66 0
-414 531 0
-749 0
-280 0
-117 0
468 -618 0
-467 0
-322 0
-236 0
-192 0
-972 694 0
-61 -235 0
-613 0
-264 -223 0
947 -465 0
-302 347 0
-175 490 0
427 -714 0
801 -701 0
-780 0
-984 876 0
-943 -950 0
-689 351 0
-719 403 0
-723 687 0
-115 382 0
-47 0
-652 0
-316 -747 0
737 -330 0
661 -170 0
348 -866 0
-54 228 0
-751 -430 0
-138 -738 0
934 -153 0
-934 0
476 -923 0
91 -411 0
-696 -225 0
-18 -417 0
-804 0
-928 322 0
-664 644 0
-636 30 0
-744 0
-139 0
-638 522 0
-303 0
-174 -564 0
-719 -969 0
-744 437 0
-877 0
-190 0
-397 68 0
779 -346 0
195 -60 0
-387 103 0
-205 0
-499 0
-715 -907 0
104 -447 0
-913 0
-776 400 0
-548 310 0
564 -698 0
24 -607 0
-814 0
-527 0
-991 0
-288 813 0
730 -342 0
784 -812 0
-97 0
-219 902 0
153 -618 0
-23 643 0
-788 0
-791 -245 0
-549 343 0
411 -650 0
291 -635 0
-622 0
-816 -823 0
-24 0
-399 0
-478 476 0
-833 0
-117 0
489 -857 0
971 -276 0
-227 0
688 -712 0
-807 172 0
-526 538 0
724 -114 0
-15 0
953 -396 0
-177 0
-855 539 0
-648 -71 0
-184 659 0
-352 -274 0
45 -346 0
-557 0
-572 686 0
-743 -14 0
-212 -675 0
-192 0
-727 315 0
-784 864 0
-256 -751 0
508 -321 0
-945 0
168 -652 0
-509 -785 0
-552 490 0
-804 0
-928 0
-22 422 0
177 -537 0
-687 0
226 -969 0
-271 -44 0
-497 0
869 -929 0
-412 -729 0
-167 -139 0
-942 934 0
-631 0
808 -828 0
-694 -193 0
-238 0
-66 0
-830 -292 0
906 -478 0
-830 0
-242 0
-745 -169 0
475 -433 0
-139 0
-859 0
-639 623 0
-544 -570 0
110 -154 0
-148 0
-306 0
-884 966 0
-576 -433 0
-728 0
-175 0
602 -977 0
-560 0
897 -876 0
-181 99 0
-326 -873 0
961 -402 0
-120 -674 0
-16 75 0
-764 -922 0
-263 0
-520 0
-541 -242 0
-933 0
-172 0
-784 0
-298 0
-903 22 0
-606 0
-727 0
-908 0
984 -183 0
543 -529 0
201 -61 0
-385 0
-487 0
-543 0
-263 0
400 -704 0
-84 0
-134 0
-149 0
-103 -14 0
-480 -895 0
625 -444 0
594 -301 0
-219 0
-346 0
-667 0
700 -250 0
-176 291 0
-869 391 0
-678 0
865 -52 0
-228 260 0
33 -515 0
-480 894 0
-416 0
-750 -109 0
-213 124 0
-303 0
-968 -38 0
-511 0
-365 0
787 -209 0
352 -209 0
-169 0
-715 0
-336 -428 0
-748 295 0
-199 0
305 -33 0
-375 -740 0
-920 0
-85 0
-452 478 0
-626 -114 0
-141 0
-47 0
-900 -252 0
774 -417 0
-694 0
-679 -7 0
162 -786 0
-964 0
-16 297 0
-307 0
-256 0
-815 -93 0
-999 -433 0
876 -388 0
-365 612 0
-150 0
316 -11 0
-183 -317 0
-575 -547 0
-893 0
-29 -770 0
-723 0
-442 0
176 -491 0
-40 -953 0
-309 -377 0
-131 526 0
-696 -76 0
-223 0
-958 0
-837 0
-431 -70 0
-781 93 0
-304 -630 0
-56 554 0
-394 95 0
760 -980 0
-479 90 0
-216 -730 0
-567 0
-239 -354 0
816 -217 0
-440 435 0
-88 -59 0
515 -530 0
-38 0
-504 988 0
37 -562 0
232 -937 0
-247 0
-7 92 0
724 -817 0
-1000 594 0
-543 0
546 -211 0
-276 543 0
-6 -531 0
-569 0
-936 -897 0
-286 -138 0
-574 0
884 -641 0
-703 0
-375 0
-661 0
-743 0
-233 -321 0
-159 0
242 -354 0
-7 629 0
-257 0
747 -521 0
-765 -988 0
-888 -42 0
-993 0
-551 -789 0
384 -467 0
-795 -482 0
-758 0
-471 0
-216 0
-680 -497 0
-285 0
-657 0
-17 0
-892 0
-952 0
712 -866 0
-547 0
-424 -127 0
-745 0
59 -481 0
-359 0
-817 0
523 -733 0
-275 -193 0
-277 0
-728 163 0
-503 207 0
-253 181 0
-476 0
902 -634 0
-386 0
-643 -339 0
905 -299 0
-590 -898 0
-637 -618 0
-623 330 0
-205 0
490 -914 0
-501 0
-961 0
840 -553 0
-461 -459 0
971 -610 0
-981 694 0
-770 0
-467 335 0
-867 0
634 -252 0
-208 0
321 -62 0
-688 0
-900 0
-822 -531 0
-811 422 0
22 -242 0
-23 0
-763 0
860 -353 0
-344 0
632 -177 0
-988 13 0
137 -993 0
809 -891 0
-2 0
-83 0
364 -500 0
-544 682 0
-234 0
-551 0
-61 0
948 -986 0
160 -216 0
-308 0
458 -181 0
-208 833 0
-767 -166 0
-632 -620 0
-895 993 0
441 -617 0
-580 0
537 -458 0
-136 540 0
899 -59 0
-440 0
57 -756 0
-45 -530 0
-759 0
467 -564 0
562 -710 0
-39 -809 0
-836 0
930 -140 0
299 -4 0
-47 -125 0
-183 0
248 -708 0
-335 0
-47 802 0
-90 0
528 -180 0
-471 -810 0
-623 0
-251 -331 0
-728 -165 0
666 -989 0
849 -901 0
-80 -575 0
-88 767 0
-286 0
-115 -434 0
-167 0
-647 -468 0
-494 0
737 -29 0
-403 0
-167 0
-563 -785 0
-722 0
-533 0
-250 0
-494 838 0
936 -483 0
-251 -985 0
-206 0
-533 147 0
-537 -81 0
-86 0
200 -538 0
-628 -244 0
-118 0
282 -637 0
-387 0
-386 -266 0
-41 0
-584 0
-679 0
-40 -790 0
-477 -892 0
-273 0
-71 0
-184 0
-820 0
-749 0
-952 -962 0
-103 -425 0
-205 0
-80 280 0
-850 0
-914 663 0
-247 -11 0
-808 0
172 -393 0
281 -851 0
-783 -17 0
-174 0
-252 0
-832 0
633 -673 0
547 -132 0
901 -553 0
-746 0
-736 849 0
-751 -754 0
-422 205 0
-955 910 0
-847 -541 0
-152 191 0
800 -375 0
612 -355 0
-987 0
-458 199 0
-239 -777 0
-335 -748 0
-202 0
-806 -164 0
-322 -993 0
-322 0
267 -426 0
-950 0
-247 0
-728 -710 0
-557 470 0
-550 0
-833 655 0
-528 0
-846 -910 0
770 -82 0
225 -702 0
-693 -98 0
-152 996 0
-674 0
-933 -114 0
-483 0
-543 -610 0
-372 0
-94 -817 0
-228 0
-662 -605 0
-531 0
-609 655 0
-802 0
830 -322 0
-365 0
-822 387 0
802 -473 0
-771 0
368 -41 0
-224 0
982 -594 0
-655 -763 0
-398 981 0
-658 0
-54 0
-697 887 0
971 -97 0
-950 0
-37 0
-778 0
-792 -131 0
-294 -261 0
-450 359 0
-629 0
-271 -538 0
-644 61 0
-207 -86 0
-146 271 0
-559 0
-871 0
-716 -73 0
-432 0
416 -772 0
581 -570 0
-33 0
-196 0
-717 381 0
547 -596 0
-218 86 0
-873 0
-648 -651 0
481 -62 0
964 -491 0
-776 976 0
-204 500 0
-575 -469 0
-588 0
-57 0
-864 1000 0
-692 -859 0
-877 477 0
-123 -689 0
-486 -546 0
-215 -788 0
299 -365 0
653 -450 0
-350 -996 0
-595 0
-699 0
-632 0
18 -506 0
-313 0
-814 0
-645 821 0
-804 0
-726 0
-922 -458 0
-72 -909 0
-606 -917 0
370 -916 0
-854 734 0
-925 -300 0
-233 0
-232 -275 0
868 -922 0
-275 0
-775 610 0
-225 0
-895 -187 0
-615 167 0
-597 -853 0
-368 270 0
-672 279 0
-583 0
-374 0
-41 0
-30 0
386 -493 0
-580 0
857 -620 0
-971 0
-715 671 0
-374 0
336 -498 0
970 -9 0
-639 567 0
11 -233 0
-71 0
-713 0
-757 -25 0
-48 493 0
-821 430 0
-268 -586 0
-56 557 0
-210 0
-871 0
-565 915 0
-64 -124 0
-509 -946 0
-689 0
-503 0
246 -289 0
996 -465 0
-688 0
-885 -674 0
-518 0
-132 509 0
-332 -867 0
-502 -643 0
-599 0
373 -171 0
-500 -441 0
-100 388 0
-498 751 0
-858 0
-491 0
-290 0
321 -617 0
-531 0
-872 925 0
-960 742 0
896 -269 0
-421 0
32 -760 0
-385 0
-24 820 0
307 -148 0
-402 0
490 -77 0
-272 797 0
-584 526 0
-273 0
-842 0
-686 -780 0
-191 811 0
-819 23 0
-916 0
632 -337 0
-588 303 0
-167 -605 0
924 -345 0
-688 -631 0
-879 0
-768 0
-877 0
-893 0
-816 370 0
692 -697 0
-884 0
-609 0
-410 783 0
-796 0
196 -771 0
-302 -709 0
-267 0
-376 0
-952 -491 0
-365 -329 0
-316 -75 0
-150 -108 0
-716 0
-345 0
-82 -409 0
-743 -988 0
546 -140 0
-705 0
-627 0
-240 -6 0
571 -315 0
-259 0
-977 0
-523 902 0
-64 -446 0
-767 0
-952 -911 0
-552 -595 0
-568 0
-758 -35 0
-345 0
915 -228 0
-611 0
-95 0
-191 549 0
-677 0
-880 972 0
-351 -369 0
-29 -169 0
-691 0
-448 498 0
-556 -65 0
-881 0
360 -150 0
-92 0
465 -889 0
-876 0
-85 254 0
9 -43 0
202 -786 0
-24 0
-318 0
-614 0
-991 604 0
124 -532 0
-919 0
-510 378 0
-560 833 0
961 -459 0
-798 -517 0
-429 0
-885 443 0
-407 -494 0
-836 0
632 -9 0
-881 0
-646 0
-130 0
-456 -948 0
-644 0
-49 0
136 -390 0
-465 0
-463 0
-56 683 0
-794 0
-367 -905 0
-100 -145 0
179 -771 0
426 -801 0
-828 101 0
-646 923 0
146 -221 0
-537 0
-669 0
-104 815 0
-127 0
-336 421 0
-55 196 0
-184 342 0
-595 0
-404 0
-678 -361 0
-7 595 0
-880 422 0
490 -85 0
65 -649 0
-776 0
-16 461 0
-63 124 0
-519 390 0
-437 -308 0
-530 0
-340 -906 0
345 -75 0
579 -107 0
288 -403 0
-277 -755 0
178 -236 0
-918 -45 0
-122 0
-468 0
289 -588 0
-424 854 0
-324 549 0
-273 0
630 -201 0
-618 766 0
-419 -833 0
-720 312 0
-190 -930 0
549 -35 0
-214 0
290 -739 0
-16 0
-448 186 0
-582 220 0
-548 0
-404 0
-272 -227 0
940 -465 0
-853 0
-444 0
-356 0
-243 887 0
-32 0
-779 -145 0
-862 604 0
-726 235 0
-72 817 0
-461 -459 0
-101 -458 0
-565 0
508 -882 0
-466 0
515 -859 0
-565 0
-139 0
-549 -313 0
720 -19 0
-565 -697 0
-289 0
-2 0
-27 -673 0
-163 0
-317 455 0
-331 0
-921 0
105 -391 0
403 -25 0
-392 0
-353 0
-677 -973 0
-627 0
-340 -604 0
316 -121 0
347 -33 0
-910 -906 0
-509 0
-124 389 0
-204 -931 0
-301 790 0
776 -261 0
-344 -673 0
633 -906 0
-954 415 0
-653 -243 0
-402 207 0
-530 -153 0
-816 966 0
-516 0
-583 -126 0
-886 -225 0
-253 0
-270 0
-116 -996 0
-866 0
528 -107 0
-299 0
-672 397 0
-155 0
696 -975 0
-251 0
-13 -363 0
-683 0
42 -338 0
-705 159 0
700 -937 0
-932 -20 0
-289 0
-59 0
-91 -377 0
-765 293 0
530 -950 0
-275 167 0
880 -88 0
-452 -28 0
-111 954 0
520 -111 0
-398 127 0
-654 0
507 -899 0
-559 -315 0
-909 0
-527 546 0
-220 0
-502 76 0
867 -203 0
-481 0
929 -11 0
-653 -589 0
-790 890 0
878 -401 0
-660 0
-608 -825 0
-231 275 0
-507 0
-623 -249 0
-603 0
-106 0
-629 623 0
-858 -129 0
-797 0
320 -339 0
528 -354 0
-846 467 0
-821 507 0
-363 0
-5 0
-396 414 0
-341 493 0
-82 0
-100 541 0
-515 -90 0
-376 0
694 -786 0
-804 0
264 -799 0
-34 0
-405 -201 0
682 -802 0
640 -99 0
-876 814 0
-935 0
-448 219 0
-39 707 0
-790 0
704 -315 0
-160 0
-729 0
-299 0
-828 0
-447 0
-855 -969 0
379 -402 0
-741 0
-976 940 0
-342 0
91 -521 0
-488 -721 0
-874 0
264 -903 0
933 -851 0
-179 -209 0
-646 0
-906 0
323 -892 0
845 -810 0
-252 0
-47 965 0
270 -161 0
-677 -969 0
151 -369 0
-752 -98 0
-719 -669 0
653 -953 0
-593 0
-408 0
-928 -829 0
-134 0
-512 0
-643 -474 0
-876 -91 0
-448 0
-502 -940 0
-215 -691 0
-52 718 0
-243 854 0
-654 0
-982 0
-494 0
-672 661 0
-700 0
-413 -361 0
-94 0
-259 0
-227 0
-986 0
-861 468 0
-110 -107 0
-868 -970 0
496 -300 0
-827 0
-158 -258 0
792 -159 0
-895 991 0
-316 -370 0
-328 -127 0
426 -587 0
-262 -332 0
-207 515 0
-467 0
-703 807 0
-279 0
-407 0
-702 0
-662 -221 0
-437 0
-247 0
354 -531 0
539 -281 0
-423 -157 0
841 -642 0
-768 -452 0
-791 603 0
-32 68 0
-590 0
-588 -851 0
-750 0
35 -915 0
-959 -708 0
-61 412 0
-154 0
-832 -449 0
-70 0
-405 -299 0
570 -811 0
-905 0
-200 0
-14 0
232 -453 0
-951 0
-318 542 0
-418 -433 0
497 -465 0
-391 0
-258 543 0
-28 535 0
-725 -555 0
-160 123 0
337 -871 0
-383 -962 0
-717 -637 0
521 -155 0
-536 -118 0
-726 572 0
-554 0
-811 0
-559 0
-720 332 0
-388 0
-72 0
-132 -481 0
-208 -199 0
528 -139 0
-295 469 0
-736 0
21 -650 0
801 -741 0
-674 0
924 -721 0
-262 -473 0
-215 499 0
-50 367 0
-274 0
-943 886 0
-68 -361 0
-896 0
592 -811 0
-423 -479 0
-464 225 0
-240 -255 0
-912 -749 0
506 -913 0
-372 -513 0
-931 422 0
-239 -425 0
-876 0
-792 51 0
-800 182 0
-258 0
-540 0
-621 950 0
-827 -809 0
-194 215 0
-416 -902 0
-973 38 0
-612 807 0
-619 0
-390 0
308 -962 0
91 -955 0
-5 0
652 -186 0
-589 0
-776 430 0
-124 0
410 -844 0
20 -538 0
306 -52 0
816 -550 0
949 -722 0
-35 0
-112 0
-43 0
712 -91 0
-429 0
-311 -526 0
-600 -927 0
474 -938 0
-736 -468 0
-783 -925 0
-27 0
-262 -865 0
-139 47 0
-937 0
-351 410 0
113 -89 0
-750 0
-850 0
-103 -222 0
-541 -946 0
-104 717 0
-359 564 0
-421 0
-63 0
-608 -995 0
-243 0
19 -609 0
888 -707 0
-240 0
-104 -82 0
-419 -51 0
-892 0
456 -250 0
896 -815 0
66 -165 0
-615 -770 0
-507 670 0
-567 -539 0
-949 -441 0
-574 0
-845 525 0
-966 0
970 -993 0
-706 423 0
-189 0
555 -985 0
-756 213 0
-487 0
-341 773 0
291 -820 0
-285 0
-54 0
-757 -621 0
-238 0
212 -737 0
-950 573 0
-329 0
-38 -618 0
-226 0
-284 -682 0
583 -905 0
-571 -233 0
-140 -196 0
-696 0
-987 0
-415 -738 0
-550 -382 0
-148 0
-295 955 0
691 -202 0
-867 0
569 -933 0
513 -307 0
-35 -147 0
80 -988 0
-808 137 0
-253 -749 0
-845 0
869 -249 0
265 -675 0
-788 0
-616 0
-446 308 0
-218 -58 0
-680 186 0
-477 796 0
784 -919 0
-791 0
-64 0
569 -310 0
-680 -110 0
-279 92 0
-193 0
48 -832 0
987 -276 0
896 -600 0
-166 0
424 -510 0
-966 0
-66 0
-4 0
-823 0
741 -690 0
-500 0
-7 -699 0
-750 0
-236 0
-818 0
-12 -233 0
-172 -650 0
-683 0
-766 0
-182 -531 0
-549 211 0
-438 -885 0
-696 -318 0
-895 0
-220 -563 0
-201 0
-51 0
-196 -481 0
-942 -2 0
258 -93 0
-798 0
-685 -436 0
-123 0
-169 0
376 -887 0
906 -234 0
-588 910 0
-881 -641 0
-694 0
-943 0
99 -133 0
577 -441 0
-716 0
-255 -381 0
-410 0
212 -972 0
-634 0
-888 383 0
-666 0
-144 79 0
-557 0
-176 0
-816 0
-907 0
-573 12 0
-181 -892 0
-104 -228 0
-44 0
-285 0
883 -323 0
-248 0
-461 0
371 -924 0
-985 0
-378 0
-310 -433 0
-512 846 0
-958 0
-924 0
-359 0
-930 0
226 -932 0
-911 877 0
-461 0
-509 0
-729 0
-873 0
-902 0
-565 244 0
-746 0
-208 -65 0
-853 -754 0
344 -125 0
-591 -324 0
-199 0
-174 -766 0
-692 0
630 -594 0
-695 379 0
-247 -206 0
-894 635 0
-223 -60 0
-189 0
-928 0
-392 -826 0
-827 0
217 -28 0
-22 0
-553 0
-999 -757 0
-672 -769 0
-168 481 0
-463 422 0
624 -352 0
-684 998 0
-10 0
-413 0
-631 515 0
-839 -665 0
-42 0
-865 0
-870 -538 0
-175 0
-278 0
-686 -108 0
-352 -549 0
-561 0
-893 -36 0
-612 0
-590 -622 0
-572 503 0
58 -683 0
-815 0
-33 0
-572 0
940 -587 0
-661 0
-391 -209 0
-759 -846 0
-370 999 0
-272 -867 0
-923 0
-839 459 0
-232 885 0
-515 0
-423 -238 0
-627 0
-656 -304 0
-103 0
-842 0
-365 0
-495 0
-740 0
-192 0
-174 -761 0
-749 0
-78 159 0
-136 -260 0
-246 638 0
-469 0
-987 0
-508 -211 0
426 -613 0
953 -249 0
952 -802 0
-430 0
-614 -43 0
-259 0
-694 0
-397 0
-201 0
-560 0
422 -226 0
979 -787 0
-136 -66 0
-639 -465 0
-590 0
744 -365 0
690 -430 0
-200 0
-558 -325 0
122 -958 0
568 -427 0
-168 483 0
-731 -137 0
297 -57 0
-630 22 0
842 -705 0
-107 0
841 -225 0
-454 0
-254 60 0
-573 -956 0
-487 0
-581 476 0
-437 -148 0
-876 845 0
-40 207 0
-836 524 0
-699 -649 0
-288 0
-518 0
-493 0
-523 405 0
208 -670 0
-5 0
-968 10 0
-856 -947 0
370 -962 0
-23 997 0
-31 0
-282 335 0
-687 -108 0
-783 0
-160 0
-755 0
-486 -941 0
-393 0
-520 -724 0
-347 0
-624 662 0
-725 0
-561 0
-128 -875 0
-519 0
-728 0
-814 -387 0
-735 0
-960 -697 0
-279 290 0
898 -874 0
-702 -609 0
-870 391 0
-719 482 0
-19 0
-892 0
-510 0
-30 0
-667 222 0
-675 943 0
435 -892 0
-223 0
-830 -577 0
-405 643 0
-255 599 0
-318 -963 0
-620 0
226 -211 0
-327 157 0
-278 0
-222 0
-190 0
-811 0
-595 -218 0
-613 0
-86 0
-670 0
-13 0
-940 -578 0
321 -743 0
-863 -509 0
141 -249 0
-140 316 0
-117 0
874 -990 0
-883 -833 0
-472 -806 0
-34 0
369 -875 0
88 -522 0
-909 0
936 -626 0
-257 919 0
-246 0
-708 0
-411 0
859 -538 0
-320 870 0
-134 138 0
-412 0
-137 0
-549 0
-242 750 0
-396 535 0
-88 958 0
-883 215 0
619 -849 0
-708 0
-142 292 0
106 -826 0
-160 235 0
-556 -443 0
-871 -228 0
-407 -833 0
-407 0
560 -613 0
-747 0
-228 0
-564 0
-490 -746 0
963 -537 0
-976 366 0
-427 -18 0
-3 0
537 -508 0
-463 -188 0
-168 0
-169 0
722 -186 0
-831 -279 0
-230 -622 0
-621 0
-34 319 0
-992 -653 0
761 -356 0
-221 0
-150 -993 0
-920 -163 0
-154 0
-167 -303 0
-920 0
-191 0
-187 614 0
969 -517 0
-131 0
-863 -906 0
-980 -147 0
-41 0
-134 -501 0
-200 -357 0
43 -821 0
-259 -954 0
-870 0
598 -434 0
-676 719 0
-280 -803 0
-983 0
186 -363 0
545 -777 0
-543 -478 0
-940 597 0
-679 0
-182 197 0
-545 0
-288 542 0
-889 0
552 -122 0
-267 -522 0
-955 0
-591 -299 0
432 -514 0
-791 878 0
408 -791 0
-855 -385 0
121 -425 0
-831 652 0
-242 0
792 -9 0
-679 423 0
-12 0
-955 -41 0
-50 0
440 -490 0
-68 0
-288 0
-300 -113 0
-566 0
841 -204 0
-324 646 0
-234 -873 0
-390 -171 0
-97 0
-970 0
-104 0
-189 0
-819 -986 0
-332 -586 0
-215 235 0
-838 -145 0
-115 0
-776 539 0
-398 0
-655 162 0
-524 0
-176 0
-875 0
-11 -635 0
-514 -921 0
-503 -220 0
556 -673 0
876 -49 0
-701 0
59 -116 0
-415 412 0
-722 0
-869 0
-519 260 0
-575 0
-216 -993 0
584 -633 0
-42 655 0
-471 0
-358 0
-989 0
-303 -390 0
-270 -317 0
-237 0
-728 0
-658 0
-237 0
-953 -545 0
-605 486 0
764 -602 0
-575 0
-928 -268 0
-846 -827 0
-654 807 0
-664 0
-368 -521 0
-869 -417 0
-728 0
-652 0
-152 565 0
-155 0
-446 0
-671 -164 0
-822 0
-373 -586 0
-411 0
-346 0
554 -2 0
-650 103 0
-156 0
-571 0
-159 -62 0
426 -122 0
-486 -193 0
-893 0
-118 0
-231 634 0
-662 -673 0
-542 0
-934 742 0
-474 0
-796 358 0
-749 0
101 -322 0
-375 381 0
-8 -208 0
-530 0
-404 0
-872 -865 0
449 -635 0
-250 0
667 -341 0
-945 0
305 -386 0
-926 0
-518 -76 0
792 -806 0
682 -323 0
-821 214 0
605 -993 0
-448 0
-188 743 0
-550 0
-589 -25 0
-48 0
-466 0
716 -940 0
69 -658 0
32 -194 0
206 -905 0
480 -998 0
-627 0
-114 0
-525 0
-448 0
-215 365 0
-928 0
-719 -332 0
-475 655 0
688 -438 0
-152 285 0
-26 542 0
-916 0
-342 -548 0
-158 0
731 -867 0
-820 140 0
-535 -829 0
-334 514 0
773 -650 0
-888 0
-29 -866 0
-368 -842 0
-518 0
-720 -594 0
-411 997 0
-726 563 0
108 -665 0
-895 -743 0
-790 -995 0
323 -481 0
-668 413 0
432 -265 0
776 -827 0
-118 -770 0
-389 -578 0
-900 0
-349 -49 0
-263 0
-40 0
-80 -234 0
-384 0
915 -909 0
-660 0
-873 0
996 -690 0
-34 0
-80 642 0
-680 758 0
554 -682 0
434 -414 0
-774 -35 0
-33 0
-496 -388 0
-861 0
544 -154 0
-556 -889 0
-449 0
-286 0
-230 165 0
-930 -402 0
-126 0
-547 0
-366 0
-863 -394 0
-958 846 0
-299 0
-823 783 0
-787 0
-664 0
-918 252 0
-943 -75 0
-387 0
-433 0
-414 0
-85 0
418 -283 0
-858 0
72 -360 0
-183 729 0
61 -459 0
441 -834 0
-838 -693 0
-322 -346 0
-631 95 0
-526 0
764 -834 0
745 -271 0
-36 733 0
-708 15 0
-720 629 0
154 -97 0
-926 0
-672 -624 0
-279 -815 0
-443 0
-883 0
-366 323 0
-150 0
-486 -155 0
-599 -372 0
-927 -187 0
481 -993 0
-772 0
-266 815 0
-766 787 0
-907 0
-112 0
-458 0
-927 0
-550 95 0
-205 -3 0
-142 334 0
-189 -138 0
664 -911 0
496 -172 0
-661 0
-495 0
-711 0
-159 422 0
-468 0
257 -463 0
-917 0
-332 -387 0
-383 58 0
81 -746 0
-8 954 0
-771 0
-675 0
-472 227 0
-805 0
-942 78 0
769 -211 0
-93 695 0
-290 0
-606 0
-764 0
-169 911 0
-150 351 0
-450 0
-688 0
-768 0
-746 0
-754 0
-979 -162 0
-71 -223 0
-723 0
-818 895 0
-684 284 0
-292 0
98 -508 0
-921 0
-318 -634 0
-546 0
-681 0
-806 0
176 -206 0
-499 0
-257 295 0
-160 930 0
-260 -50 0
299 -146 0
-503 0
644 -866 0
-34 0
-510 0
30 -273 0
-856 0
-484 0
800 -605 0
-128 0
-540 0
-848 -439 0
-348 287 0
-189 750 0
-526 462 0
-747 990 0
-977 -649 0
841 -183 0
-102 935 0
-191 941 0
-976 0
906 -338 0
-531 901 0
-216 0
-601 0
-552 0
-486 -246 0
-548 764 0
-654 0
-37 372 0
-64 -492 0
-206 438 0
-526 0
-781 0
-582 -773 0
-997 0
593 -465 0
-172 -419 0
-267 0
-391 -913 0
-884 780 0
346 -537 0
-931 0
176 -429 0
-24 0
-368 0
-727 -871 0
-280 219 0
-469 -21 0
-321 0
-513 0
-718 -810 0
738 -739 0
-870 0
-611 0
-917 807 0
-42 0
-350 628 0
-900 0
600 -828 0
-932 0
-767 -146 0
-423 106 0
-841 0
-264 0
-510 877 0
-711 -23 0
-975 -150 0
200 -561 0
-918 0
-771 0
-79 0
-382 0
-625 0
-8 -417 0
-531 0
220 -785 0
-632 0
-375 371 0
-923 318 0
-456 0
-493 -620 0
-321 0
716 -555 0
-647 126 0
-445 751 0
-659 -18 0
-262 -742 0
-917 -812 0
221 -58 0
672 -30 0
-968 960 0
-483 -587 0
217 -389 0
-582 0
-914 0
-13 0
-782 0
-951 889 0
-843 0
-542 -357 0
-898 0
-448 196 0
-911 0
-134 338 0
-582 0
-221 567 0
206 -385 0
496 -148 0
892 -411 0
-700 0
-851 -129 0
-378 -282 0
-926 0
-422 0
-416 55 0
453 -411 0
-784 180 0
888 -395 0
-592 -241 0
-612 0
-306 0
-436 -898 0
-876 0
-773 0
9 -655 0
-303 722 0
-709 797 0
-946 0
-54 -92 0
-229 187 0
129 -306 0
-823 -577 0
-571 679 0
760 -172 0
-576 0
200 -900 0
858 -306 0
-740 703 0
-591 0
635 -154 0
-708 0
-148 -852 0
-698 -473 0
865 -921 0
-939 0
-76 -642 0
-646 636 0
-425 0
184 -625 0
-952 0
906 -693 0
-148 901 0
-983 -118 0
-311 229 0
-96 -765 0
-863 -598 0
-628 0
658 -945 0
305 -634 0
-73 0
-960 186 0
-5 0
-497 0
304 -857 0
-976 -429 0
917 -611 0
180 -754 0
-180 0
-805 -563 0
652 -17 0
-790 -978 0
-759 757 0
-683 215 0
-246 -531 0
-641 0
-749 -124 0
392 -699 0
-399 -234 0
-122 0
-587 0
-881 0
-826 0
-319 -196 0
-152 0
-964 0
-449 0
712 -752 0
594 -892 0
-96 496 0
-634 0
-775 0
-748 -666 0
-798 0
-396 0
-185 0
-223 0
-433 0
84 -578 0
178 -604 0
-504 67 0
-318 701 0
428 -331 0
-748 -986 0
-257 0
322 -169 0
-309 678 0
-32 0
-922 0
-211 0
-536 -499 0
-421 653 0
314 -445 0
-752 -930 0
627 -356 0
-155 -121 0
-355 -514 0
-444 -962 0
232 -295 0
-304 -976 0
-210 247 0
314 -762 0
625 -837 0
-627 0
475 -668 0
120 -739 0
-4 -195 0
-390 0
28 -777 0
-61 982 0
-581 0
-733 0
-140 0
-183 0
-865 0
-679 -548 0
-63 0
810 -826 0
-53 -818 0
-181 -812 0
874 -954 0
-516 0
643 -905 0
-734 -717 0
-421 -323 0
-127 -977 0
-384 -28 0
-160 527 0
-206 0
-40 381 0
-479 -7 0
-88 192 0
-216 660 0
-430 -4 0
483 -586 0
-239 990 0
-815 0
-913 0
948 -417 0
-669 0
704 -912 0
250 -923 0
-353 0
355 -9 0
433 -198 0
170 -525 0
-488 739 0
-400 0
-677 174 0
-144 231 0
-981 0
-971 54 0
-31 0
-704 815 0
-304 783 0
872 -743 0
-784 -671 0
778 -651 0
-469 -490 0
-61 -610 0
-447 0
-5 0
-27 0
214 -929 0
-801 0
704 -191 0
-773 0
480 -866 0
-589 0
-89 0
-698 479 0
-466 0
-21 -972 0
-847 874 0
-681 0
-215 -77 0
-586 0
-823 852 0
-871 -337 0
-727 970 0
-348 0
-58 -665 0
-342 0
-174 -258 0
-373 0
-939 0
-576 809 0
-586 0
-291 0
-852 0
931 -306 0
240 -30 0
-893 -41 0
-317 0
-667 -906 0
-727 -975 0
-877 -779 0
-555 0
726 -273 0
-109 0
-257 0
-632 26 0
777 -578 0
-144 812 0
-616 269 0
-812 -121 0
-720 817 0
-621 -659 0
-116 0
-71 -470 0
865 -798 0
-98 0
655 -393 0
-801 815 0
-314 143 0
-360 0
-455 -887 0
-606 388 0
-569 -337 0
-203 0
-252 0
265 -289 0
-738 487 0
-835 0
-16 17 0
-455 -805 0
-944 0
-696 -240 0
-47 -348 0
-572 -891 0
-415 0
-817 0
-280 -892 0
376 -991 0
-669 0
-533 0
-803 -298 0
-984 506 0
-11 0
-472 0
-728 -404 0
-610 0
97 -121 0
-351 0
-758 0
-473 0
-590 0
-45 -449 0
-658 0
659 -571 0
-799 0
-127 -868 0
-872 -625 0
-25 0
496 -3 0
-572 0
-70 0
-775 -986 0
-846 -794 0
-737 0
-583 0
-557 406 0
849 -595 0
-229 -713 0
-206 0
958 -586 0
-900 0
722 -532 0
-530 0
162 -893 0
-484 -65 0
379 -69 0
-461 0
-800 -307 0
-691 0
-202 0
-181 0
255 -737 0
-33 0
-663 694 0
-616 -586 0
-896 233 0
-957 -417 0
-864 283 0
-158 558 0
-222 0
-243 0
-293 653 0
-573 0
-564 -803 0
-907 -650 0
-838 0
666 -858 0
-105 0
-553 0
-276 0
-868 -801 0
601 -813 0
-296 732 0
-130 -905 0
-160 535 0
-837 -753 0
-647 0
49 -156 0
-852 0
752 -703 0
-805 261 0
-237 -29 0
-663 211 0
-299 0
610 -148 0
405 -329 0
-364 0
-488 0
-534 0
-733 -298 0
-380 -948 0
-995 0
-749 0
-197 325 0
452 -818 0
-50 334 0
-774 198 0
-864 -307 0
825 -473 0
-243 0
-444 -994 0
-478 -988 0
-872 0
-628 910 0
-573 -212 0
632 -473 0
-334 0
-405 0
-352 0
-486 -996 0
557 -971 0
-754 0
-428 -122 0
-630 -716 0
-171 0
771 -289 0
-69 507 0
-272 0
-788 -761 0
466 -934 0
-350 -259 0
-667 -306 0
-149 -948 0
-749 0
-799 0
-791 -825 0
-702 -537 0
-117 -836 0
-955 0
-78 0
52 -450 0
-137 0
-182 287 0
448 -501 0
-28 0
896 -979 0
737 -539 0
-833 0
395 -276 0
483 -803 0
-575 -794 0
128 -532 0
-309 -251 0
-588 -355 0
-837 -707 0
300 -690 0
597 -482 0
-396 0
-108 -467 0
-731 183 0
-448 447 0
-814 692 0
-837 0
-192 408 0
-890 751 0
-597 -268 0
-293 -637 0
-829 -538 0
-950 267 0
-900 599 0
-100 0
-618 959 0
48 -881 0
-756 0
-776 0
-632 0
-127 0
-388 588 0
-894 -452 0
-836 0
-225 0
408 -187 0
-685 -333 0
267 -237 0
-933 -660 0
-249 0
-757 987 0
-351 -135 0
-308 876 0
-380 0
-40 0
-264 0
-959 -186 0
-921 -49 0
-467 0
852 -714 0
-465 0
-890 0
-921 0
-430 0
-380 0
-273 0
-155 0
-901 -603 0
-463 0
344 -592 0
-256 713 0
-734 0
-508 583 0
616 -645 0
-336 180 0
-224 -208 0
-207 338 0
33 -471 0
-230 999 0
-709 0
-590 101 0
-143 998 0
-430 0
-103 479 0
348 -297 0
-781 0
885 -666 0
-539 0
-868 -324 0
-462 0
-375 -394 0
-450 607 0
-957 -364 0
-816 -42 0
-952 561 0
-139 -9 0
-256 0
266 -789 0
-632 412 0
699 -489 0
-91 0
-509 -525 0
-34 0
-350 -997 0
-304 0
-982 166 0
-496 0
-786 0
-764 -529 0
-966 0
17 -243 0
-758 0
-102 -867 0
-261 734 0
-396 0
-837 -844 0
-403 0
-176 -163 0
-591 646 0
-443 207 0
-635 846 0
-857 0
185 -76 0
-538 0
-508 326 0
-69 45 0
-277 0
16 -322 0
-623 827 0
-78 -34 0
-764 0
-947 0
-288 0
117 -329 0
-291 0
-647 -469 0
-963 0
-715 -130 0
-142 0
-479 0
-620 0
-469 245 0
-146 0
-777 0
-544 0
-881 0
-203 94 0
-713 0
-895 -559 0
-693 964 0
-208 0
-358 0
-984 0
-983 0
-627 0
411 -18 0
-175 0
-506 0
-541 0
-587 0
-641 0
340 -426 0
945 -754 0
-211 566 0
320 -868 0
-734 947 0
777 -708 0
-370 0
-212 0
-560 0
-670 959 0
-672 -959 0
-979 0
-726 -989 0
-176 -655 0
-926 -34 0
-536 0
844 -50 0
-599 -542 0
-254 -203 0
-552 -932 0
763 -409 0
-942 -444 0
396 -25 0
-984 0
592 -766 0
-391 -921 0
-887 931 0
-673 0
265 -961 0
-728 853 0
-530 0
-648 0
-614 813 0
-669 0
356 -905 0
-435 0
-431 -119 0
-707 0
-712 -897 0
480 -364 0
-137 0
-856 0
-48 242 0
-775 -199 0
-150 0
-628 0
-547 0
465 -671 0
-435 799 0
-270 0
-603 0
-118 702 0
-687 0
921 -554 0
-755 0
-666 0
128 -799 0
-296 732 0
210 -285 0
712 -827 0
-597 509 0
-558 939 0
-368 0
352 -504 0
560 -157 0
-1000 -951 0
-441 0
572 -385 0
-972 -954 0
-821 0
-141 -637 0
728 -227 0
-979 0
-349 358 0
-992 0
-237 0
-447 0
-71 665 0
-471 0
-397 0
233 -930 0
-152 517 0
-123 6 0
-742 989 0
-262 -594 0
-328 0
-309 0
-395 0
-359 0
-952 -298 0
-10 0
-236 0
-710 717 0
-678 0
694 -490 0
-406 0
-69 0
-864 0
-274 -457 0
-659 0
-581 0
-604 469 0
-82 0
-556 -194 0
-618 0
-268 566 0
-84 415 0
-346 0
66 -798 0
76 -979 0
-142 -692 0
-16 -848 0
-223 0
-260 0
-864 -247 0
-799 0
-260 0
-605 0
-995 -674 0
517 -419 0
-779 910 0
232 -75 0
-830 850 0
-389 759 0
-236 294 0
780 -378 0
921 -11 0
749 -121 0
17 -647 0
-674 0
384 -470 0
-368 -684 0
-184 0
-983 -527 0
-525 228 0
-42 0
-132 -436 0
601 -490 0
752 -738 0
-184 -827 0
-340 -771 0
-82 0
-493 0
-318 -204 0
-961 0
416 -308 0
399 -273 0
-77 -282 0
448 -382 0
-821 0
-297 0
-432 -282 0
-246 0
200 -2 0
-200 668 0
-134 0
-372 85 0
737 -967 0
-948 -18 0
-429 -228 0
-874 566 0
-905 0
186 -662 0
-983 -426 0
-907 -601 0
621 -113 0
-743 0
-477 260 0
-974 635 0
-416 310 0
371 -658 0
-363 0
-222 0
-494 213 0
-519 403 0
-960 -491 0
-257 0
-822 0
-592 248 0
809 -652 0
-239 -489 0
867 -573 0
-344 0
-625 0
-561 0
-1000 -749 0
-38 -153 0
-427 0
-765 -365 0
-146 790 0
-534 564 0
-787 0
-118 -713 0
-175 -338 0
-184 0
-761 0
-231 -18 0
-502 0
-327 556 0
-515 0
-520 0
-950 -333 0
792 -448 0
-918 0
-149 340 0
-644 68 0
-661 0
-832 -684 0
-831 0
874 -578 0
-968 0
83 -925 0
-790 0
-476 -794 0
-48 -770 0
-836 596 0
-181 0
-156 501 0
-7 0
-69 247 0
-310 997 0
-806 370 0
-624 385 0
-3 0
-451 0
-109 0
-404 612 0
-560 791 0
-306 0
-317 0
-958 0
-733 0
-942 -117 0
-529 0
972 -267 0
-30 0
499 -210 0
-834 0
-852 436 0
35 -292 0
-463 14 0
962 -174 0
-205 0
-589 0
-158 549 0
-15 0
-546 0
-126 972 0
-646 -436 0
413 -217 0
-24 0
-446 0
-648 -374 0
609 -393 0
472 -744 0
-862 0
442 -626 0
-285 387 0
-153 0
-664 838 0
-849 0
-92 -484 0
-280 0
-899 0
644 -545 0
-140 0
890 -641 0
-452 0
-384 863 0
-849 -457 0
-175 0
-47 36 0
-271 0
-268 0
-834 0
-341 0
186 -890 0
-791 -452 0
-216 -279 0
-253 0
-628 -417 0
-158 0
-90 407 0
-452 583 0
-732 -428 0
707 -74 0
-862 260 0
-353 0
-581 0
465 -819 0
-159 0
-991 0
-88 95 0
-88 0
-589 0
-83 -146 0
-908 0
-64 912 0
-181 -508 0
-23 0
-718 0
-25 0
-80 83 0
-669 0
-953 0
-336 -267 0
145 -529 0
-550 93 0
-816 0
-610 -657 0
-877 325 0
-298 0
-688 396 0
682 -562 0
-157 -580 0
-1000 0
-398 0
594 -881 0
428 -922 0
-463 -361 0
-245 -521 0
-127 0
-697 0
624 -227 0
-258 0
-652 0
-63 -374 0
-543 -777 0
-366 802 0
-356 0
168 -51 0
152 -298 0
-63 718 0
-422 0
-418 0
-632 996 0
-624 -497 0
-405 557 0
419 -746 0
-39 0
-165 0
-416 0
24 -489 0
448 -779 0
-515 0
-982 0
485 -714 0
-198 606 0
-446 0
-646 0
-886 -741 0
-582 0
-79 0
-506 0
-110 215 0
-529 0
-87 -284 0
-232 0
-441 0
-807 0
-564 -779 0
-39 0
-168 988 0
-440 0
-89 0
98 -275 0
-141 483 0
320 -143 0
-847 -482 0
-731 0
921 -156 0
-879 715 0
-552 -637 0
965 -250 0
-27 0
-196 0
-687 0
-844 0
-217 -297 0
-935 829 0
480 -643 0
-286 403 0
-152 0
-829 436 0
484 -529 0
-424 0
-983 0
-162 0
-941 0
633 -322 0
-775 -857 0
-551 850 0
417 -387 0
-920 958 0
-715 0
-384 -479 0
-395 0
-57 -937 0
560 -708 0
-255 883 0
162 -842 0
865 -671 0
-936 -471 0
-343 -1 0
-644 0
392 -242 0
-331 735 0
-319 -621 0
-391 0
-487 807 0
-134 967 0
-413 -573 0
-360 145 0
-539 0
-965 -994 0
-463 549 0
-125 813 0
129 -813 0
-698 0
-899 0
-124 0
-862 -443 0
-863 0
-716 0
-531 -58 0
-146 0
67 -314 0
-943 -244 0
-795 0
-272 0
-393 0
-63 0
-108 -938 0
-811 639 0
-971 317 0
976 -628 0
-6 0
-736 -175 0
-399 0
626 -849 0
-736 -415 0
-533 -269 0
-676 0
-680 -369 0
-812 -729 0
-795 0
-411 0
-361 0
-613 0
-329 0
-397 -283 0
-234 0
-16 -318 0
-772 0
-939 0
876 -403 0
777 -229 0
355 -436 0
-689 0
-11 -497 0
-594 0
-766 0
-36 -986 0
710 -34 0
-784 -598 0
-238 -745 0
-333 151 0
-93 0
-616 0
-769 0
-765 -754 0
-603 -449 0
880 -206 0
-957 -324 0
-950 -857 0
-982 0
-511 -853 0
-560 110 0
-548 0
-35 631 0
-880 -82 0
-10 -145 0
581 -321 0
-658 0
-663 -585 0
-11 246 0
-67 -929 0
923 -611 0
-918 -422 0
578 -324 0
589 -722 0
-111 591 0
-64 25 0
-866 -945 0
-315 0
-98 0
-268 0
353 -90 0
-980 0
-643 0
-878 0
-295 0
-460 0
548 -913 0
-894 29 0
-662 0
-598 -577 0
-814 -886 0
331 -905 0
-504 886 0
-948 0
-400 369 0
403 -970 0
-463 92 0
345 -31 0
-774 327 0
-988 0
-450 -689 0
338 -746 0
-487 0
-147 0
-439 -113 0
-719 323 0
-690 0
-219 0
364 -874 0
98 -811 0
-314 0
-31 506 0
-301 623 0
-239 588 0
-756 0
209 -836 0
-710 591 0
104 -693 0
-81 0
800 -233 0
-583 885 0
-516 -625 0
784 -448 0
560 -861 0
-133 485 0
-127 -13 0
-606 -91 0
187 -537 0
-223 156 0
220 -505 0
-702 459 0
571 -865 0
-737 0
-752 505 0
-437 0
-263 0
-208 0
-36 -252 0
-450 0
-447 0
-744 15 0
-304 0
-461 175 0
-595 0
-685 198 0
-270 -681 0
66 -250 0
-509 0
473 -830 0
-283 -969 0
-14 0
-644 615 0
-94 340 0
-614 0
-910 933 0
-453 0
165 -841 0
-146 0
-998 0
-662 0
-296 0
-127 571 0
-296 866 0
-32 0
-520 -732 0
-480 0
-615 883 0
304 -640 0
-110 98 0
-186 -274 0
-851 0
-802 391 0
835 -505 0
-780 0
-846 -718 0
-305 719 0
-80 73 0
-835 0
-63 -535 0
-231 -307 0
754 -397 0
-330 0
-541 0
891 -738 0
-184 521 0
-451 0
249 -114 0
-276 -522 0
624 -558 0
-51 0
-863 0
-280 -461 0
-536 0
-413 263 0
-436 0
-68 0
-975 0
-548 0
-191 -534 0
-153 0
-760 -305 0
-40 0
-773 431 0
331 -65 0
864 -144 0
-11 589 0
-348 -852 0
-520 243 0
-947 0
-613 0
-909 663 0
157 -505 0
-86 0
-469 988 0
-91 0
-690 0
-618 -66 0
-871 165 0
465 -588 0
-582 0
-47 237 0
-336 0
-598 0
-502 829 0
-517 732 0
-557 -845 0
-143 0
-724 0
-590 -221 0
819 -729 0
-25 -745 0
378 -353 0
-584 13 0
-208 -420 0
-471 0
571 -785 0
-293 508 0
-998 -13 0
-360 -321 0
245 -633 0
-512 524 0
-426 0
-282 0
-961 0
498 -41 0
-931 0
941 -913 0
-71 0
675 -195 0
-427 0
-500 0
-207 28 0
-861 797 0
-459 887 0
693 -603 0
-748 0
-415 0
-45 950 0
-987 854 0
-62 587 0
-145 0
-826 0
-431 404 0
-874 0
-110 0
-714 0
-776 356 0
-86 -339 0
-847 -788 0
-640 -920 0
691 -58 0
-861 0
-791 394 0
-268 0
-888 0
-774 0
1 -459 0
-910 0
-55 0
713 -289 0
-492 0
-585 0
88 -701 0
-16 12 0
-693 949 0
-902 -202 0
-55 0
-878 292 0
-286 0
722 -766 0
689 -350 0
616 -481 0
-168 0
-376 179 0
-620 0
690 -281 0
-6 -635 0
-59 0
-365 0
-645 693 0
-960 0
-267 0
-75 0
-572 0
-927 -206 0
146 -769 0
-500 0
-827 190 0
707 -452 0
217 -847 0
977 -161 0
880 -428 0
-696 795 0
-461 -25 0
-652 -169 0
-536 0
-454 149 0
-932 0
-765 0
-888 0
-553 0
-416 0
-684 0
-831 -614 0
-408 0
-844 0
616 -527 0
-899 0
664 -99 0
503 -737 0
-585 0
-287 -422 0
-670 175 0
-603 0
-100 -386 0
-567 0
-450 0
-818 0
-445 470 0
-102 509 0
-62 0
-111 598 0
-406 -753 0
-231 262 0
-2 119 0
-744 -166 0
-511 582 0
-65 0
-400 -225 0
-258 0
-525 0
-614 547 0
-127 0
-885 0
-598 -222 0
-294 204 0
-463 -357 0
113 -934 0
-946 0
-76 0
-388 0
-31 956 0
-976 34 0
-690 0
-202 -666 0
-539 0
-379 0
-942 0
-48 0
158 -298 0
-814 732 0
-363 327 0
-402 502 0
-491 -746 0
475 -277 0
-742 149 0
-662 0
-141 0
-475 351 0
-864 0
-935 486 0
202 -179 0
-941 -875 0
-469 -37 0
-803 0
-952 759 0
-773 0
-656 -639 0
-704 -68 0
624 -500 0
-840 0
112 -625 0
-425 0
29 -498 0
-542 -892 0
-980 0
-136 0
-715 957 0
-673 0
250 -717 0
-703 -91 0
-887 -348 0
-979 455 0
258 -10 0
-19 -721 0
-22 -891 0
-919 -916 0
-692 0
-694 0
-76 -577 0
-578 0
-168 581 0
-805 0
-383 762 0
-912 148 0
-383 0
-836 0
-698 623 0
-442 0
-405 -523 0
241 -620 0
-288 0
-822 0
419 -929 0
-36 309 0
-989 -331 0
640 -823 0
239 -673 0
-316 0
-582 0
-773 902 0
190 -722 0
-415 -317 0
-271 0
-629 0
-874 0
-428 0
-375 0
912 -462 0
-941 0
849 -477 0
-251 22 0
-829 -113 0
-12 815 0
-339 0
-387 0
-53 0
823 -105 0
-22 99 0
527 -681 0
-999 0
-373 828 0
-6 262 0
-328 -563 0
-823 639 0
-344 -41 0
-77 407 0
-309 0
-200 0
-399 0
-854 668 0
-792 -486 0
314 -358 0
-334 212 0
-237 -787 0
-24 0
-349 0
-28 813 0
390 -585 0
-911 389 0
-424 -470 0
-969 0
-948 0
-232 -638 0
-861 918 0
-126 0
-640 -758 0
377 -875 0
-855 0
-217 0
-238 479 0
-112 506 0
-45 366 0
-34 0
508 -186 0
-540 0
-301 0
-640 537 0
-402 -369 0
-780 0
-216 508 0
-166 0
-773 0
-305 0
-794 0
-75 0
-655 660 0
-39 0
642 -249 0
-865 0
-629 -637 0
-617 0
-464 167 0
505 -397 0
-63 0
-447 309 0
-48 -134 0
-183 438 0
-200 0
-907 0
-542 -933 0
-944 -27 0
-567 962 0
-511 611 0
-240 -227 0
-335 757 0
808 -446 0
-931 758 0
-126 195 0
411 -363 0
-538 0
-484 0
-192 0
-422 -161 0
-390 669 0
122 -691 0
-937 0
-591 0
969 -444 0
285 -835 0
233 -740 0
-38 0
377 -341 0
-415 -222 0
-584 0
-880 0
544 -560 0
-296 0
793 -798 0
-936 -462 0
-360 -479 0
-680 726 0
-787 -834 0
726 -593 0
-230 340 0
-396 -114 0
-340 -641 0
-979 -866 0
-475 461 0
-246 -614 0
-374 0
105 -143 0
-174 -236 0
-542 0
162 -636 0
442 -235 0
-577 0
622 -554 0
468 -820 0
-420 0
-21 767 0
-790 -629 0
-460 0
-700 71 0
-143 -766 0
-55 -35 0
-48 449 0
658 -850 0
200 -849 0
-978 -617 0
-287 -438 0
-593 -105 0
-476 0
885 -33 0
-155 0
-808 -217 0
-170 0
-173 0
-744 -917 0
-218 0
-826 -666 0
-297 0
246 -433 0
128 -273 0
-237 957 0
-376 0
-731 -115 0
-357 423 0
-693 0
331 -890 0
-301 214 0
-295 -465 0
-337 87 0
-112 522 0
-224 174 0
-409 0
-502 0
-303 730 0
929 -836 0
-783 219 0
-830 0
-92 638 0
-454 0
-487 491 0
-559 -5 0
-120 -867 0
-32 657 0
755 -729 0
833 -225 0
-45 -177 0
505 -108 0
-359 -174 0
-102 -972 0
-1 0
-933 -489 0
-966 678 0
698 -489 0
-160 0
473 -202 0
161 -930 0
-992 0
99 -779 0
-616 838 0
677 -585 0
-803 -362 0
-713 0
-639 -259 0
-997 0
-102 0
-381 476 0
-604 0
-752 -669 0
28 -385 0
256 -120 0
-159 767 0
-339 0
-730 0
249 -635 0
-260 0
-966 0
362 -337 0
-71 845 0
-390 -916 0
329 -172 0
-791 -946 0
-556 637 0
-477 0
-839 -834 0
-207 273 0
-667 0
-911 0
-589 -571 0
-407 -299 0
-24 0
-41 0
-137 0
-39 509 0
-255 0
89 -604 0
-968 -199 0
705 -309 0
98 -529 0
-469 0
-764 0
-878 0
676 -178 0
-108 429 0
-392 -599 0
-180 0
-678 783 0
-643 -314 0
241 -843 0
-96 0
-827 0
-966 846 0
-230 243 0
-84 0
792 -588 0
-397 -57 0
66 -965 0
-383 165 0
-500 -75 0
-646 -235 0
395 -113 0
-549 0
-351 259 0
704 -741 0
-391 -717 0
-554 0
-725 502 0
411 -322 0
-503 -139 0
-519 590 0
-254 0
-109 0
-664 -369 0
-803 -42 0
874 -681 0
-712 0
-104 -156 0
-768 0
-687 0
14 -921 0
-44 0
-382 979 0
-630 509 0
-320 -616 0
-38 867 0
-998 0
977 -467 0
-644 -394 0
-933 215 0
-939 -58 0
-31 502 0
-215 977 0
-769 0
-272 64 0
-10 -786 0
624 -537 0
-417 0
-264 0
-243 0
-836 0
-937 0
-399 306 0
-695 -2 0
872 -464 0
184 -805 0
-368 481 0
-338 0
-88 -71 0
-867 998 0
66 -45 0
-411 935 0
914 -465 0
888 -321 0
-223 0
43 -93 0
-367 -370 0
-21 549 0
674 -980 0
-929 0
-691 0
-707 -305 0
-459 0
-722 0
-853 0
-400 0
-467 934 0
-744 -924 0
937 -378 0
-965 0
-987 0
-389 -252 0
328 -256 0
-512 0
-558 846 0
-739 -113 0
-519 0
-101 967 0
859 -97 0
-387 0
-88 0
-31 -389 0
57 -3 0
-930 447 0
442 -684 0
-425 0
-959 0
-496 -844 0
-105 -353 0
-109 -492 0
-223 386 0
-660 -331 0
168 -190 0
-455 967 0
-2 0
904 -963 0
-59 -505 0
-742 -852 0
-470 396 0
-953 0
-866 0
-87 286 0
-956 14 0
-514 0
-661 252 0
-221 455 0
947 -554 0
-584 397 0
-36 0
258 -449 0
-866 654 0
-965 499 0
-916 -465 0
-790 0
-727 -995 0
-935 -633 0
-705 0
810 -268 0
-760 0
-728 0
-714 -641 0
713 -357 0
-565 0
-262 -245 0
-343 -483 0
-632 -233 0
-599 -226 0
-724 -987 0
-649 0
-718 678 0
-276 0
-398 0
-24 0
-255 20 0
-38 189 0
-376 -676 0
-738 0
675 -547 0
-730 0
-352 0
307 -346 0
-744 554 0
-199 0
-409 0
-269 863 0
-941 -468 0
-442 0
457 -53 0
-595 0
-46 0
-397 0
-412 -866 0
-67 0
799 -793 0
-600 0
-15 137 0
-684 0
460 -948 0
-963 0
-832 -406 0
-531 0
-726 0
-321 0
-14 469 0
-349 0
-968 0
-886 0
-816 -855 0
-692 717 0
456 -338 0
-963 0
-374 -732 0
-51 0
-44 0
-866 0
-123 0
43 -938 0
-606 412 0
-291 270 0
-255 0
-545 0
-331 0
-195 0
-312 0
363 -210 0
-214 -540 0
-127 -613 0
-259 335 0
-947 0
834 -508 0
803 -4 0
-332 0
-887 42 0
-203 0
708 -386 0
-986 0
-951 0
-200 0
-49 0
-788 781 0
-927 0
-35 0
-24 390 0
-479 0
-262 -44 0
470 -209 0
-800 0
-946 0
-75 0
709 -585 0
-702 668 0
-206 0
-957 -484 0
-6 975 0
-22 -898 0
-222 171 0
757 -394 0
-528 -677 0
-487 287 0
340 -298 0
-463 674 0
-972 862 0
-829 254 0
-284 0
-36 0
-697 0
-425 0
-104 958 0
-646 0
-198 636 0
-906 702 0
-126 227 0
640 -607 0
-580 0
-599 0
325 -169 0
-903 0
-894 -645 0
-245 0
874 -828 0
-608 212 0
-635 0
-37 0
-436 549 0
806 -658 0
-752 0
-464 98 0
705 -531 0
-383 0
-516 0
-847 0
-371 0
-966 0
-637 460 0
-35 950 0
-603 0
-653 0
-582 -762 0
-726 0
-632 -861 0
-768 0
-698 0
-196 0
-69 0
-845 932 0
-851 0
-157 -49 0
-524 0
-131 0
-655 -996 0
-616 0
-198 -345 0
-320 -357 0
787 -195 0
-516 0
-107 0
-597 356 0
-651 0
-73 0
-731 342 0
-16 0
-120 0
-968 0
-905 0
-349 -922 0
972 -410 0
-766 0
-177 0
563 -996 0
-812 997 0
-945 0
-95 0
-124 -515 0
779 -273 0
-203 62 0
-199 0
-304 0
786 -467 0
-374 -621 0
-297 0
-99 0
129 -874 0
-512 0
-790 0
-296 0
-49 0
-972 375 0
-796 -313 0
749 -227 0
-917 -124 0
-901 0
248 -615 0
-405 0
-996 -418 0
-602 0
-598 124 0
-793 0
-125 884 0
-372 0
-30 0
913 -65 0
-216 -527 0
41 -134 0
-812 0
-583 -985 0
658 -898 0
-395 461 0
-798 0
-318 34 0
613 -507 0
592 -94 0
-272 -418 0
-291 718 0
168 -915 0
-859 270 0
-311 0
689 -979 0
-901 0
858 -684 0
-907 -321 0
-944 239 0
-835 0
-526 0
-214 719 0
-425 0
-367 -309 0
-464 0
-668 0
-251 0
-655 -779 0
-148 -380 0
-319 -745 0
-934 -709 0
33 -409 0
-704 802 0
432 -687 0
-137 0
-967 157 0
-108 0
-53 326 0
-5 271 0
922 -869 0
-422 0
-7 0
283 -389 0
-798 315 0
-47 -75 0
-624 926 0
818 -521 0
-288 0
-615 0
-131 -17 0
-469 -315 0
-305 631 0
-627 0
-448 487 0
-440 0
484 -882 0
-44 -202 0
-406 421 0
-780 0
88 -814 0
-944 3 0
-704 729 0
-237 -101 0
-399 0
-215 0
-938 -98 0
464 -974 0
-106 0
-522 0
-262 -91 0
-701 43 0
-942 0
385 -418 0
-851 0
625 -462 0
-793 0
-310 0
-102 0
456 -119 0
-911 -228 0
-445 0
-352 0
-629 -516 0
-371 446 0
402 -355 0
-751 -493 0
425 -730 0
-109 0
-895 0
-49 695 0
-352 108 0
-89 0
867 -314 0
-575 439 0
-906 0
-885 0
165 -169 0
-942 -385 0
-878 -162 0
-528 126 0
-294 0
-136 308 0
-966 -769 0
-381 0
-334 0
171 -450 0
-101 0
-676 0
-45 251 0
930 -316 0
-836 0
-298 0
-115 262 0
-563 0
-708 -169 0
-844 -500 0
242 -466 0
-931 0
930 -870 0
185 -933 0
-192 -258 0
-820 0
-289 0
-817 0
32 -490 0
-150 675 0
-212 0
-906 0
-241 0
-419 0
-223 -73 0
-69 -417 0
-432 -761 0
-599 0
401 -802 0
-462 626 0
-933 0
-744 0
-88 0
-626 -753 0
-213 0
281 -748 0
-632 0
-521 0
-786 -361 0
-130 335 0
-759 0
713 -510 0
-605 287 0
-582 311 0
-981 459 0
-297 0
-82 0
-141 0
-519 685 0
-671 0
-830 0
-224 284 0
-2 0
48 -723 0
-312 276 0
297 -94 0
-603 -185 0
-727 -60 0
112 -71 0
-526 0
-271 0
-709 735 0
-213 -313 0
-700 -667 0
-852 0
-722 0
129 -595 0
259 -436 0
259 -779 0
698 -89 0
-996 613 0
459 -524 0
-302 -172 0
-592 0
-736 -568 0
864 -900 0
-292 39 0
674 -12 0
-147 0
-915 0
-656 0
-758 788 0
-831 -427 0
-87 0
312 -804 0
-396 0
-328 -780 0
-484 0
-272 0
-6 0
-421 0
250 -324 0
58 -668 0
-439 -413 0
-211 0
-221 -843 0
752 -611 0
-382 0
-662 124 0
-790 0
992 -42 0
544 -752 0
169 -70 0
507 -588 0
-903 489 0
-752 61 0
-440 119 0
-369 0
225 -490 0
244 -554 0
-346 0
-729 0
-565 902 0
-491 0
-62 0
-160 38 0
-835 0
-624 -149 0
260 -234 0
-179 687 0
-504 -604 0
-336 0
-516 0
744 -756 0
-174 -507 0
-395 215 0
-191 876 0
-76 228 0
-126 571 0
436 -521 0
857 -737 0
-736 0
-389 799 0
-640 469 0
423 -169 0
-14 0
-124 878 0
-530 0
-870 0
-730 375 0
-142 0
-625 0
804 -562 0
-153 0
-56 0
-29 0
-969 0
-224 -96 0
-575 0
-81 0
-94 0
414 -969 0
-626 0
682 -444 0
-827 935 0
-468 -849 0
-377 0
-54 0
-437 815 0
-67 0
480 -773 0
-803 0
427 -257 0
50 -889 0
-791 805 0
-631 -937 0
-66 878 0
64 -220 0
-887 0
-278 0
-529 0
313 -278 0
-699 0
58 -745 0
-957 -652 0
904 -915 0
-944 988 0
-153 0
-518 0
-648 0
-812 -962 0
-214 -860 0
-511 142 0
-684 0
794 -539 0
-297 0
970 -706 0
-651 0
-142 547 0
-607 -678 0
-241 0
-151 -300 0
-774 0
-672 0
386 -877 0
-592 753 0
-743 499 0
-899 0
-413 -915 0
-676 604 0
-887 271 0
-414 822 0
-127 909 0
-304 0
-84 -100 0
-571 -322 0
-582 -65 0
-735 0
-469 -803 0
-176 0
347 -731 0
-677 180 0
-528 0
-99 0
-392 557 0
-669 0
-437 -116 0
-630 -946 0
-96 0
-217 0
56 -316 0
329 -867 0
-370 -585 0
-625 0
-493 0
-449 0
-453 0
-101 0
-153 0
330 -641 0
-832 0
-129 0
-800 -815 0
903 -961 0
-732 -756 0
-142 0
3 -909 0
-424 710 0
-943 0
-126 0
-726 653 0
576 -914 0
-599 -497 0
-128 0
-133 0
-964 0
-667 0
621 -282 0
594 -893 0
-212 701 0
681 -19 0
-847 -178 0
-583 0
-283 -818 0
-50 0
-914 0
161 -723 0
-714 0
-659 0
-996 949 0
-173 -137 0
-597 0
-142 -924 0
954 -946 0
-536 -426 0
-643 0
-888 0
-978 0
-946 0
-971 846 0
881 -791 0
148 -842 0
-653 -124 0
-58 0
-75 0
-200 0
-20 0
179 -369 0
-516 0
-888 -190 0
-200 822 0
-7 -252 0
-920 -752 0
420 -307 0
212 -116 0
285 -729 0
-261 0
-223 0
-62 -450 0
-200 415 0
-276 559 0
907 -363 0
-341 0
-856 815 0
-688 0
-881 0
914 -982 0
-780 0
-536 -60 0
-698 15 0
-198 -973 0
-992 0
-104 921 0
-943 0
-828 -138 0
-150 221 0
-140 0
-304 0
-676 -698 0
-179 -962 0
-686 -242 0
-496 0
-188 -145 0
-606 -974 0
-383 363 0
-301 0
513 -554 0
-590 0
-279 999 0
-719 -145 0
154 -229 0
-583 0
-72 0
-608 0
-262 0
-895 0
-509 955 0
737 -460 0
-748 -716 0
-254 822 0
120 -812 0
-571 -129 0
-248 -662 0
-757 -130 0
57 -610 0
-237 0
-104 675 0
-184 373 0
-143 948 0
-767 171 0
-564 774 0
801 -92 0
-288 17 0
-238 0
-170 -465 0
-601 0
-824 491 0
45 -771 0
836 -611 0
-579 0
-961 0
152 -102 0
-620 -491 0
-298 0
-588 0
-1000 0
641 -411 0
920 -912 0
-132 -444 0
-898 0
-200 -425 0
-772 0
-690 0
-246 0
-671 531 0
-938 0
-73 -9 0
657 -929 0
-728 -988 0
-869 0
-564 124 0
-152 -576 0
204 -746 0
-487 939 0
-588 983 0
-379 0
-786 0
-215 0
-430 0
-281 0
528 -802 0
-627 0
-674 0
-949 -521 0
-744 0
-380 0
-675 -450 0
-543 -845 0
-629 0
-734 439 0
-734 -28 0
-855 -342 0
-238 -404 0
11 -746 0
-675 0
-195 0
642 -371 0
-260 -850 0
-905 0
768 -330 0
624 -242 0
152 -18 0
-405 -939 0
-966 428 0
-518 -980 0
-311 -817 0
-500 222 0
-964 0
648 -650 0
-845 0
-484 828 0
-871 535 0
-220 893 0
-352 711 0
-129 0
-442 0
-327 0
-200 640 0
-644 0
-88 0
-117 654 0
-300 0
-872 0
185 -331 0
-751 -602 0
-511 0
738 -29 0
258 -193 0
-968 949 0
-258 527 0
-680 -284 0
-536 0
-466 0
587 -434 0
-151 0
-146 455 0
-980 0
-364 132 0
-309 -19 0
-936 0
-229 -866 0
-616 -770 0
-599 67 0
611 -75 0
-905 0
-246 0
-829 7 0
853 -315 0
-292 0
-328 0
-56 -201 0
169 -547 0
-608 -771 0
115 -365 0
-344 964 0
-329 0
-841 0
-895 0
-800 -614 0
-160 -1 0
-509 -835 0
-694 -829 0
-466 0
-784 -475 0
59 -754 0
-40 0
956 -769 0
-938 0
-172 -689 0
-911 0
-81 0
-715 382 0
-874 0
-995 503 0
801 -54 0
-239 -735 0
-824 361 0
-650 0
-232 0
-427 -137 0
-901 -652 0
-731 0
-542 0
-760 0
-999 -790 0
-794 0
-420 572 0
-720 121 0
824 -295 0
-616 384 0
-517 892 0
-645 0
512 -925 0
-654 452 0
-698 111 0
-655 279 0
473 -900 0
-825 0
-111 262 0
-164 0
-710 0
-556 981 0
49 -436 0
-38 -860 0
-863 0
-72 0
-310 -953 0
-817 0
555 -491 0
-32 169 0
888 -905 0
-390 -201 0
-368 643 0
-602 0
-700 -849 0
-762 0
724 -65 0
-542 0
-840 308 0
-86 0
-780 133 0
-986 -473 0
512 -392 0
-854 0
-948 -346 0
-509 835 0
209 -348 0
-871 -57 0
294 -321 0
-175 0
-103 0
-487 0
877 -403 0
-519 870 0
-215 -489 0
-249 0
-392 0
170 -226 0
-872 -555 0
-5 0
-231 198 0
321 -5 0
-701 0
619 -220 0
888 -599 0
981 -298 0
-758 -22 0
-233 0
885 -786 0
-844 -460 0
-718 0
-909 -26 0
-971 39 0
592 -253 0
253 -417 0
-728 -698 0
841 -853 0
652 -834 0
-15 0
-215 0
-283 0
342 -353 0
-239 580 0
-986 0
-469 0
-208 0
-710 235 0
82 -771 0
404 -121 0
-778 0
-394 0
-927 -91 0
38 -193 0
-660 373 0
-358 0
-451 0
-992 491 0
-292 653 0
-420 0
-528 -40 0
-960 6 0
-90 -18 0
545 -61 0
-488 956 0
-221 983 0
-495 618 0
-792 346 0
-442 0
-477 -261 0
813 -385 0
-829 0
-550 0
-739 0
385 -978 0
-119 0
-535 0
-837 0
-264 -412 0
-335 0
-570 0
833 -265 0
-92 0
-964 0
-248 967 0
-192 0
-286 0
748 -978 0
-831 -693 0
-168 0
-237 0
256 -580 0
-813 -890 0
-851 0
-190 -670 0
-825 0
-923 0
-237 -780 0
-821 -675 0
-164 -441 0
-14 0
-412 0
-211 0
752 -327 0
-352 669 0
-432 0
-37 -713 0
-290 0
-23 -972 0
-991 0
-149 0
-187 0
478 -25 0
-483 0
-855 -196 0
-253 276 0
-215 0
-27 678 0
-837 0
-488 0
-468 -537 0
-438 0
-834 0
-991 0
-972 0
-319 99 0
-861 -330 0
-3 0
-942 0
-335 106 0
90 -596 0
-435 149 0
-208 0
-527 -86 0
-318 0
731 -620 0
-98 0
-192 0
-850 -242 0
-897 623 0
-179 334 0
-828 0
-804 925 0
-299 0
-738 0
-893 0
-12 854 0
-550 -294 0
768 -421 0
-870 -604 0
-790 575 0
-456 0
-954 -898 0
-197 0
578 -749 0
-86 0
-494 -425 0
538 -531 0
-828 0
-321 0
-246 -489 0
801 -769 0
-638 -498 0
-384 580 0
-699 -681 0
-964 0
-724 279 0
-70 -665 0
-243 0
-267 0
-205 0
42 -132 0
300 -762 0
-127 -297 0
-462 463 0
-299 0
-663 519 0
-536 -410 0
-676 0
-651 0
-923 0
-426 0
961 -735 0
-318 267 0
-928 -587 0
938 -489 0
368 -57 0
-534 871 0
-519 0
-72 0
-820 0
-414 0
971 -564 0
-242 -289 0
525 -58 0
-340 -804 0
-311 902 0
-182 0
18 -637 0
-471 0
330 -348 0
-527 -949 0
-356 -257 0
-168 0
-853 0
-647 -575 0
-301 -283 0
240 -732 0
-631 710 0
-84 0
-560 0
-422 0
-343 0
-972 0
99 -532 0
466 -861 0
-540 239 0
-341 0
-941 631 0
-430 931 0
-172 0
-820 0
-341 0
-740 0
-235 70 0
-451 0
-776 -476 0
-129 0
-575 -76 0
-537 0
-65 0
-975 -643 0
-165 -26 0
-69 -196 0
-347 118 0
-709 -76 0
433 -243 0
-547 0
746 -505 0
-763 0
983 -305 0
-784 998 0
-267 109 0
-790 -218 0
24 -391 0
-986 182 0
-48 -172 0
-283 0
301 -1 0
387 -348 0
-566 187 0
-144 0
-318 -732 0
-726 229 0
-326 0
-501 0
-295 0
-872 -413 0
-778 0
-146 -514 0
-813 -524 0
-647 0
-124 -314 0
-84 0
536 -606 0
-646 278 0
-887 -525 0
-207 0
-29 45 0
580 -115 0
-345 0
-780 0
759 -233 0
-808 0
528 -517 0
-425 0
-531 0
-899 0
-748 0
-103 0
-54 260 0
-133 0
149 -867 0
-777 0
410 -641 0
737 -363 0
-204 0
-998 691 0
-943 0
586 -379 0
714 -964 0
-813 -458 0
-207 -185 0
-894 171 0
-263 511 0
-825 0
-413 0
-984 0
-407 0
849 -565 0
-373 807 0
184 -71 0
-547 0
-944 -769 0
259 -346 0
-913 0
-941 774 0
-578 679 0
-662 -500 0
-717 0
-747 0
-546 430 0
-846 843 0
-469 0
-945 0
-864 0
-216 659 0
-771 0
-882 -266 0
-214 0
-296 540 0
-181 0
-800 219 0
-526 -356 0
-786 807 0
-624 428 0
-59 0
-536 0
-196 0
-986 0
-648 190 0
-872 434 0
288 -810 0
-430 0
719 -417 0
-607 -437 0
-547 0
-363 0
-147 925 0
-255 0
-980 -649 0
-655 0
-245 -964 0
-400 988 0
-409 0
-296 -715 0
-117 -619 0
101 -393 0
-931 0
-696 0
-367 0
-525 0
608 -791 0
643 -35 0
554 -668 0
-245 0
-520 0
-976 -296 0
-303 -879 0
626 -899 0
-400 -324 0
-387 0
-167 -994 0
-994 0
-723 0
-548 -131 0
-474 0
-903 0
-970 0
-597 0
-176 -970 0
-582 0
-315 -753 0
-318 0
-307 949 0
-299 0
-977 0
619 -979 0
-44 925 0
384 -568 0
-680 0
-177 0
-437 0
-229 141 0
821 -427 0
-922 0
-308 229 0
-591 -770 0
-192 -615 0
-614 0
-821 335 0
990 -113 0
-395 0
433 -9 0
-951 -709 0
589 -579 0
-628 677 0
-352 -781 0
-996 0
-216 -620 0
-407 199 0
-496 0
-71 0
-987 0
-651 0
-543 622 0
-784 491 0
-377 0
-681 0
300 -211 0
992 -485 0
-479 0
-876 0
417 -20 0
-933 -53 0
-483 0
-388 0
-864 791 0
-641 0
-232 0
-880 -260 0
-254 -450 0
465 -726 0
595 -461 0
-796 -482 0
-653 0
173 -977 0
-456 345 0
-530 383 0
-893 0
-978 742 0
-653 0
-275 0
-980 -873 0
-808 -607 0
829 -834 0
-54 -621 0
-294 0
-530 -353 0
844 -841 0
-340 0
-895 -547 0
-956 598 0
-835 0
-475 0
121 -946 0
-685 -604 0
-408 780 0
-617 0
-769 0
-345 0
-439 198 0
-371 0
531 -770 0
-82 0
368 -408 0
-554 -386 0
-134 308 0
-750 0
-464 0
-711 499 0
-495 0
-739 0
-910 0
-460 -633 0
-774 0
-884 0
-554 0
-247 830 0
-786 -489 0
-168 875 0
-272 -79 0
-225 0
201 -179 0
-486 -525 0
-727 479 0
-468 0
-693 0
756 -833 0
-116 238 0
-288 0
-139 0
529 -134 0
-759 0
-996 0
-602 807 0
-928 0
-971 -249 0
-752 0
-499 725 0
540 -955 0
-531 357 0
-36 0
-781 0
-108 0
900 -610 0
-982 0
-785 0
-791 -804 0
-32 0
-137 -89 0
-574 0
-730 0
-912 -700 0
-285 0
-984 0
903 -929 0
-577 0
-678 0
-410 0
-295 0
-69 0
-700 0
-844 0
-116 0
630 -649 0
-822 18 0
-952 -580 0
-685 0
694 -817 0
-579 0
-645 -185 0
-864 -851 0
-988 0
-806 751 0
728 -39 0
200 -216 0
-460 0
664 -761 0
-158 0
-773 263 0
-453 903 0
35 -581 0
-622 -85 0
-688 -540 0
-698 0
-253 0
-789 0
-360 905 0
920 -561 0
-739 0
-142 35 0
157 -490 0
-38 907 0
-880 -470 0
-500 0
473 -721 0
-185 0
-15 0
670 -609 0
-419 -41 0
202 -441 0
-880 0
194 -666 0
88 -527 0
-833 0
497 -627 0
-533 0
-342 0
-206 -982 0
-224 0
346 -9 0
-533 788 0
-330 0
-206 0
-721 0
-53 -994 0
-669 615 0
-152 2 0
-376 0
-918 0
-799 0
-151 535 0
-486 994 0
-509 0
-706 199 0
-545 0
-572 -716 0
-280 -640 0
-651 0
-46 876 0
-782 861 0
-589 543 0
907 -994 0
-376 -250 0
-31 0
-253 0
-491 -817 0
-419 0
-681 0
-244 0
155 -362 0
-84 0
-220 -394 0
-322 -426 0
-62 0
-58 0
-291 590 0
-745 0
-975 0
-18 0
-820 0
897 -742 0
-950 223 0
-842 0
-726 244 0
-92 -337 0
-167 250 0
-51 583 0
-341 -82 0
-228 0
-310 0
-184 0
-217 -401 0
-129 0
-713 0
-508 5 0
-961 0
-353 0
-970 0
-637 -178 0
-529 0
-656 0
-227 0
-207 -85 0
-920 -865 0
-64 -723 0
-720 -598 0
-830 443 0
533 -697 0
-271 -670 0
609 -973 0
-846 0
-324 -514 0
-802 0
-403 0
-968 -183 0
-911 -35 0
-672 0
793 -143 0
-692 0
762 -267 0
-473 0
-407 -437 0
-303 847 0
-716 0
-51 0
208 -307 0
-300 -265 0
715 -977 0
-650 0
-86 -630 0
-695 -922 0
-879 0
-300 84 0
-253 -92 0
416 -799 0
-816 0
601 -401 0
-443 0
-271 0
-780 983 0
-50 0
-203 0
-749 -403 0
-64 668 0
-703 0
-718 0
-672 0
-278 -75 0
-843 -761 0
-569 0
-965 0
-417 0
924 -666 0
-309 607 0
-199 0
-359 0
970 -605 0
-742 0
-26 959 0
-512 567 0
-509 631 0
952 -231 0
-626 542 0
-889 0
-836 -114 0
-511 0
-3 0
-881 0
-896 -724 0
-559 0
-478 542 0
506 -890 0
-422 971 0
-521 0
-348 0
-358 0
696 -77 0
800 -331 0
-404 0
-742 191 0
862 -881 0
-888 477 0
-136 0
-399 -534 0
-723 0
-949 -595 0
-500 0
164 -642 0
-11 -770 0
420 -635 0
-889 0
-127 0
-163 0
-63 -743 0
-922 0
-742 0
-327 436 0
-820 852 0
-999 92 0
-768 0
-24 0
-775 -417 0
977 -738 0
-960 0
797 -506 0
-529 0
-202 0
-330 0
-168 -368 0
177 -530 0
996 -819 0
586 -417 0
-175 -905 0
-871 0
496 -617 0
-41 0
-830 -526 0
-190 0
-162 0
940 -954 0
-537 0
-783 -605 0
-855 0
-458 0
-813 0
-14 -17 0
-72 958 0
-153 0
-392 0
-911 290 0
458 -25 0
94 -594 0
1000 -717 0
-971 437 0
-958 414 0
-611 0
697 -635 0
-616 -122 0
-840 -251 0
-942 670 0
-659 0
-311 822 0
665 -980 0
-871 812 0
-526 0
-967 109 0
-439 0
-13 -889 0
-210 991 0
-496 876 0
338 -165 0
-387 606 0
-15 0
-594 0
-750 0
-992 0
-240 0
-421 307 0
-880 596 0
-732 0
-204 0
-3 -362 0
-500 430 0
-376 495 0
-39 0
-207 311 0
-32 0
-460 0
-539 0
-735 -545 0
925 -754 0
-462 660 0
-887 372 0
-860 573 0
-810 0
416 -868 0
-368 -751 0
-288 -51 0
856 -852 0
-602 759 0
-342 -890 0
-478 807 0
-564 230 0
606 -481 0
-34 -161 0
-240 0
-980 0
-277 0
-778 0
296 -769 0
-703 -446 0
-56 -309 0
-416 70 0
-450 -594 0
-440 -180 0
-582 -379 0
-78 821 0
-121 0
-85 517 0
-355 0
-784 602 0
-866 0
-520 667 0
-86 -654 0
-693 557 0
-251 0
-567 333 0
-450 0
-501 0
-198 123 0
-675 0
-145 0
-728 540 0
-896 0
-513 0
636 -115 0
648 -369 0
512 -262 0
-1000 -993 0
-106 159 0
-774 0
-767 -316 0
545 -27 0
506 -243 0
-451 0
-774 0
-692 -260 0
-907 -523 0
646 -881 0
-775 828 0
96 -663 0
-357 987 0
-286 0
-623 -819 0
600 -986 0
415 -73 0
-108 0
-312 815 0
477 -67 0
-356 0
-352 0
-264 0
-967 159 0
-221 -180 0
-697 0
-388 742 0
744 -425 0
-38 -539 0
-885 -924 0
25 -823 0
-312 -222 0
-589 0
-646 -641 0
667 -11 0
-329 0
-296 358 0
410 -803 0
-268 0
-880 0
-293 460 0
-964 -513 0
-496 -163 0
-769 0
-507 0
-876 -954 0
-488 0
889 -380 0
-320 0
634 -949 0
514 -411 0
129 -258 0
-16 -55 0
-784 0
-243 0
-171 0
-991 -35 0
-878 331 0
-914 0
-454 -369 0
-560 -946 0
734 -298 0
-189 159 0
696 -385 0
-185 0
233 -685 0
-483 238 0
-272 -95 0
-543 634 0
404 -955 0
-876 478 0
-124 0
104 -83 0
329 -757 0
-308 -683 0
-636 0
-71 0
-964 0
-271 -466 0
-546 0
-132 -835 0
51 -573 0
-886 575 0
-293 428 0
-667 0
-343 571 0
-30 -737 0
-804 0
369 -949 0
357 -498 0
336 -907 0
-272 214 0
-56 691 0
-492 782 0
612 -332 0
-346 0
-880 -286 0
-559 685 0
-29 211 0
-553 0
-208 0
-643 0
-877 -338 0
331 -220 0
-431 0
958 -137 0
-805 0
-596 0
-228 796 0
-485 0
-342 -124 0
-389 -874 0
-970 223 0
-688 -679 0
-760 721 0
-61 916 0
698 -84 0
272 -638 0
-404 -444 0
-608 -850 0
-135 882 0
-892 0
-638 236 0
-705 0
-807 509 0
-59 0
227 -209 0
-651 0
-583 0
-6 0
-450 0
-616 -326 0
-386 0
-760 0
-410 151 0
162 -803 0
-727 -308 0
-896 -295 0
106 -894 0
-456 74 0
-623 108 0
-101 263 0
-33 0
-623 -865 0
67 -844 0
-142 462 0
-134 0
-715 0
744 -836 0
-916 -300 0
-813 0
-576 0
-159 0
-351 0
277 -730 0
-473 0
-609 0
-629 0
852 -857 0
-492 0
784 -3 0
-607 -826 0
-316 -427 0
-481 0
-508 0
-299 0
-429 0
-420 333 0
-321 0
-776 0
83 -260 0
-18 223 0
-546 0
-192 -173 0
17 -733 0
-615 -457 0
-776 514 0
-534 0
-239 -796 0
-277 -785 0
-326 363 0
-727 -301 0
-568 -172 0
-160 612 0
-6 0
-376 -420 0
-477 -949 0
808 -472 0
-736 386 0
985 -926 0
-517 -978 0
584 -270 0
-286 135 0
276 -211 0
-266 -985 0
-396 0
-541 454 0
-390 0
-294 -902 0
260 -835 0
-162 0
-693 0
-127 -961 0
-787 0
-594 -17 0
-452 0
-903 749 0
-816 75 0
874 -764 0
209 -529 0
-855 -234 0
323 -26 0
-828 46 0
-83 -977 0
-448 655 0
858 -229 0
-694 0
681 -468 0
-228 61 0
-725 215 0
-184 973 0
701 -217 0
-270 468 0
-141 0
-824 0
-124 0
-960 -556 0
-520 883 0
-158 599 0
-671 -515 0
-714 6 0
-939 -865 0
-483 0
-499 14 0
-647 -727 0
-197 -836 0
982 -50 0
-298 0
-396 207 0
-19 -410 0
-299 -697 0
-619 0
-79 859 0
-953 0
946 -52 0
-838 -900 0
-158 -533 0
-98 0
-53 0
836 -297 0
-186 0
-537 0
160 -482 0
-178 -905 0
-632 0
722 -907 0
-748 998 0
-966 261 0
-655 -75 0
865 -314 0
-47 783 0
-651 0
-182 -485 0
-203 -114 0
-667 0
-40 0
833 -335 0
131 -325 0
-229 -329 0
90 -925 0
810 -316 0
-7 0
-238 60 0
-888 -831 0
-86 -340 0
-6 0
472 -573 0
-894 0
-103 0
-920 599 0
-534 0
57 -774 0
212 -371 0
688 -91 0
-429 0
-470 580 0
-214 0
-648 0
-331 0
905 -6 0
-672 -815 0
-89 -777 0
-770 775 0
-763 117 0
-274 0
-274 0
-400 0
-716 -732 0
-707 0
-808 72 0
-254 874 0
-374 0
-720 79 0
-718 0
-306 0
-24 -250 0
-971 -425 0
-251 669 0
-947 0
-350 0
-466 0
-924 0
-536 227 0
-477 0
-144 999 0
-781 0
-120 -510 0
-919 318 0
-940 0
-157 0
638 -538 0
-607 -637 0
-975 0
-947 0
697 -100 0
-384 -207 0
-482 0
-294 0
-716 0
-745 0
-760 394 0
-551 198 0
827 -993 0
-745 0
-471 0
-258 0
736 -825 0
-520 -79 0
-12 814 0
-696 0
-777 0
715 -403 0
878 -74 0
-439 0
-468 0
-971 0
-928 591 0
989 -307 0
-265 0
-576 -170 0
-725 -802 0
-781 -361 0
594 -146 0
883 -92 0
-860 0
-410 0
449 -911 0
-680 878 0
-339 0
-604 -937 0
-968 -250 0
-655 0
67 -651 0
227 -355 0
-392 739 0
-454 0
-474 0
827 -387 0
-673 0
-282 0
-678 -642 0
-717 365 0
-816 105 0
-677 0
-971 0
-645 0
-672 -816 0
-386 -50 0
-904 0
786 -674 0
904 -415 0
-78 75 0
-583 -866 0
908 -50 0
-633 0
-221 -850 0
-694 -293 0
-48 340 0
-208 0
-674 423 0
169 -446 0
280 -295 0
-576 445 0
-661 0
-319 0
-485 -732 0
-880 -97 0
-178 0
904 -817 0
-519 0
-748 0
-969 0
313 -374 0
659 -313 0
-229 -323 0
-583 687 0
-314 0
-151 -903 0
-928 -885 0
-624 459 0
-498 0
-151 -932 0
-440 923 0
66 -634 0
589 -578 0
-352 0
-326 0
-328 0
-42 0
-614 775 0
-491 0
-760 -406 0
-934 0
939 -74 0
-607 949 0
-620 0
-263 87 0
313 -451 0
120 -11 0
-875 0
-688 581 0
-981 -811 0
-391 427 0
-311 579 0
-361 0
-763 0
-496 513 0
-115 263 0
-21 -753 0
-967 942 0
-672 993 0
-369 0
-987 0
-409 0
-167 135 0
-283 0
-577 0
-358 630 0
-707 0
-14 0
524 -449 0
997 -563 0
-592 0
361 -742 0
-429 -524 0
-790 0
83 -123 0
-196 693 0
-893 0
98 -690 0
-690 -401 0
-973 -475 0
-702 -428 0
-632 0
-188 855 0
874 -244 0
-416 125 0
-398 -108 0
-872 0
-970 367 0
-887 0
512 -995 0
-238 0
136 -906 0
-988 -610 0
-472 0
-425 -177 0
-639 0
-738 0
-481 0
-367 781 0
-108 0
-204 0
564 -106 0
-106 998 0
816 -109 0
-256 270 0
-46 0
-272 456 0
201 -773 0
-182 -813 0
-559 0
-887 -745 0
808 -798 0
-228 0
-61 0
-54 58 0
-935 -241 0
-899 0
-816 -674 0
-48 204 0
-744 0
-336 160 0
752 -659 0
-674 0
-415 -674 0
-781 0
-696 390 0
-375 -21 0
-701 996 0
-644 0
-118 243 0
-787 0
960 -278 0
-428 -850 0
-461 0
-200 -69 0
-339 -985 0
-970 0
-104 0
-910 -442 0
-747 0
-887 628 0
-141 -556 0
-981 607 0
-701 -514 0
-398 0
-51 0
-834 0
85 -890 0
-926 -915 0
595 -305 0
-624 755 0
-452 0
-103 439 0
-127 0
-470 540 0
-183 881 0
-335 0
-700 935 0
-617 -713 0
-62 902 0
256 -726 0
-19 0
-743 0
-941 -372 0
-286 684 0
18 -154 0
105 -755 0
-364 532 0
-469 -706 0
-577 927 0
-824 -467 0
914 -244 0
-661 -745 0
-207 371 0
-658 0
-239 625 0
-621 -162 0
-223 271 0
-235 47 0
-801 0
-577 -457 0
-79 0
634 -163 0
-985 0
541 -538 0
-502 -649 0
-259 0
-354 0
-232 687 0
-576 -806 0
-332 -778 0
-124 294 0
-132 -66 0
-884 637 0
-902 651 0
-112 4 0
632 -373 0
761 -532 0
-323 -770 0
-371 -786 0
-776 0
-760 -18 0
-416 -739 0
-891 0
-554 -865 0
705 -669 0
-661 0
380 -452 0
-753 0
-852 0
-31 0
27 -716 0
165 -681 0
-598 0
-751 0
-347 0
-847 639 0
-87 0
-376 0
-883 0
-129 0
-919 0
-776 -181 0
-585 -345 0
-754 0
-334 0
-124 -804 0
-253 837 0
-977 0
-974 0
-741 0
-243 -339 0
-429 -37 0
-485 0
-494 0
-307 0
-600 -799 0
-230 0
-611 207 0
-759 -82 0
-751 0
-578 -785 0
493 -338 0
-354 535 0
-284 -122 0
856 -87 0
332 -195 0
-67 0
-584 -54 0
-447 0
-754 0
-540 0
397 -594 0
-670 0
-918 759 0
-175 0
-269 683 0
-266 0
969 -979 0
-480 -65 0
-139 0
-963 62 0
130 -597 0
785 -455 0
-845 -586 0
-595 206 0
-619 0
-525 -180 0
-668 790 0
-647 -873 0
-248 -719 0
110 -737 0
-588 430 0
-20 0
-273 0
-711 -838 0
-125 -219 0
-636 -385 0
651 -964 0
-988 -385 0
-27 0
-863 0
-356 606 0
-154 0
-528 -158 0
700 -113 0
-434 0
-252 269 0
313 -652 0
136 -639 0
-292 0
-356 351 0
35 -60 0
-575 679 0
-364 -635 0
-117 367 0
-978 0
812 -323 0
-906 -593 0
-133 -954 0
656 -167 0
-776 0
-487 0
-985 0
496 -929 0
-45 147 0
-949 0
-792 831 0
-7 0
-499 0
-533 751 0
-578 -441 0
-259 -233 0
-183 0
125 -27 0
-281 0
498 -731 0
525 -265 0
852 -331 0
-212 -402 0
-689 0
950 -681 0
84 -163 0
-578 0
-623 342 0
-377 0
-724 407 0
-672 484 0
-464 596 0
-70 0
-338 -882 0
-951 -763 0
-624 0
-264 -579 0
-306 -898 0
-507 0
-988 0
-816 0
569 -137 0
-633 0
-735 166 0
-630 -331 0
752 -499 0
-470 0
-450 -321 0
-222 -652 0
-52 -891 0
-203 0
625 -555 0
-599 519 0
-339 207 0
-412 0
-323 0
-94 -686 0
-544 862 0
195 -740 0
-445 0
-119 -925 0
-599 -269 0
936 -469 0
674 -402 0
-613 431 0
-919 0
89 -887 0
-604 -290 0
-732 0
-863 0
-696 -252 0
-480 0
-645 0
844 -257 0
-885 0
810 -442 0
-935 -286 0
-502 0
164 -890 0
-613 -162 0
298 -291 0
294 -409 0
188 -356 0
-393 0
-214 949 0
-448 -879 0
-382 -653 0
-905 0
965 -50 0
-785 -497 0
991 -217 0
-245 0
-766 -630 0
-731 0
580 -993 0
-837 0
931 -716 0
-295 799 0
-565 0
-204 0
-666 0
-915 237 0
-240 -685 0
-776 561 0
-603 -378 0
537 -514 0
-702 950 0
-260 0
-877 214 0
-738 0
-376 896 0
714 -164 0
-763 -266 0
-600 0
-396 0
-958 595 0
-190 0
-114 0
-683 742 0
-515 727 0
-964 0
685 -385 0
658 -225 0
-36 0
-151 0
-991 -603 0
-109 -507 0
848 -191 0
-679 68 0
-131 0
-394 0
-568 -165 0
-564 0
-238 0
-628 941 0
-487 0
-892 927 0
-590 685 0
-542 0
-892 0
-662 0
-443 677 0
-360 0
-311 630 0
370 -187 0
-438 623 0
-749 0
-582 781 0
-95 143 0
-174 685 0
-606 106 0
-179 574 0
956 -554 0
188 -825 0
-545 0
-432 -164 0
-162 0
-973 0
-41 0
-573 -884 0
-487 -811 0
-837 0
-279 0
-578 -945 0
-544 800 0
-669 -617 0
289 -315 0
-767 -725 0
-124 0
-212 -977 0
-708 0
-152 0
-470 0
-651 0
-640 -960 0
-702 0
-93 0
-666 0
-280 0
-950 0
592 -269 0
-84 0
-523 0
-36 0
-695 356 0
-568 0
-588 149 0
-427 830 0
-936 755 0
-259 0
-469 0
-796 0
661 -801 0
-890 0
-197 292 0
-659 0
-147 0
838 -641 0
-697 287 0
504 -326 0
-550 -789 0
-718 -315 0
74 -618 0
-622 147 0
643 -108 0
-94 -515 0
-827 0
-550 0
-137 0
-743 -25 0
-534 479 0
795 -804 0
-299 0
684 -571 0
-764 0
214 -538 0
-567 0
-52 -113 0
-292 372 0
97 -930 0
-322 0
-46 0
-977 0
-9 0
-559 0
-151 0
697 -997 0
-293 0
-827 -345 0
-979 -505 0
-689 0
-559 -558 0
-903 153 0
-423 31 0
-209 0
-960 139 0
-300 30 0
-208 -826 0
761 -890 0
736 -663 0
601 -593 0
-822 0
-975 -345 0
776 -97 0
-69 0
-422 -765 0
-430 0
-651 0
-757 0
-311 0
-565 838 0
-930 -313 0
-375 0
-308 -35 0
-378 -305 0
-462 890 0
91 -667 0
-441 0
-941 0
-737 0
-692 0
-855 -253 0
-731 575 0
-931 -107 0
-496 0
-392 0
-656 -712 0
-778 0
-248 0
706 -505 0
-998 219 0
-159 0
-452 31 0
377 -887 0
-331 0
505 -543 0
-298 0
-965 782 0
-535 53 0
-989 -627 0
-288 -725 0
-360 19 0
-966 755 0
-957 -805 0
424 -863 0
-752 -393 0
397 -17 0
-127 0
-234 0
-369 0
-527 -549 0
-485 0
496 -162 0
-798 0
-168 0
-8 854 0
-766 -195 0
546 -37 0
-426 0
-285 -365 0
-86 -278 0
-316 750 0
-406 375 0
-198 -962 0
-666 0
-910 0
-758 -965 0
272 -350 0
-363 0
369 -821 0
658 -363 0
-351 817 0
-767 -326 0
-381 -945 0
570 -332 0
-775 0
-931 -115 0
733 -274 0
-381 0
996 -690 0
-688 -69 0
-734 0
-584 0
-30 0
379 -803 0
-473 0
-983 507 0
-657 0
-119 0
-969 0
-214 356 0
-503 -103 0
-675 -419 0
667 -516 0
816 -171 0
729 -786 0
-131 0
-447 0
-703 -28 0
-947 0
692 -745 0
-208 0
476 -956 0
-831 -657 0
-446 0
-52 334 0
-676 0
-230 -189 0
-738 0
312 -475 0
-409 0
-192 -301 0
-923 0
-295 0
459 -915 0
236 -963 0
-559 0
-383 637 0
-931 -57 0
-474 0
-575 -941 0
-547 389 0
136 -348 0
129 -166 0
-899 0
569 -518 0
-993 -209 0
-551 892 0
-439 -215 0
-623 -681 0
-672 694 0
-326 0
-13 70 0
976 -36 0
-347 0
-525 0
382 -785 0
-754 0
-16 0
-63 0
730 -187 0
-622 0
-6 0
-125 0
-582 -37 0
538 -35 0
-68 -26 0
-112 522 0
-849 0
344 -594 0
-495 0
-946 0
-337 0
-484 0
-730 0
-426 -209 0
-326 0
-61 0
-813 0
-904 125 0
-389 0
-500 -489 0
-951 -562 0
-981 659 0
-65 0
-806 500 0
-917 421 0
-903 0
-252 639 0
-951 -395 0
-47 0
-735 -246 0
-681 0
-471 0
-612 0
-334 0
-616 329 0
-128 0
90 -554 0
-172 0
-45 -849 0
-401 0
-705 0
-15 0
-443 -138 0
-752 0
-31 0
-788 -932 0
-131 0
-915 0
-301 -233 0
-51 -193 0
-303 -301 0
-492 0
-628 0
-822 -204 0
-493 -692 0
-384 0
-67 0
-303 -962 0
-856 977 0
-69 590 0
-773 0
-888 939 0
696 -875 0
-597 -540 0
-403 0
-645 -810 0
-551 591 0
234 -689 0
-268 0
-127 38 0
-908 0
-847 -570 0
489 -521 0
417 -858 0
299 -769 0
480 -969 0
-165 0
-4 461 0
-949 0
913 -389 0
-43 0
-319 0
-611 0
-768 -574 0
-320 0
-404 0
-350 -300 0
-544 -995 0
-425 0
-412 0
-643 -969 0
-288 -977 0
-432 0
-72 0
-863 -653 0
-63 -307 0
-176 45 0
619 -498 0
-696 0
-616 77 0
-71 282 0
-63 -996 0
-197 151 0
-120 0
-350 -182 0
844 -641 0
589 -986 0
-552 0
-71 0
-218 0
-309 0
-895 0
355 -821 0
-496 0
-869 0
-256 405 0
-866 0
-757 -673 0
-974 0
-980 0
-200 -701 0
-734 0
-594 0
-992 373 0
108 -28 0
-64 -87 0
-365 501 0
-413 0
-445 0
49 -79 0
-21 215 0
-997 772 0
-30 829 0
-844 0
-905 0
-367 0
-315 983 0
-325 903 0
19 -813 0
-477 799 0
-559 -379 0
810 -715 0
-317 0
-814 0
-125 550 0
-478 300 0
-658 687 0
416 -938 0
264 -278 0
73 -409 0
-148 446 0
777 -613 0
-914 0
209 -833 0
592 -24 0
-664 598 0
-651 0
862 -481 0
-602 0
-86 -981 0
377 -827 0
-523 0
392 -570 0
-788 0
-340 285 0
-856 -921 0
-829 0
-352 -579 0
40 -966 0
40 -71 0
-612 -49 0
-782 -210 0
483 -604 0
315 -845 0
-474 0
-84 0
-670 524 0
-408 -289 0
-494 654 0
832 -610 0
-331 -867 0
-157 0
-568 948 0
-800 0
-942 -514 0
-907 0
-979 0
-402 0
-30 0
-78 -974 0
-49 0
-438 -515 0
-77 0
-99 0
-118 0
-164 655 0
-667 0
-432 -32 0
-998 108 0
-733 0
-393 0
-239 969 0
368 -812 0
-733 0
-801 0
-610 0
-664 0
-124 815 0
272 -606 0
-223 254 0
625 -527 0
-382 -774 0
-40 355 0
-343 0
-806 58 0
176 -530 0
-93 -76 0
-671 0
-768 0
-563 0
-173 -507 0
-313 0
-584 919 0
-235 590 0
-312 -533 0
-186 0
-358 439 0
224 -619 0
-621 333 0
-728 -133 0
-846 -156 0
-445 -956 0
-207 -108 0
-840 0
65 -135 0
-533 0
890 -252 0
-6 0
-706 0
164 -162 0
-880 90 0
-149 78 0
83 -859 0
986 -506 0
-444 0
-95 0
-284 -484 0
172 -362 0
-648 0
-595 0
569 -353 0
-500 847 0
941 -537 0
-105 -265 0
-8 780 0
-94 534 0
-838 0
-251 0
-799 663 0
-565 982 0
-522 0
-448 0
-610 0
-148 0
-594 0
616 -620 0
-96 0
-858 0
-5 0
-868 0
-997 -915 0
-787 0
-674 0
-840 108 0
-805 79 0
-909 0
-95 0
-298 239 0
-70 0
-847 630 0
363 -618 0
-536 0
-426 0
24 -957 0
-730 0
-233 0
650 -197 0
848 -132 0
-104 964 0
-73 0
-316 0
-339 462 0
-321 0
-235 0
52 -964 0
-983 594 0
693 -313 0
-650 0
-910 0
902 -953 0
-694 -609 0
-492 828 0
-813 341 0
-325 887 0
-416 -830 0
161 -956 0
-294 0
-604 0
484 -91 0
-512 469 0
-720 0
-175 332 0
-744 -425 0
-603 0
-423 719 0
803 -843 0
-611 0
498 -434 0
265 -945 0
-626 0
-427 0
-728 0
-807 346 0
-847 47 0
-482 0
533 -379 0
241 -813 0
-80 -954 0
-434 0
-142 0
330 -595 0
-483 0
366 -793 0
-768 0
-511 233 0
-456 0
380 -420 0
-983 -78 0
-392 -5 0
-100 0
308 -465 0
379 -60 0
-152 0
1000 -494 0
-109 0
-139 -457 0
-764 0
-109 0
234 -228 0
-310 0
-194 0
-109 -467 0
-974 0
-821 444 0
337 -994 0
-879 0
-312 -730 0
-53 0
-642 0
-118 0
-679 0
-764 -259 0
-592 -395 0
-896 500 0
-20 -115 0
-547 0
257 -646 0
344 -284 0
-60 -948 0
-645 0
-447 0
-502 -286 0
-795 469 0
-624 -336 0
-390 -982 0
24 -674 0
-614 -769 0
-904 -674 0
-339 0
-507 0
-127 774 0
-376 -600 0
-978 0
-611 0
-352 0
115 -492 0
-427 0
-774 0
-312 547 0
-13 798 0
-856 635 0
-576 -548 0
-249 0
584 -171 0
-686 0
-430 0
-269 0
-179 0
-727 0
-699 0
-216 93 0
-986 0
-504 12 0
-676 325 0
457 -637 0
624 -844 0
465 -365 0
-96 -882 0
-605 0
138 -60 0
661 -537 0
-356 0
-765 0
-438 0
-165 -611 0
-64 -622 0
-532 238 0
736 -337 0
-276 0
568 -110 0
939 -924 0
-791 0
-137 0
515 -811 0
841 -335 0
-762 0
604 -818 0
-561 -257 0
-47 0
-692 335 0
-551 0
-739 -50 0
152 -206 0
-39 0
-228 327 0
-594 0
-613 0
274 -718 0
93 -697 0
-404 -257 0
-287 370 0
-667 215 0
-288 -15 0
-633 0
-132 135 0
-19 0
506 -356 0
-117 0
-427 -513 0
-870 0
186 -366 0
-693 219 0
-258 0
-199 -972 0
-648 -879 0
-40 0
-193 0
-97 0
-852 -883 0
-42 0
971 -308 0
-922 0
-877 -570 0
856 -740 0
688 -624 0
-33 0
-73 0
-808 952 0
-151 -162 0
-226 783 0
-1000 884 0
-83 -530 0
-976 614 0
-191 0
-750 0
-652 583 0
-916 0
-130 -833 0
-340 0
936 -274 0
-934 949 0
-920 481 0
-663 0
835 -308 0
738 -106 0
-213 0
-508 0
680 -822 0
640 -985 0
-807 316 0
892 -498 0
-51 949 0
-334 0
945 -789 0
-844 0
555 -764 0
-214 373 0
877 -602 0
-231 0
-203 -930 0
-620 0
960 -540 0
-110 -801 0
-980 0
-729 -609 0
-836 0
-657 0
-295 377 0
-581 454 0
618 -51 0
-989 0
996 -465 0
-407 -993 0
-42 423 0
-183 598 0
-294 0
-365 734 0
-490 935 0
-119 0
-159 0
834 -378 0
-392 -421 0
696 -135 0
720 -714 0
-6 0
-631 0
-438 0
-112 0
-294 -825 0
-625 0
-820 0
-807 261 0
-45 -940 0
-90 0
-376 707 0
721 -321 0
-649 0
-803 30 0
548 -787 0
-104 -509 0
-509 143 0
752 -158 0
-300 0
-75 0
-703 0
-203 0
-314 -201 0
856 -797 0
-247 0
-119 340 0
656 -745 0
-152 0
-220 925 0
-224 760 0
-572 957 0
649 -775 0
-110 647 0
-53 0
123 -170 0
-12 -995 0
-774 0
260 -427 0
-134 0
-756 589 0
-671 0
-807 -521 0
-983 -242 0
-32 0
-999 0
-511 399 0
-752 -577 0
-767 -430 0
-443 0
-202 767 0
948 -266 0
775 -857 0
-826 0
-640 401 0
-928 -927 0
-712 -781 0
-138 0
-671 0
833 -151 0
-672 -960 0
496 -5 0
537 -710 0
-110 626 0
-125 -436 0
-916 125 0
-634 0
-903 460 0
944 -774 0
-542 0
-231 0
-55 0
652 -524 0
-175 -947 0
-900 852 0
-137 0
904 -862 0
30 -137 0
-651 0
-451 -946 0
-997 -841 0
136 -661 0
-847 -26 0
-661 -10 0
424 -829 0
507 -459 0
-947 -963 0
-989 0
-719 91 0
-605 0
-805 0
576 -353 0
-951 433 0
-787 0
-373 0
146 -219 0
-838 0
-706 0
-48 461 0
-816 67 0
-735 0
-924 0
-383 0
-539 0
347 -723 0
-335 0
-409 0
-404 325 0
-594 0
466 -93 0
857 -172 0
-333 0
739 -330 0
974 -841 0
644 -1 0
-953 0
-790 0
539 -737 0
-874 0
-990 0
-197 0
-203 0
-676 0
-643 -729 0
-23 0
-716 0
-957 0
-15 317 0
-735 0
-716 0
-861 0
-518 0
-127 0
-440 -364 0
-690 0
-776 -146 0
-875 -969 0
-607 404 0
-993 0
-413 -612 0
-52 0
-702 0
784 -589 0
-845 79 0
-23 0
-854 0
-525 0
-56 -886 0
-650 -178 0
-970 0
-67 0
-934 -305 0
-430 365 0
-935 0
-650 807 0
-867 -450 0
914 -373 0
-435 -490 0
442 -819 0
-184 0
-943 -350 0
-850 0
-718 0
-289 0
-664 0
-702 0
-809 0
786 -434 0
-902 0
-889 0
-407 0
-227 0
-953 0
-888 -995 0
-493 -884 0
-220 -252 0
-976 -483 0
-184 0
-539 0
-485 0
-695 3 0
-410 -65 0
-135 0
320 -901 0
-824 0
424 -151 0
99 -723 0
-702 -597 0
-937 -673 0
217 -962 0
542 -513 0
192 -462 0
-165 -563 0
-349 222 0
257 -613 0
453 -715 0
-159 0
-294 0
-678 -827 0
121 -359 0
-603 -457 0
-561 0
-437 -485 0
587 -730 0
-184 397 0
-363 31 0
-555 0
-907 0
-88 0
-741 0
-31 0
-125 -921 0
-122 0
-604 430 0
-973 534 0
-260 -948 0
-2 0
30 -905 0
-543 0
-462 124 0
-860 0
33 -700 0
-294 0
-474 0
-490 0
-35 -715 0
-272 762 0
-924 0
-872 -303 0
-321 0
-367 0
-710 159 0
-826 0
-936 0
-337 0
-817 0
-860 0
602 -603 0
-387 0
485 -34 0
76 -411 0
834 -492 0
-922 86 0
-421 686 0
-656 -523 0
-790 -629 0
-559 949 0
520 -417 0
-779 0
-218 0
-741 0
-903 0
-619 0
808 -726 0
-815 -217 0
-964 0
-130 655 0
301 -874 0
-635 -489 0
-624 0
587 -266 0
-370 -865 0
-821 0
-495 -930 0
-415 218 0
-642 -497 0
-996 223 0
-811 0
-127 0
-400 0
-332 0
-136 0
-847 -164 0
-601 0
-19 -994 0
-576 -55 0
-551 -724 0
953 -716 0
-551 0
-475 0
368 -69 0
-215 0
-223 0
-456 77 0
-393 0
619 -109 0
-757 0
-452 -242 0
593 -9 0
593 -454 0
-283 0
-119 0
-197 -321 0
-917 127 0
-153 0
-142 699 0
809 -537 0
323 -931 0
209 -939 0
-147 0
-78 0
-484 0
-222 -109 0
-688 141 0
-486 139 0
-319 0
-176 357 0
-56 -663 0
752 -337 0
-883 0
861 -890 0
-883 0
-939 -42 0
-90 0
491 -348 0
-241 0
-642 0
-296 0
600 -170 0
476 -394 0
-147 510 0
-766 -698 0
-407 -580 0
-733 0
-203 0
-925 439 0
-783 -547 0
-261 -114 0
-959 93 0
-532 437 0
-399 -462 0
-478 0
-978 0
-632 0
-776 -687 0
299 -339 0
793 -540 0
-215 700 0
-386 206 0
-349 -867 0
-767 694 0
-288 -874 0
666 -782 0
-918 0
-743 721 0
-431 0
890 -707 0
-478 0
-20 0
-364 367 0
-65 0
-665 0
-561 0
866 -97 0
-971 719 0
-342 -882 0
-846 0
-928 644 0
-42 0
239 -577 0
-127 172 0
-71 -199 0
-641 0
-674 -41 0
-759 0
-41 0
-38 0
-575 892 0
-68 0
-325 550 0
-504 0
-925 111 0
-41 0
730 -910 0
-896 71 0
-489 0
-832 676 0
-655 0
-709 565 0
-217 775 0
112 -68 0
-378 62 0
-700 0
-863 -684 0
-771 -505 0
-303 123 0
-213 47 0
-541 487 0
80 -374 0
-374 621 0
217 -117 0
-857 0
-124 0
-629 708 0
-435 510 0
-381 0
-648 614 0
-610 0
-410 0
853 -442 0
-915 0
552 -347 0
-872 361 0
842 -809 0
-13 798 0
126 -889 0
145 -910 0
933 -178 0
426 -755 0
-423 -718 0
154 -293 0
-488 0
-416 -605 0
-563 0
-545 0
-943 -898 0
-768 408 0
-749 517 0
-351 -22 0
-696 0
-935 834 0
-752 38 0
-965 -628 0
-292 0
-871 -468 0
938 -94 0
-568 842 0
-414 438 0
-368 -723 0
-162 0
-941 0
273 -606 0
-66 0
776 -147 0
-71 -395 0
-197 0
732 -371 0
-900 -777 0
-155 0
954 -1 0
765 -43 0
-39 733 0
104 -702 0
-800 -437 0
457 -644 0
897 -777 0
-175 868 0
-954 0
-52 0
-172 -523 0
-80 -276 0
-311 -420 0
-831 0
-884 -809 0
-315 0
-392 -995 0
-159 -749 0
-524 759 0
170 -874 0
824 -504 0
-367 0
-147 197 0
-495 399 0
-663 0
138 -53 0
-200 0
-262 -229 0
-158 219 0
-664 115 0
-281 0
-592 520 0
-8 0
-707 -555 0
737 -499 0
184 -907 0
-166 -243 0
656 -86 0
-598 0
-893 0
-272 878 0
-783 677 0
-818 0
-315 62 0
346 -794 0
-750 -746 0
-615 295 0
-216 -719 0
-415 689 0
-155 455 0
-278 836 0
-654 -435 0
500 -769 0
-959 0
954 -235 0
-703 807 0
-727 0
858 -669 0
-391 -163 0
1 -425 0
-207 434 0
265 -893 0
-584 0
-744 0
-887 0
-620 901 0
-607 -836 0
938 -770 0
-297 0
-589 -345 0
-420 0
667 -821 0
-918 0
-169 0
-678 0
-689 0
-808 0
-973 279 0
-250 0
-785 0
457 -379 0
-636 0
104 -112 0
-575 -806 0
-420 0
-742 0
-647 363 0
-832 0
-754 0
698 -229 0
-640 -331 0
-800 0
-685 0
-647 -153 0
-695 0
-298 358 0
-993 0
-240 0
-476 0
-816 -532 0
-252 93 0
723 -785 0
-402 0
-619 0
-515 0
-712 -6 0
-183 571 0
368 -155 0
-80 564 0
-218 -514 0
-236 0
-808 675 0
370 -510 0
-341 0
-540 -395 0
-429 982 0
-536 54 0
-544 -198 0
930 -380 0
-788 0
-378 0
-32 -223 0
-763 0
-717 -379 0
-11 -769 0
-439 114 0
402 -283 0
-670 -138 0
-859 0
-287 415 0
-459 -897 0
-834 0
-326 0
-215 -147 0
-823 -937 0
74 -786 0
-707 0
-360 0
-540 0
-644 -753 0
-942 271 0
-966 0
-740 263 0
676 -507 0
-487 0
-261 -643 0
-303 292 0
-808 0
-527 -18 0
-601 0
-481 0
-173 0
-160 1000 0
-723 0
93 -131 0
-930 0
-931 0
-463 0
171 -355 0
426 -650 0
-180 0
708 -138 0
-773 0
781 -19 0
-454 0
-863 358 0
-784 782 0
-694 579 0
392 -116 0
-400 -978 0
749 -873 0
-727 919 0
-579 -866 0
-951 333 0
-504 0
-739 781 0
-827 0
-748 662 0
-676 599 0
830 -825 0
912 -814 0
-160 678 0
-263 0
-285 -802 0
-607 0
-46 0
-303 -660 0
-350 0
-960 340 0
-170 0
-120 755 0
-653 0
-336 -435 0
-865 -929 0
160 -634 0
421 -50 0
-216 0
-268 0
-109 0
-747 -555 0
-709 0
981 -9 0
-306 -801 0
-175 0
-293 668 0
-402 0
-829 0
-780 526 0
-504 -286 0
-814 0
-629 0
-600 0
-439 0
-32 -350 0
-372 510 0
-556 0
-371 0
-183 -300 0
-659 0
-747 -611 0
-136 0
-485 -916 0
-563 -834 0
-135 -557 0
-16 -234 0
-177 0
448 -343 0
-394 0
-533 -355 0
-55 0
433 -361 0
-310 -973 0
-488 -836 0
328 -591 0
-684 382 0
-832 0
-792 -451 0
469 -498 0
-414 -396 0
-90 0
-742 -379 0
-763 0
64 -477 0
91 -626 0
-141 -157 0
-990 507 0
-62 0
-299 -251 0
-134 -723 0
-227 -977 0
339 -817 0
-453 0
-459 0
-502 0
-862 0
-680 0
-941 0
-967 -381 0
-631 -314 0
-339 0
-702 0
997 -371 0
-361 0
-232 -513 0
-512 -380 0
-330 0
-519 116 0
-602 110 0
-716 0
-632 -300 0
-715 -107 0
-931 0
-388 -818 0
-861 0
-896 -880 0
-40 0
564 -724 0
-104 257 0
520 -688 0
-347 -114 0
-278 84 0
-152 0
220 -106 0
-372 0
-664 318 0
-428 0
-227 -18 0
-612 -289 0
-352 0
-200 -502 0
-428 0
-174 0
-837 0
-701 -371 0
-492 -571 0
-947 0
-423 -135 0
-417 0
-48 0
-71 -546 0
-827 0
-790 981 0
-96 465 0
-939 0
-31 0
-740 -690 0
-229 997 0
-629 -57 0
-376 134 0
-345 0
-434 0
-818 0
977 -188 0
-313 -841 0
436 -531 0
-686 -619 0
64 -349 0
-464 0
-624 0
-816 -761 0
427 -882 0
-478 54 0
-396 0
-447 -333 0
-163 0
-402 0
-602 0
-983 -554 0
-900 0
-398 0
-866 0
-837 -513 0
-54 -549 0
-639 -970 0
-552 -434 0
-216 653 0
-149 0
817 -436 0
-56 -686 0
-265 0
917 -433 0
571 -961 0
-154 0
568 -595 0
243 -562 0
-596 991 0
-379 -242 0
-394 0
-229 0
-133 251 0
-771 0
-834 0
-220 0
994 -957 0
-269 518 0
-645 972 0
-593 0
-887 0
-999 -601 0
-176 -511 0
-727 0
-835 735 0
-776 130 0
-524 0
-621 0
-351 0
386 -805 0
-368 -821 0
549 -393 0
-568 -543 0
-965 -732 0
877 -665 0
-223 -606 0
-939 646 0
-566 155 0
-456 608 0
-427 0
-641 0
-151 0
-958 2 0
-471 -261 0
-236 373 0
-904 0
-817 0
-125 39 0
-113 0
-266 0
-514 0
-888 815 0
-816 479 0
-935 0
-79 -129 0
-35 0
-580 0
-840 -909 0
-338 0
-776 0
-400 -533 0
-593 0
-238 0
124 -563 0
-459 -394 0
-8 -404 0
-176 267 0
944 -909 0
378 -203 0
-884 -57 0
-979 463 0
872 -991 0
-281 0
-447 -403 0
-716 0
-145 0
-949 -778 0
-634 0
-864 0
-250 0
-8 33 0
-728 938 0
-953 0
-536 -41 0
-599 0
-73 0
-894 437 0
-278 523 0
-108 0
-299 0
-445 0
-535 0
-788 -810 0
258 -18 0
-725 0
-342 990 0
-697 0
-366 130 0
-246 430 0
-583 0
-508 0
-554 0
-838 0
-556 508 0
345 -82 0
-832 959 0
-428 0
-172 0
209 -106 0
-419 -409 0
-725 -746 0
-871 0
-499 -411 0
-879 -810 0
527 -761 0
-436 334 0
-811 0
-430 0
-385 0
-188 -236 0
-560 0
-451 -602 0
-991 0
971 -873 0
-310 0
-289 0
-395 -17 0
201 -414 0
-389 0
-426 0
-214 0
-293 -857 0
-744 0
-96 753 0
-216 -714 0
-991 0
-896 0
-842 0
624 -930 0
694 -330 0
-941 876 0
-846 -290 0
-161 0
-731 -411 0
-551 0
-301 0
-701 0
-494 0
-198 0
-942 732 0
189 -266 0
-24 0
-359 -436 0
-664 0
-607 0
-839 715 0
-804 21 0
-670 -155 0
-335 0
-20 0
-234 -329 0
-750 278 0
-951 0
-884 0
-453 -434 0
-448 0
56 -960 0
-718 925 0
740 -842 0
-795 0
-882 -226 0
27 -757 0
-376 0
-733 678 0
-823 -540 0
-710 974 0
-972 0
-619 0
-527 101 0
-187 0
27 -953 0
930 -553 0
-22 -745 0
-770 0
-756 0
-780 -796 0
-845 0
-285 0
-607 975 0
-357 0
-90 0
-64 315 0
-53 0
-60 157 0
-383 534 0
-742 -613 0
193 -14 0
-270 0
-618 0
-964 -67 0
972 -57 0
-127 0
352 -915 0
-225 0
-7 0
-519 -858 0
-78 0
-145 0
-87 -306 0
-848 144 0
-188 758 0
-248 732 0
308 -667 0
-172 127 0
-360 0
592 -643 0
-284 -403 0
-443 0
570 -301 0
-652 0
-308 165 0
-422 0
-135 434 0
-188 0
321 -766 0
-510 -305 0
995 -475 0
-890 0
-32 -211 0
234 -485 0
253 -331 0
522 -314 0
-147 0
-183 0
131 -817 0
240 -915 0
880 -755 0
-559 594 0
16 -988 0
-432 -211 0
-129 0
506 -716 0
-442 607 0
-66 0
-325 0
-446 0
-710 790 0
-613 335 0
-326 -282 0
-455 0
-160 -812 0
-614 0
-69 0
-945 0
841 -602 0
-414 837 0
606 -369 0
-28 -41 0
-824 378 0
-376 0
-179 0
933 -586 0
-442 0
-103 613 0
38 -578 0
-297 0
-754 0
-916 358 0
505 -396 0
-350 269 0
-965 0
-407 791 0
-163 -89 0
775 -433 0
-843 -954 0
-381 0
-103 -293 0
-111 -650 0
738 -645 0
-988 -761 0
-79 0
-79 0
-236 -603 0
-343 0
-575 0
-237 877 0
-413 0
-264 0
-186 0
-558 0
-254 -324 0
-69 -330 0
-216 0
56 -933 0
-115 0
982 -9 0
-492 -769 0
-807 0
-243 0
-455 972 0
-524 -801 0
-582 949 0
-569 0
867 -100 0
-780 527 0
-943 965 0
-60 805 0
401 -221 0
-300 0
-84 -732 0
-974 -924 0
-573 -881 0
-540 0
-53 -611 0
-71 0
1000 -925 0
-689 0
657 -981 0
-204 0
589 -474 0
-141 0
156 -818 0
-839 -577 0
-285 340 0
-608 936 0
-742 -748 0
985 -628 0
-536 297 0
-98 0
-499 71 0
-200 210 0
-612 0
-219 0
-508 0
-948 0
-211 -569 0
161 -979 0
-869 -251 0
-287 0
-712 -431 0
-59 0
-822 0
-928 -453 0
-918 0
-475 0
-917 0
-514 0
574 -1 0
-970 0
-637 916 0
-670 -725 0
-977 -649 0
-624 561 0
897 -849 0
-989 0
84 -268 0
-458 0
-319 743 0
667 -913 0
-91 -817 0
797 -243 0
-962 0
-187 0
-36 0
382 -113 0
-63 746 0
-676 389 0
-901 967 0
-471 -228 0
466 -107 0
-599 0
-511 -66 0
692 -226 0
634 -426 0
-394 0
-16 -230 0
-820 -186 0
-496 542 0
-951 0
-325 79 0
-160 0
-750 0
-918 0
865 -449 0
861 -834 0
-462 0
-182 0
-638 0
-642 0
-732 0
-143 0
-840 919 0
-45 0
-298 502 0
-225 823 0
-719 0
-880 0
-607 0
-64 -309 0
-751 434 0
-254 292 0
-826 0
-165 0
-237 0
-535 927 0
602 -404 0
-222 259 0
-647 876 0
-614 939 0
-749 214 0
-998 0
-131 167 0
-898 0
-877 0
-279 989 0
-877 0
-996 0
-551 0
-452 0
-196 -513 0
-856 -301 0
-380 0
864 -903 0
-110 0
883 -99 0
-584 542 0
-808 290 0
-335 -907 0
-451 0
-265 0
-845 0
-230 -305 0
-619 0
865 -219 0
-390 -186 0
-339 -426 0
-406 -913 0
-132 0
-478 -956 0
-425 -865 0
281 -108 0
-997 0
-13 0
-732 397 0
-63 -254 0
-672 -898 0
477 -817 0
-349 0
-988 -353 0
-490 -953 0
-328 0
795 -556 0
-971 0
-485 -995 0
-451 0
-526 0
-832 225 0
-980 0
-536 0
72 -322 0
832 -809 0
-188 0
-341 0
-504 0
-364 959 0
-157 548 0
-384 -243 0
-999 -849 0
-671 401 0
-542 -945 0
514 -921 0
-480 0
-962 0
-592 92 0
-926 -443 0
-657 0
137 -339 0
-951 282 0
-677 0
-719 0
-822 -493 0
-339 0
-717 -865 0
-146 0
321 -822 0
-296 -158 0
-474 543 0
-338 0
-622 -348 0
-537 0
-405 0
34 -89 0
-235 0
-959 707 0
108 -419 0
684 -19 0
-251 789 0
-439 -977 0
-865 0
-838 -737 0
-550 0
-216 730 0
-824 0
662 -841 0
-95 79 0
-344 0
-502 0
-381 820 0
-836 0
-935 265 0
-765 0
902 -889 0
-196 750 0
-990 919 0
-926 0
-759 -724 0
-909 485 0
572 -571 0
-326 -339 0
-78 0
-556 0
369 -500 0
-713 0
-608 0
-309 -194 0
-14 782 0
-899 0
17 -982 0
-678 195 0
162 -793 0
-651 0
-691 0
-78 323 0
-27 759 0
-539 -281 0
-218 0
-992 0
-570 0
-960 156 0
-880 492 0
-608 203 0
467 -962 0
-902 0
-944 -292 0
-989 0
680 -789 0
-927 423 0
-232 -905 0
225 -885 0
-382 0
598 -513 0
-400 676 0
-857 0
-945 287 0
-640 57 0
-234 0
68 -233 0
-751 0
-740 549 0
-484 0
35 -67 0
-18 0
402 -276 0
-614 754 0
-950 60 0
784 -660 0
-826 -689 0
-774 124 0
-773 0
-915 0
-416 374 0
-702 967 0
233 -654 0
-995 0
-217 0
-515 -595 0
-960 541 0
-127 0
884 -594 0
-343 -748 0
-638 0
529 -749 0
-864 -114 0
-743 817 0
-629 -596 0
-648 0
-528 0
-176 0
453 -377 0
-933 206 0
-382 -602 0
865 -932 0
272 -241 0
-200 890 0
-650 0
-822 -966 0
-726 0
-753 0
705 -961 0
-560 -889 0
890 -481 0
-719 238 0
-702 0
-185 0
-347 0
-696 -330 0
-161 -89 0
-487 932 0
962 -526 0
-882 0
-695 -13 0
42 -123 0
-379 503 0
-827 0
-152 0
-419 0
-513 0
-307 0
616 -210 0
-272 -292 0
-52 796 0
-111 -747 0
-54 0
-438 -219 0
251 -884 0
986 -158 0
-466 0
763 -99 0
-725 557 0
-89 0
-206 -460 0
-779 0
-717 0
-808 0
-924 47 0
-130 286 0
921 -278 0
-636 509 0
-247 916 0
-34 919 0
-384 577 0
-886 -634 0
-262 0
-595 942 0
-877 -43 0
-916 749 0
-816 0
-941 0
-392 590 0
-127 -706 0
-744 386 0
-864 0
592 -917 0
-164 276 0
-684 0
-84 -732 0
-404 903 0
-173 206 0
778 -689 0
-481 0
-95 -477 0
931 -908 0
-222 75 0
-335 187 0
-337 0
4 -546 0
-703 -418 0
-267 0
-774 0
-482 799 0
-98 7 0
-463 0
-558 -466 0
-949 -25 0
812 -979 0
-850 279 0
-106 615 0
-602 0
-465 0
-533 0
-500 748 0
-640 -831 0
-142 0
-494 -865 0
-39 0
-643 0
-659 0
-559 972 0
-525 0
-285 325 0
-164 0
73 -762 0
-153 0
771 -3 0
-810 0
-20 0
776 -839 0
825 -990 0
-399 -515 0
-687 0
-215 389 0
-32 658 0
-13 0
-251 0
-67 0
-349 -882 0
-62 443 0
-391 854 0
-691 959 0
-624 0
-682 0
-765 132 0
-604 0
-987 -913 0
469 -913 0
-711 -715 0
610 -780 0
-154 0
-767 807 0
652 -409 0
-957 636 0
-506 -473 0
-437 316 0
-551 -758 0
-497 0
-765 163 0
-612 348 0
-729 0
-320 0
603 -825 0
-558 -925 0
-63 -978 0
-589 -394 0
843 -717 0
-516 734 0
-584 0
548 -971 0
-402 0
-63 0
-226 0
960 -292 0
-108 317 0
-334 0
-794 0
-284 -298 0
-979 687 0
-184 244 0
-418 0
-746 0
600 -73 0
-127 558 0
-159 0
-727 658 0
-407 0
-477 -538 0
-735 458 0
-712 0
-320 0
-744 0
-940 0
28 -347 0
476 -236 0
125 -426 0
-385 0
-146 0
529 -847 0
-278 -170 0
20 -187 0
-862 0
-935 0
-959 181 0
722 -885 0
-785 -25 0
-993 319 0
-101 0
-751 -699 0
6 -177 0
682 -234 0
-73 0
-385 0
-847 0
-625 0
-216 0
-608 0
424 -262 0
-734 0
-542 0
-266 0
698 -845 0
-856 -1000 0
-438 0
-963 607 0
-79 -668 0
707 -380 0
-774 0
-34 -738 0
-224 -319 0
-210 -721 0
794 -291 0
-744 130 0
785 -169 0
-829 527 0
875 -73 0
154 -173 0
-134 0
-209 0
-526 510 0
-443 271 0
-111 0
-387 0
211 -433 0
-650 0
-787 0
-719 0
528 -760 0
-336 -484 0
-270 0
-495 0
779 -434 0
-388 -276 0
-962 -322 0
-695 35 0
-559 708 0
-943 209 0
-518 -50 0
-920 671 0
-863 0
259 -101 0
602 -82 0
-633 -345 0
-898 0
-821 0
-872 795 0
-989 -155 0
-210 0
433 -244 0
-179 -937 0
-252 0
-104 0
-668 0
-836 0
-572 0
-47 0
-880 -652 0
-808 0
789 -881 0
-363 0
905 -730 0
769 -381 0
-891 0
124 -585 0
465 -274 0
-891 -225 0
-144 -450 0
-688 -301 0
-757 0
-641 0
360 -625 0
-948 214 0
-780 557 0
-464 0
-187 0
-734 -587 0
-780 503 0
483 -370 0
-51 -322 0
-771 -3 0
369 -523 0
-767 0
-310 0
-996 -643 0
-316 565 0
-544 0
-418 727 0
-138 0
8 -413 0
892 -713 0
258 -459 0
-804 229 0
-93 0
-192 -59 0
-227 -946 0
624 -422 0
-56 4 0
-956 0
-694 382 0
216 -583 0
-106 0
-112 -982 0
-269 0
-759 0
-555 0
-377 855 0
259 -500 0
-928 0
-191 14 0
-240 3 0
613 -193 0
61 -930 0
64 -383 0
-171 0
-837 798 0
-493 0
-207 135 0
-431 -686 0
-184 525 0
-171 0
-48 352 0
-508 182 0
849 -383 0
-705 0
-162 0
205 -41 0
468 -67 0
-281 0
960 -742 0
-729 0
-120 303 0
-897 0
-756 0
708 -611 0
412 -89 0
-724 0
-209 -897 0
-471 -373 0
769 -548 0
-695 43 0
-822 -172 0
-164 0
-379 870 0
-280 722 0
-436 0
-425 0
-104 866 0
-78 -138 0
706 -866 0
114 -93 0
-828 0
175 -737 0
-225 0
-78 0
-612 0
466 -268 0
-139 -82 0
586 -620 0
-39 -93 0
-509 -757 0
-96 -957 0
-199 310 0
-76 -74 0
-718 0
-17 0
-827 0
49 -849 0
-28 0
-216 -145 0
-236 -658 0
444 -963 0
-600 0
-140 0
-728 20 0
-424 593 0
-485 0
-782 399 0
-398 0
-889 0
-280 -262 0
-132 0
321 -139 0
-221 -834 0
-969 0
-252 965 0
-12 0
152 -644 0
-86 0
-480 208 0
-995 -545 0
-541 0
-939 0
-458 -490 0
627 -691 0
-586 0
-420 559 0
-159 -594 0
361 -753 0
-915 415 0
-181 -473 0
-334 614 0
-232 0
340 -948 0
-219 0
-951 771 0
-718 0
-969 0
-391 0
-992 0
-336 0
-801 0
-938 -521 0
-398 -689 0
-664 345 0
-994 0
-402 0
-299 -867 0
-169 927 0
-991 111 0
-608 0
8 -807 0
36 -850 0
-254 0
330 -668 0
-646 -314 0
-96 -159 0
996 -66 0
-99 0
-350 526 0
360 -631 0
465 -324 0
-398 -5 0
388 -91 0
-691 0
776 -627 0
-860 709 0
-409 0
-973 0
904 -978 0
-327 -817 0
-397 973 0
-760 0
-200 0
937 -538 0
-959 0
-41 0
-23 830 0
-779 0
-402 0
-817 -153 0
-131 911 0
-921 0
-741 -612 0
-298 0
-79 0
-757 0
-351 0
-117 0
-425 0
-596 -1 0
591 -569 0
-432 0
-808 -595 0
-487 0
-590 -202 0
944 -594 0
-543 -113 0
841 -916 0
452 -204 0
-255 -612 0
-857 0
-800 917 0
762 -322 0
-241 0
708 -794 0
-512 0
-485 -28 0
-568 156 0
-921 0
-172 0
-852 0
662 -81 0
530 -17 0
-517 703 0
-622 0
-365 0
-183 0
801 -42 0
-436 0
-856 0
858 -131 0
-436 0
-249 0
-746 727 0
-617 -225 0
-217 0
-924 0
-401 0
-855 0
-102 0
-734 0
581 -883 0
714 -28 0
-349 956 0
-181 917 0
-491 -713 0
-620 -537 0
-791 406 0
-879 -420 0
-23 0
-99 0
-708 0
-879 795 0
203 -394 0
-312 0
400 -683 0
-620 973 0
-453 -853 0
-563 0
-256 895 0
-994 631 0
-974 102 0
785 -579 0
729 -222 0
-141 0
835 -555 0
-318 -468 0
41 -674 0
-357 0
65 -290 0
512 -459 0
-974 0
-663 -983 0
968 -653 0
-466 0
717 -490 0
-764 -434 0
-132 0
-366 0
-610 0
-925 -723 0
-956 0
-671 0
905 -146 0
-120 9 0
-567 110 0
-778 0
-966 525 0
-6 0
-796 0
235 -91 0
-164 -866 0
705 -659 0
-263 -359 0
-80 0
442 -700 0
-56 0
-390 0
-56 0
-984 82 0
-552 0
-864 0
-744 -378 0
-168 -17 0
-979 -115 0
-132 0
-895 0
633 -426 0
780 -899 0
-128 0
566 -906 0
196 -59 0
-604 0
-638 0
544 -235 0
-176 171 0
-419 0
-283 -794 0
-200 81 0
-262 -626 0
-959 90 0
-795 358 0
-552 0
-90 0
-311 0
-878 -390 0
-883 0
-920 0
363 -778 0
-343 -517 0
-378 0
445 -906 0
-304 29 0
-560 0
-645 -772 0
544 -390 0
-900 -819 0
-246 892 0
-127 658 0
321 -444 0
350 -474 0
-297 0
-999 -295 0
-788 0
-720 0
-925 0
-30 0
824 -728 0
288 -75 0
-835 0
-469 844 0
-633 0
528 -305 0
-310 -348 0
-713 0
-588 142 0
-884 854 0
-998 284 0
-818 0
-931 0
-173 -242 0
-488 0
-311 67 0
-775 356 0
-81 0
-399 0
159 -833 0
-948 0
337 -974 0
561 -297 0
841 -292 0
-984 0
88 -467 0
93 -34 0
433 -511 0
464 -174 0
-612 -403 0
-822 0
-902 0
-744 -755 0
-868 0
-42 0
-983 -397 0
-596 -43 0
-383 157 0
-998 0
-455 39 0
-348 0
842 -12 0
612 -627 0
-558 -198 0
353 -950 0
-117 0
-812 0
-384 -885 0
-719 -932 0
-69 0
-421 197 0
-91 0
-38 55 0
-278 -698 0
-277 0
-215 732 0
-700 822 0
-863 0
832 -393 0
-555 -194 0
-460 0
905 -612 0
-291 0
-930 0
-622 0
-216 -860 0
-16 -158 0
-935 -548 0
-221 0
-840 40 0
-606 795 0
633 -195 0
324 -284 0
-206 62 0
-982 0
-79 0
-735 486 0
-800 -217 0
-159 0
-295 482 0
973 -451 0
104 -24 0
970 -285 0
-987 0
-586 0
-765 0
704 -18 0
-628 0
-9 0
-116 0
337 -303 0
-94 0
-582 0
248 -273 0
780 -281 0
129 -341 0
-336 783 0
-105 0
331 -265 0
-232 446 0
-902 678 0
-983 485 0
-854 -610 0
-417 0
-663 50 0
-833 0
-301 -275 0
-873 0
697 -369 0
492 -260 0
915 -106 0
-412 0
560 -599 0
987 -305 0
-925 0
187 -804 0
-568 -261 0
-382 0
4 -443 0
-332 0
-381 -689 0
-894 0
-296 581 0
-249 0
-509 934 0
-366 -317 0
-438 0
-970 0
-232 691 0
-855 754 0
-106 0
-372 0
-768 -508 0
-831 -860 0
752 -965 0
272 -36 0
-139 0
-488 0
432 -451 0
-37 524 0
-480 833 0
-537 0
-933 0
-533 916 0
-258 0
-40 934 0
-891 0
578 -474 0
-937 0
-654 0
-912 0
-21 -859 0
-400 -189 0
-383 0
-408 -52 0
-749 0
504 -285 0
831 -489 0
-663 349 0
-761 0
761 -58 0
-188 415 0
-54 151 0
-290 0
352 -932 0
-511 787 0
-772 894 0
-599 0
-618 -586 0
-63 -377 0
-556 533 0
-612 815 0
-898 0
-462 0
-111 -9 0
889 -937 0
-684 -74 0
-939 -297 0
-40 0
-962 71 0
-491 0
-404 462 0
616 -42 0
435 -353 0
-149 998 0
-449 -809 0
-654 0
-383 166 0
-286 0
-782 -676 0
-143 0
315 -745 0
-432 918 0
-373 -58 0
-277 -659 0
-734 -165 0
-379 95 0
-59 741 0
-773 0
-833 799 0
-446 -426 0
278 -97 0
-654 -670 0
-60 0
-568 -44 0
-221 -635 0
-573 12 0
-512 -423 0
-622 0
-527 498 0
-557 0
-920 -39 0
-384 -685 0
-928 877 0
-463 -121 0
-277 676 0
-166 0
-207 0
-344 -916 0
-776 0
-10 0
-575 0
-253 -125 0
432 -158 0
10 -781 0
347 -436 0
-785 0
-180 0
914 -266 0
-868 0
-430 0
-288 174 0
-894 -723 0
-966 -164 0
-192 442 0
97 -396 0
-158 -307 0
-806 506 0
-688 973 0
-716 -459 0
-643 974 0
-358 0
-810 0
-460 -938 0
-68 -979 0
66 -252 0
-338 0
-176 -784 0
-415 634 0
-261 -740 0
-743 -85 0
-138 -441 0
113 -971 0
-90 0
-511 0
-327 0
-292 0
-601 0
859 -564 0
-86 0
-943 13 0
-226 0
52 -682 0
-155 0
-136 0
-940 0
-146 0
150 -249 0
-704 0
529 -25 0
-895 0
-472 0
-367 0
-510 0
-60 -842 0
595 -97 0
-798 628 0
-972 0
-610 0
-341 0
-393 0
-864 -625 0
-391 -117 0
-424 -804 0
-842 0
-608 286 0
-366 0
50 -706 0
-759 0
-372 0
-402 0
-965 -979 0
-119 -891 0
-116 0
-727 0
-374 -986 0
276 -713 0
-598 -18 0
-768 -711 0
186 -681 0
-572 -1 0
-602 0
620 -122 0
-559 0
-846 0
-72 -783 0
-615 812 0
-259 -850 0
88 -207 0
-565 0
169 -290 0
-740 276 0
-912 619 0
-391 68 0
-460 0
660 -26 0
-332 -219 0
-263 -70 0
-790 0
-138 0
939 -500 0
-94 364 0
-935 442 0
-323 0
706 -50 0
-450 -10 0
346 -906 0
-324 -522 0
816 -804 0
-59 0
-861 606 0
-614 -737 0
-610 0
-123 79 0
-536 281 0
-571 0
-544 0
-16 0
-48 513 0
170 -53 0
282 -645 0
-755 0
-660 0
-713 0
-881 0
-340 61 0
-899 0
-380 0
-435 0
-796 0
-281 0
-550 0
-479 0
-216 0
221 -89 0
-295 -995 0
-247 0
613 -657 0
897 -489 0
-602 0
-666 0
-432 124 0
-301 0
-83 -345 0
-269 0
-18 0
-379 0
-831 0
-120 -830 0
-992 -485 0
313 -801 0
-105 0
234 -940 0
538 -13 0
-919 0
-653 -348 0
-526 -179 0
611 -883 0
-248 386 0
-534 923 0
-84 0
-286 0
63 -369 0
-126 0
-543 -516 0
-640 0
905 -12 0
-671 0
-863 0
601 -932 0
-493 845 0
-104 274 0
816 -413 0
-566 0
-266 -473 0
-544 815 0
-488 456 0
-98 0
-992 -659 0
-799 0
296 -650 0
-221 423 0
-721 0
-680 12 0
-779 942 0
716 -753 0
-190 558 0
-715 -98 0
48 -459 0
-439 763 0
-367 716 0
-289 0
-308 0
-110 -121 0
-847 -113 0
-774 0
-730 0
-560 -26 0
-558 -25 0
-188 0
-52 0
-790 0
-490 0
-231 0
260 -762 0
-507 0
-766 414 0
195 -84 0
129 -825 0
-748 0
-100 -211 0
-234 -689 0
-374 0
-648 805 0
-366 0
-444 999 0
322 -873 0
-231 586 0
-811 703 0
930 -562 0
576 -961 0
-723 0
-733 -565 0
-893 542 0
-653 845 0
474 -890 0
658 -470 0
-22 0
-667 471 0
-954 0
-65 0
664 -992 0
-516 0
-661 -50 0
-66 0
941 -497 0
-239 0
-918 0
-877 236 0
-176 0
268 -65 0
-405 23 0
-557 -577 0
1000 -463 0
-610 0
-510 -742 0
-56 -12 0
-583 0
122 -481 0
-534 227 0
-534 -45 0
-218 0
-311 0
-368 430 0
-527 0
-29 0
-70 -868 0
-730 0
12 -281 0
-455 827 0
-986 -394 0
-220 0
-482 415 0
-325 0
-896 0
-7 0
-620 0
-782 -978 0
-995 0
-567 -627 0
-27 0
-479 0
596 -858 0
-674 0
-314 0
-632 -729 0
-216 554 0
-500 0
-759 0
-782 436 0
-120 -659 0
-820 0
-777 0
-295 -537 0
-400 0
-448 988 0
-616 0
-552 0
544 -964 0
91 -403 0
-798 -521 0
325 -19 0
939 -954 0
-236 0
-133 0
-875 103 0
-856 941 0
-358 44 0
348 -577 0
-323 0
-789 62 0
-514 0
-78 -793 0
-43 0
-272 0
-137 0
-318 0
-4 198 0
-654 -740 0
-749 492 0
-664 -937 0
-951 -613 0
-303 0
-585 0
-86 0
24 -990 0
-936 0
482 -179 0
-74 0
-164 87 0
-333 0
-69 510 0
-222 0
-520 0
-832 0
634 -493 0
322 -116 0
-357 598 0
-635 0
-146 -458 0
-207 0
-60 0
-795 0
-704 -365 0
-712 0
-80 0
-45 -163 0
-663 855 0
274 -389 0
-592 0
462 -65 0
-303 628 0
-363 0
-636 0
-56 314 0
-120 236 0
-997 83 0
-51 0
-120 0
349 -9 0
-797 180 0
688 -850 0
-611 151 0
-578 0
226 -882 0
-696 949 0
-500 989 0
-733 0
-342 0
914 -421 0
-117 341 0
-274 0
180 -890 0
-276 0
19 -739 0
-365 -852 0
-621 0
-613 -708 0
-588 868 0
-757 0
129 -306 0
-82 -249 0
-885 -621 0
-51 0
-678 -45 0
-167 825 0
-637 0
-149 -355 0
-200 -479 0
-76 -434 0
693 -297 0
-166 -857 0
-769 0
-540 0
216 -48 0
-436 0
-824 -799 0
-167 363 0
-336 0
808 -964 0
-893 0
-696 -669 0
-58 0
-244 -505 0
-531 0
752 -579 0
-257 287 0
-212 0
-136 777 0
-52 0
-251 0
-875 0
-701 0
-760 610 0
-331 0
-686 -921 0
666 -961 0
-966 -445 0
-943 917 0
-872 643 0
-560 0
-960 0
397 -170 0
-196 -875 0
425 -642 0
-765 0
-574 -251 0
365 -930 0
-485 819 0
-60 -395 0
-251 0
-664 -377 0
257 -393 0
-346 -178 0
219 -203 0
658 -10 0
-390 0
-930 0
-816 -395 0
-215 0
686 -881 0
-902 468 0
-422 150 0
-287 530 0
-126 -277 0
-222 0
-649 0
-321 0
-687 0
-323 -409 0
-991 -884 0
-952 0
-374 0
656 -814 0
69 -601 0
633 -468 0
-688 0
-976 -172 0
-48 0
-683 0
-711 -443 0
504 -338 0
-336 26 0
-239 0
-390 0
-974 -129 0
-638 549 0
-551 0
-48 274 0
-122 0
-94 -763 0
-691 -89 0
-512 -204 0
-784 652 0
-368 0
-163 294 0
-335 0
-581 0
-549 0
-622 -906 0
765 -50 0
-729 -881 0
-176 -274 0
396 -778 0
-238 0
827 -425 0
-599 -956 0
936 -195 0
-407 963 0
563 -45 0
904 -899 0
825 -958 0
-375 -164 0
-909 0
-54 0
-468 0
-713 0
-913 0
619 -833 0
-776 276 0
-775 569 0
-247 125 0
-934 0
-464 -660 0
330 -645 0
-125 830 0
-270 -913 0
-855 -396 0
-359 0
-630 -628 0
-456 227 0
-342 932 0
-830 532 0
-547 0
-678 -973 0
-256 -791 0
-326 178 0
821 -130 0
-844 0
-976 -988 0
-818 0
-127 0
-222 -164 0
740 -145 0
-886 0
-430 12 0
-100 0
-152 -974 0
-639 670 0
-185 0
-752 0
-935 0
-312 -810 0
-70 700 0
-95 0
-432 0
624 -943 0
-185 -953 0
26 -180 0
-53 0
-90 0
664 -457 0
-780 0
-991 487 0
-81 0
-339 -769 0
-299 0
929 -922 0
-268 0
-924 -444 0
89 -325 0
-55 282 0
-335 -634 0
-626 0
-293 -233 0
-64 -959 0
-568 306 0
-198 573 0
-440 0
-264 -669 0
-370 0
-623 0
-628 988 0
568 -262 0
-476 0
221 -210 0
481 -321 0
-100 0
-176 894 0
-256 675 0
-94 230 0
-671 -946 0
770 -995 0
-248 0
-920 615 0
154 -754 0
194 -833 0
-571 797 0
-935 0
257 -174 0
424 -173 0
366 -402 0
-359 858 0
-269 734 0
-310 -505 0
-887 0
-597 0
-733 142 0
-558 0
828 -67 0
-318 356 0
940 -698 0
-135 389 0
299 -114 0
752 -422 0
305 -673 0
-251 -859 0
-485 0
-303 0
908 -129 0
-408 -836 0
-294 0
-442 0
-6 804 0
-368 0
-60 0
-477 0
-539 -963 0
-672 0
980 -17 0
-94 996 0
-581 431 0
379 -308 0
-710 -361 0
-390 -699 0
-69 0
-383 0
248 -131 0
145 -34 0
232 -299 0
611 -627 0
-728 0
-768 0
-74 526 0
-381 964 0
784 -723 0
-401 0
-973 -285 0
-687 539 0
-418 0
-655 0
-259 0
-824 -953 0
40 -135 0
-736 0
-677 -365 0
57 -189 0
-397 565 0
-739 447 0
-552 168 0
-932 237 0
-417 119 0
-973 -753 0
-536 901 0
-886 0
-148 0
-740 0
-68 -865 0
-417 0
-40 614 0
-984 -594 0
-176 0
-348 0
987 -841 0
-984 536 0
-766 -963 0
-372 -35 0
-429 0
-779 0
452 -265 0
-150 0
873 -750 0
-248 78 0
-68 -601 0
-476 902 0
-182 -338 0
-318 0
-156 0
-941 244 0
-219 -865 0
139 -345 0
-995 0
-997 0
-52 0
-616 0
-623 -644 0
-368 -57 0
-913 0
172 -617 0
691 -764 0
-719 -550 0
805 -105 0
760 -551 0
-409 0
-661 0
-371 -738 0
-608 0
-255 0
-209 0
-157 612 0
-718 515 0
-286 0
-119 0
-413 255 0
-340 0
-296 548 0
-400 -879 0
521 -243 0
481 -907 0
-855 -941 0
-647 -452 0
-626 -265 0
-611 0
-35 663 0
363 -833 0
-326 0
34 -420 0
-3 -217 0
697 -865 0
-315 0
-308 0
-767 0
-203 0
-232 341 0
-19 -738 0
-131 615 0
-407 0
-468 0
635 -452 0
-739 -689 0
-135 0
-271 0
-869 247 0
-821 143 0
-383 996 0
-527 0
-701 675 0
-714 0
392 -506 0
-799 0
329 -622 0
715 -617 0
-230 -946 0
212 -132 0
-805 0
-117 766 0
-904 595 0
-998 -971 0
-107 -202 0
-459 0
-880 49 0
-431 87 0
-110 0
944 -83 0
-106 47 0
-752 0
849 -540 0
-895 682 0
-54 0
-109 -330 0
-640 0
-144 -468 0
-610 0
-152 -141 0
-136 447 0
-177 0
-890 0
-542 0
-685 0
409 -165 0
-561 0
620 -873 0
648 -209 0
-940 -978 0
-754 0
-101 0
33 -582 0
342 -594 0
66 -748 0
475 -866 0
-353 0
-457 0
-532 0
-723 0
-428 -35 0
909 -378 0
-732 887 0
860 -65 0
-552 -177 0
521 -812 0
-391 -34 0
-854 -556 0
-200 258 0
-131 0
-282 687 0
-663 -596 0
-415 489 0
-663 -923 0
-338 0
-141 0
-571 0
-169 615 0
-186 0
-965 -491 0
-43 0
-464 -74 0
-981 151 0
741 -427 0
-927 0
-644 -338 0
597 -409 0
71 -345 0
879 -865 0
-819 0
-832 627 0
-19 0
-253 469 0
-198 0
11 -953 0
-423 0
-159 574 0
-925 -834 0
-934 573 0
-500 -59 0
-38 0
-95 -70 0
-558 -250 0
-189 -155 0
-829 0
661 -714 0
-947 -953 0
-926 159 0
-871 -179 0
-403 -945 0
-806 854 0
-642 0
-676 -409 0
-433 0
-330 -778 0
586 -866 0
-62 0
-508 783 0
-212 -203 0
-536 249 0
-332 0
-309 -115 0
-916 175 0
-56 548 0
-254 -733 0
-614 0
-96 931 0
-441 0
-73 0
-469 -107 0
-798 174 0
-763 -337 0
-305 -801 0
-638 0
-350 -354 0
-149 -813 0
-648 0
-237 0
26 -155 0
-468 244 0
-487 -390 0
-814 0
340 -731 0
145 -91 0
-812 0
-70 -484 0
-316 0
-753 0
-134 -521 0
425 -403 0
-578 0
-204 -561 0
-126 0
-920 563 0
-735 0
-896 856 0
769 -907 0
-118 154 0
-158 -633 0
-260 0
-38 0
760 -202 0
258 -204 0
-90 0
-709 763 0
-364 0
-59 -595 0
-743 0
-466 0
-274 319 0
-279 180 0
-687 0
-25 0
-195 0
-16 -765 0
857 -219 0
-432 -765 0
-6 0
96 -79 0
-839 0
-183 0
-710 110 0
-728 -133 0
-764 -97 0
-864 -832 0
-968 0
922 -971 0
-527 0
-879 749 0
-778 0
905 -771 0
689 -922 0
-247 644 0
-847 925 0
-163 0
-590 228 0
-268 0
248 -346 0
-16 -108 0
-16 71 0
-206 509 0
-933 76 0
883 -371 0
851 -437 0
-952 0
809 -950 0
-150 0
-247 0
-606 -27 0
-884 -779 0
-134 0
-335 396 0
-10 0
-152 0
-326 219 0
-638 613 0
-992 714 0
-832 -146 0
-824 0
-833 0
-627 0
-128 203 0
-309 -812 0
-958 995 0
-272 34 0
-880 49 0
677 -937 0
-525 30 0
-433 0
-431 0
840 -436 0
-60 -971 0
-295 -593 0
-264 0
-454 906 0
896 -961 0
58 -258 0
-396 0
-647 183 0
-719 0
-399 0
793 -740 0
170 -203 0
-725 0
282 -782 0
-240 417 0
-203 0
-573 623 0
-533 0
-773 0
-74 0
-30 -861 0
-131 0
-299 -179 0
442 -964 0
91 -60 0
-281 0
409 -89 0
-809 0
-384 0
979 -780 0
-27 0
-254 805 0
-457 0
-738 0
-206 0
234 -997 0
-206 788 0
-93 0
-773 0
-754 0
-283 0
663 -369 0
-416 0
-945 0
-445 0
-401 0
-954 0
-469 0
-714 0
-637 -41 0
-322 0
-142 679 0
-824 0
533 -217 0
-959 295 0
753 -996 0
-99 0
986 -611 0
-253 0
832 -510 0
-520 -965 0
-954 0
-583 -523 0
-149 0
-695 0
-979 0
528 -267 0
-577 0
-135 658 0
-999 -27 0
288 -701 0
-693 0
-568 446 0
-236 0
617 -311 0
-596 -9 0
-608 -828 0
-570 0
600 -865 0
-238 0
712 -915 0
-584 0
-466 0
-848 0
-271 0
402 -700 0
-900 583 0
-886 0
-949 907 0
-915 0
-528 -505 0
-757 533 0
993 -948 0
-180 95 0
-322 14 0
825 -531 0
-599 0
-45 558 0
721 -889 0
-365 4 0
-63 -823 0
233 -823 0
491 -683 0
-816 255 0
-138 0
-831 226 0
-356 -187 0
-388 -257 0
-199 799 0
-179 -713 0
-627 0
692 -252 0
-475 -267 0
-972 382 0
114 -258 0
-368 0
-381 -227 0
-565 527 0
-415 718 0
-648 0
-956 0
-227 0
-831 -119 0
-750 0
-726 117 0
658 -618 0
99 -626 0
-4 0
-493 -820 0
80 -347 0
-978 -705 0
-566 669 0
-648 69 0
-389 -410 0
-380 0
-249 0
-604 502 0
-808 -119 0
-652 0
-483 0
-706 0
-635 0
784 -339 0
-552 281 0
825 -757 0
747 -204 0
-11 0
-340 0
-207 151 0
-7 382 0
-128 -705 0
214 -857 0
-91 0
-715 0
-835 0
-509 -579 0
-688 0
-265 0
-689 0
-380 862 0
-310 -190 0
-706 0
-241 0
854 -298 0
-109 0
550 -81 0
-261 836 0
-724 -131 0
-996 638 0
-663 0
-336 0
-879 658 0
-646 908 0
-761 0
-453 -586 0
976 -503 0
-40 0
-59 0
67 -69 0
-360 0
-779 -242 0
-598 -298 0
-795 757 0
-799 0
-207 0
-307 -329 0
338 -842 0
-864 0
-966 -305 0
-963 -531 0
-194 215 0
-403 0
-68 167 0
-319 -771 0
-495 956 0
938 -190 0
-831 -189 0
-574 -297 0
-856 0
-254 0
-247 723 0
441 -794 0
-180 0
-741 0
-315 0
-834 -513 0
482 -377 0
-780 0
-292 150 0
-149 -91 0
-47 0
-567 693 0
-116 -60 0
362 -835 0
-76 0
-244 0
-995 0
-324 998 0
-152 392 0
-736 -953 0
-78 0
34 -349 0
-452 222 0
-857 0
-155 0
-591 -250 0
-183 0
-135 790 0
-814 0
-727 0
-941 0
-135 -746 0
-568 0
985 -36 0
-336 999 0
-738 0
-743 -170 0
-152 -949 0
-998 -681 0
289 -988 0
48 -42 0
-775 -847 0
688 -683 0
-175 0
-232 712 0
-723 0
-775 0
-335 0
-807 500 0
-488 836 0
-230 0
-144 -621 0
530 -786 0
-740 0
-700 0
-296 841 0
-944 699 0
474 -155 0
-199 -291 0
-855 465 0
-296 0
-840 572 0
463 -721 0
-190 407 0
-499 0
-787 0
-885 397 0
-409 -121 0
-755 469 0
428 -962 0
-633 0
-847 0
-407 0
-425 0
962 -273 0
-248 376 0
-104 -983 0
113 -435 0
-51 0
-500 263 0
-698 0
851 -573 0
292 -99 0
-530 0
-290 0
-574 0
-88 -167 0
-290 0
-431 0
-916 -538 0
-916 957 0
-102 -467 0
285 -713 0
426 -837 0
-372 0
248 -815 0
-20 0
-488 0
-176 0
-182 39 0
-741 908 0
153 -283 0
-65 0
-481 0
272 -596 0
296 -55 0
-210 -889 0
-956 0
-595 -210 0
-783 -974 0
498 -163 0
929 -499 0
-204 -954 0
-372 0
312 -740 0
-183 -165 0
-709 884 0
690 -733 0
562 -577 0
-503 0
-930 0
-216 688 0
940 -546 0
616 -750 0
-126 778 0
-99 46 0
-792 -28 0
739 -443 0
-284 197 0
-42 0
-181 0
696 -408 0
369 -97 0
136 -15 0
-816 -151 0
-406 0
-473 0
-207 167 0
-376 0
-350 0
-545 0
-735 -10 0
-443 0
-494 0
-149 0
-576 -538 0
-229 0
-543 0
-120 0
-548 -602 0
-343 -732 0
-56 -247 0
-63 0
-501 -509 0
456 -201 0
-230 93 0
-30 -284 0
42 -84 0
-183 -405 0
616 -428 0
453 -921 0
-799 -668 0
792 -555 0
-603 -777 0
979 -556 0
-455 0
-747 0
-958 0
-728 916 0
-996 -675 0
-172 -507 0
-334 -149 0
-839 602 0
-379 -882 0
-81 0
952 -870 0
-316 0
-672 575 0
-615 658 0
914 -83 0
-893 527 0
-481 0
-423 -996 0
-708 614 0
-754 0
-780 221 0
459 -739 0
-941 20 0
-792 0
-392 -826 0
-243 0
-166 333 0
-926 0
-537 0
-510 531 0
-242 0
-423 0
-564 0
-510 803 0
-928 0
-699 -554 0
163 -779 0
-500 0
-726 12 0
-205 0
616 -285 0
-264 815 0
-276 0
-245 535 0
282 -138 0
-7 0
960 -802 0
-376 -995 0
780 -89 0
-966 -845 0
272 -371 0
-154 0
-508 -809 0
570 -361 0
-656 -187 0
926 -698 0
-940 -929 0
-269 220 0
-148 0
-230 908 0
-89 0
-882 -73 0
604 -393 0
-910 -508 0
-311 0
-1000 491 0
-877 -948 0
424 -34 0
-83 0
-906 318 0
-861 0
-299 0
-998 679 0
-38 578 0
-940 0
298 -843 0
-436 0
-703 0
210 -587 0
699 -794 0
-135 -694 0
-5 0
-350 0
-356 -354 0
-810 927 0
737 -606 0
-756 533 0
-358 -51 0
-356 0
-923 0
-920 0
-992 0
-665 0
-240 -748 0
-282 0
-830 0
920 -572 0
-888 -902 0
883 -337 0
-688 0
-569 0
-177 0
-856 617 0
-487 -697 0
-521 0
83 -333 0
-199 -893 0
-824 615 0
-270 0
-913 0
-940 0
-552 0
-310 0
-460 0
-407 -141 0
-94 603 0
-960 0
-975 0
-527 588 0
-841 591 0
200 -977 0
-744 52 0
-311 3 0
-864 188 0
-173 -149 0
-304 0
-108 -18 0
-577 0
-183 663 0
-618 0
-262 0
264 -35 0
-878 0
-3 0
-471 -477 0
89 -937 0
696 -920 0
-302 307 0
-112 994 0
-824 -278 0
-416 0
370 -269 0
251 -803 0
445 -258 0
-967 -557 0
-681 0
880 -172 0
-483 0
-76 -83 0
-133 701 0
-373 -34 0
994 -801 0
-449 0
-352 0
-654 951 0
-94 0
-407 189 0
-523 62 0
-86 826 0
25 -212 0
-668 0
-495 0
-837 0
-27 0
-366 -622 0
-117 -805 0
-160 -97 0
781 -177 0
-604 0
418 -436 0
-952 0
-164 0
213 -521 0
834 -322 0
-415 0
-622 652 0
-946 735 0
-391 0
-557 -674 0
-138 0
977 -845 0
-951 0
660 -316 0
-879 342 0
-512 0
-592 0
-491 0
-398 -589 0
-520 -798 0
-782 -210 0
-941 894 0
-679 -108 0
-732 0
-572 268 0
584 -606 0
-967 0
482 -5 0
-993 0
-473 0
-616 -983 0
-454 0
-940 0
-112 819 0
630 -241 0
651 -180 0
-375 -974 0
-233 0
-486 0
452 -385 0
-975 867 0
-486 -810 0
-299 0
-843 0
267 -619 0
-224 0
-757 0
634 -186 0
-518 -699 0
-270 0
-186 0
-229 0
-828 0
-781 0
-957 0
-706 0
-105 0
-276 0
-648 0
-23 -819 0
657 -482 0
-123 0
-608 70 0
771 -628 0
-669 -771 0
-806 0
932 -948 0
-721 0
-550 0
-475 0
605 -817 0
-505 0
-272 -131 0
-652 -571 0
769 -601 0
-326 699 0
-203 0
-807 0
-100 508 0
-986 0
-301 -689 0
-612 -707 0
881 -37 0
-893 -763 0
-174 779 0
-118 -269 0
557 -145 0
-151 891 0
298 -90 0
-142 140 0
-448 -389 0
-726 0
281 -219 0
-670 -382 0
-877 155 0
-77 -987 0
-502 -325 0
-961 119 0
-769 0
-802 0
-463 986 0
-582 0
-792 995 0
360 -188 0
-602 0
672 -338 0
-70 0
-686 0
-99 0
-718 783 0
161 -303 0
-721 0
-354 519 0
-531 0
-535 0
-161 0
26 -421 0
-575 51 0
-488 0
-169 0
623 -465 0
-575 -665 0
-638 28 0
379 -461 0
496 -686 0
-775 190 0
520 -90 0
-777 0
-73 0
-252 0
-460 0
-575 0
-655 0
608 -522 0
934 -234 0
-380 0
-125 717 0
-5 0
-612 983 0
-504 -217 0
-815 -38 0
441 -797 0
-120 -625 0
-40 0
-204 -234 0
-205 542 0
723 -986 0
-76 0
124 -393 0
-909 108 0
-889 0
-523 0
-192 0
-503 -971 0
-16 0
-163 0
274 -645 0
-33 0
-302 -234 0
-227 0
-696 768 0
-364 -137 0
-967 -315 0
806 -386 0
213 -425 0
-240 0
-350 531 0
-927 0
-316 591 0
593 -66 0
-997 0
-782 0
-830 335 0
-623 499 0
-988 0
-823 -871 0
-814 -995 0
-300 518 0
-975 -412 0
-857 -873 0
-292 0
-318 663 0
-975 119 0
312 -188 0
-970 127 0
-574 26 0
-976 0
-123 0
315 -19 0
-830 395 0
378 -866 0
-120 0
-687 -748 0
-295 -339 0
-126 -212 0
-29 -387 0
-1000 109 0
-158 -385 0
-357 0
-392 -450 0
-804 -641 0
865 -668 0
-829 0
-834 0
-716 991 0
-232 0
-273 0
-299 0
-117 0
-197 0
-588 454 0
-582 243 0
-753 0
-295 0
468 -9 0
402 -795 0
-432 0
-860 -1 0
848 -417 0
361 -694 0
-501 -154 0
-972 933 0
-163 0
-686 237 0
-535 -553 0
-165 -325 0
-531 502 0
-936 860 0
-86 0
-627 775 0
-969 0
-887 -826 0
-483 -595 0
952 -282 0
-820 -994 0
-814 -555 0
654 -609 0
-404 -274 0
-464 -806 0
-708 534 0
-512 0
-151 0
-219 -587 0
-469 -265 0
1000 -173 0
-402 -777 0
-870 0
-174 -875 0
-920 0
-748 0
-602 0
120 -493 0
-710 188 0
241 -481 0
705 -582 0
-991 996 0
346 -802 0
-971 -91 0
-894 703 0
-447 901 0
-295 -583 0
54 -857 0
-658 0
-942 0
435 -129 0
-757 0
-593 0
-549 0
-685 -988 0
-327 874 0
-319 0
-846 0
966 -681 0
253 -362 0
-830 591 0
356 -905 0
-597 -244 0
-140 0
-859 949 0
-62 -861 0
-911 0
-141 630 0
-19 0
-13 -825 0
-562 0
306 -619 0
-278 0
-183 149 0
-219 775 0
-606 -430 0
-843 0
-885 -269 0
-207 0
-307 78 0
31 -129 0
-478 725 0
753 -676 0
845 -961 0
-246 -972 0
-934 0
-300 0
-22 0
-158 372 0
-919 0
922 -843 0
-572 0
-738 0
-243 0
-647 0
874 -137 0
830 -65 0
-346 0
-836 501 0
-323 0
485 -562 0
-771 -577 0
624 -366 0
-452 0
-157 -51 0
-791 0
-693 -617 0
787 -595 0
-715 0
-323 0
595 -361 0
848 -781 0
-88 0
120 -322 0
9 -670 0
-53 0
-917 483 0
-137 0
-724 0
-29 0
-766 -222 0
-372 0
-208 0
-916 526 0
-943 659 0
-33 0
905 -485 0
-812 0
-269 0
712 -957 0
472 -562 0
-261 0
240 -787 0
-845 101 0
-109 0
-431 -358 0
-651 0
-528 -806 0
53 -121 0
608 -153 0
-930 0
-155 701 0
-976 326 0
394 -89 0
1 -963 0
-668 663 0
992 -865 0
570 -852 0
-60 54 0
-655 -780 0
-872 -311 0
-583 0
-874 0
708 -155 0
-696 317 0
921 -386 0
48 -908 0
-93 478 0
-587 -170 0
-479 -290 0
-649 0
-655 510 0
-369 0
157 -481 0
-68 0
-24 -319 0
-779 0
-495 0
656 -652 0
-433 0
611 -690 0
568 -869 0
730 -654 0
-95 919 0
-795 486 0
731 -377 0
-431 0
-396 0
-131 0
-74 0
-127 -356 0
-536 0
-70 0
536 -669 0
-903 0
-296 688 0
-134 413 0
-64 -609 0
-557 0
-905 0
-580 0
-606 142 0
-78 0
-994 0
-937 0
200 -192 0
-482 0
-808 -284 0
-181 0
-582 -683 0
-67 -129 0
-824 839 0
131 -219 0
-792 -676 0
-696 0
-326 -547 0
-95 0
-432 0
-824 0
-704 436 0
484 -378 0
-224 48 0
-55 -179 0
-15 0
-981 -266 0
41 -213 0
-459 0
-439 -716 0
960 -294 0
-452 0
-238 -500 0
-240 0
-814 0
-731 -603 0
-223 0
-967 -596 0
27 -365 0
-642 0
-204 0
-573 572 0
-575 0
-413 0
181 -866 0
-480 0
-56 0
-66 0
-903 981 0
-836 892 0
-214 -555 0
-752 -537 0
676 -403 0
-376 416 0
-675 -107 0
-11 -465 0
-306 111 0
-182 0
-864 666 0
-71 0
-846 0
-607 -620 0
-145 0
-104 -639 0
-328 -103 0
-40 0
338 -425 0
-495 0
584 -446 0
-970 0
-164 0
-792 -170 0
-128 -228 0
388 -708 0
-54 0
-120 449 0
795 -458 0
-59 0
-166 198 0
-262 -420 0
-361 0
-481 -609 0
-749 228 0
-359 0
-987 0
-62 813 0
648 -654 0
-376 -628 0
-28 -523 0
-980 -905 0
-965 0
-635 0
897 -747 0
-414 0
-425 0
-255 0
-127 0
-910 389 0
-31 0
-917 0
-618 0
-663 97 0
-776 0
-49 0
-949 0
-199 -954 0
-820 0
-395 0
-126 0
-575 0
-199 498 0
-279 0
64 -198 0
-218 0
440 -817 0
-786 0
640 -965 0
-23 0
748 -274 0
-596 0
-486 655 0
443 -746 0
821 -91 0
-616 325 0
-216 255 0
-834 766 0
-375 628 0
-38 -268 0
-525 0
-230 0
-156 -362 0
928 -426 0
-368 0
-168 -332 0
-495 0
-650 -65 0
-686 955 0
-615 837 0
-927 -850 0
-476 0
-936 -43 0
-127 -689 0
-926 0
56 -902 0
-799 0
-488 0
627 -322 0
-56 -440 0
-591 179 0
-528 -83 0
-34 0
797 -17 0
-483 0
-386 -154 0
-952 0
-580 0
45 -553 0
-514 0
250 -506 0
-319 -531 0
440 -270 0
668 -315 0
-83 0
-493 0
-584 -77 0
-228 0
-162 0
-144 0
-752 893 0
8 -568 0
-668 0
-759 -732 0
990 -209 0
-397 0
-876 0
-759 -341 0
-37 -83 0
-34 -617 0
-604 -316 0
-938 0
-187 0
281 -649 0
-494 0
224 -301 0
-143 0
-493 -68 0
-104 -401 0
-372 -460 0
-240 -959 0
-132 0
979 -50 0
-645 -570 0
-297 -97 0
-907 -953 0
-365 -268 0
128 -319 0
-166 0
492 -546 0
-942 0
-852 0
268 -593 0
-592 0
-722 0
-172 0
-33 0
-972 -778 0
-22 532 0
-759 -52 0
266 -17 0
-629 0
-744 -245 0
971 -402 0
547 -970 0
-417 0
-548 -498 0
-51 0
-368 362 0
-480 194 0
-132 0
-997 675 0
298 -100 0
-414 -513 0
-366 534 0
-640 -748 0
-478 732 0
-142 0
-680 -243 0
-329 0
-882 -506 0
745 -601 0
-957 596 0
-688 758 0
-641 0
-117 -666 0
-372 0
-806 900 0
-171 -458 0
-811 0
-790 278 0
16 -657 0
745 -278 0
-656 0
208 -770 0
-73 0
872 -276 0
-904 -676 0
-735 923 0
-614 419 0
-219 -618 0
720 -546 0
603 -796 0
-480 0
-380 0
441 -677 0
561 -214 0
-506 0
-871 0
-274 0
-754 0
368 -506 0
-216 -778 0
-55 746 0
-251 0
-90 0
-60 -265 0
-911 359 0
883 -129 0
-460 0
-307 -458 0
-632 0
-564 0
-223 -225 0
-29 -561 0
-85 0
-326 46 0
312 -513 0
-859 0
-966 0
557 -977 0
-241 0
-977 0
-509 -129 0
-958 0
-433 623 0
-62 0
171 -995 0
-828 399 0
233 -973 0
-197 0
-283 0
-719 0
794 -554 0
-104 0
-297 0
-561 0
-766 -69 0
-990 -917 0
-710 0
-552 -115 0
-284 815 0
-870 -670 0
-961 0
-258 0
129 -590 0
165 -410 0
498 -65 0
-867 -9 0
817 -482 0
-722 0
-131 0
-896 -549 0
-93 0
-194 -490 0
-416 0
-904 52 0
-531 -203 0
-935 0
674 -733 0
-231 0
-759 0
-738 0
-278 126 0
-871 0
-308 -923 0
-869 0
-606 -779 0
-713 0
-273 0
-351 0
-843 0
-932 0
-533 927 0
-560 0
-13 0
-272 -211 0
-41 0
-168 860 0
-758 0
-763 0
-700 0
-959 0
-483 0
-720 0
-84 604 0
916 -177 0
-93 0
-426 0
-57 0
-829 399 0
944 -179 0
-832 0
410 -612 0
907 -564 0
-560 909 0
-263 0
-195 0
-27 0
-701 477 0
-544 0
-144 0
833 -802 0
-456 -515 0
-486 0
-768 0
-738 935 0
-79 223 0
666 -162 0
-118 613 0
-668 0
379 -308 0
-419 469 0
-719 906 0
-460 0
-38 813 0
-448 0
-478 -459 0
-704 -279 0
-844 0
-391 865 0
936 -267 0
27 -746 0
-500 0
369 -190 0
-599 788 0
-643 -433 0
-839 -739 0
-751 47 0
913 -322 0
-248 148 0
-583 0
-833 215 0
-588 0
170 -174 0
-40 921 0
-64 0
-749 0
210 -156 0
-196 607 0
-516 0
-840 0
33 -653 0
-540 0
248 -161 0
959 -553 0
-860 269 0
-791 0
281 -853 0
-521 0
539 -11 0
-382 330 0
-503 -6 0
322 -723 0
921 -711 0
124 -434 0
-706 903 0
-426 0
-53 923 0
795 -829 0
-681 0
-894 0
-568 153 0
-919 -821 0
-135 0
-483 485 0
106 -254 0
826 -621 0
-285 0
-195 -113 0
-600 0
267 -836 0
-148 0
-19 670 0
-192 865 0
-357 -595 0
-943 973 0
-927 -785 0
-525 140 0
157 -339 0
-38 -818 0
777 -675 0
-129 0
-422 0
-715 69 0
-450 758 0
-559 -187 0
-413 0
-935 0
-57 0
409 -389 0
353 -605 0
-28 0
-828 -834 0
345 -991 0
-272 -126 0
99 -538 0
-605 0
-365 -770 0
-998 70 0
713 -380 0
-391 -402 0
203 -956 0
-832 356 0
8 -149 0
-534 -629 0
-328 846 0
721 -878 0
-464 0
-407 0
-899 231 0
-230 43 0
-845 575 0
970 -289 0
153 -638 0
48 -332 0
-809 0
-150 -554 0
528 -453 0
-803 503 0
-661 0
-876 0
-470 0
-494 -733 0
-311 2 0
-964 117 0
-769 951 0
686 -450 0
-137 0
-153 0
-135 678 0
-200 0
378 -438 0
-653 -602 0
-222 967 0
-553 0
-687 0
-604 -524 0
-35 -754 0
340 -788 0
-818 0
-498 0
-944 -292 0
-148 0
-494 14 0
-494 0
-816 0
-112 985 0
-735 413 0
-631 0
-696 978 0
464 -403 0
897 -684 0
-568 -627 0
-377 -105 0
-288 -750 0
548 -586 0
-104 0
-441 0
-957 645 0
-607 -188 0
730 -137 0
-398 -521 0
-866 535 0
-344 367 0
785 -542 0
-949 0
-484 0
-512 -499 0
113 -986 0
-177 0
-324 0
-159 -115 0
-126 -253 0
339 -475 0
-953 0
-422 358 0
-592 234 0
-308 -124 0
-182 799 0
-312 446 0
-643 0
-599 0
-510 -10 0
-808 -586 0
-471 -428 0
310 -802 0
-360 0
-719 -26 0
-420 0
-501 0
-494 459 0
-237 0
-527 0
-704 278 0
312 -877 0
-688 0
-607 565 0
-206 0
-416 0
146 -412 0
-945 0
-462 223 0
-543 0
1000 -498 0
-926 -243 0
44 -857 0
-302 0
-233 0
329 -131 0
-240 -186 0
-830 0
-2 -889 0
-680 400 0
-926 589 0
448 -394 0
-749 -653 0
-147 813 0
-342 -390 0
-878 0
-96 236 0
642 -106 0
-879 -453 0
-657 0
-352 -15 0
723 -891 0
360 -772 0
446 -650 0
-801 0
-882 215 0
717 -594 0
-80 -388 0
-902 37 0
-847 0
-240 -359 0
-263 0
336 -964 0
-118 612 0
-758 -650 0
-447 3 0
-40 541 0
-567 186 0
537 -377 0
-543 0
-888 -997 0
-384 543 0
-230 948 0
10 -381 0
-860 -849 0
-209 -73 0
216 -332 0
-224 0
176 -938 0
-157 0
176 -352 0
-947 0
-711 0
-1 463 0
805 -906 0
-544 102 0
-1000 0
-915 0
-720 -913 0
26 -529 0
-442 0
-916 0
-528 -766 0
-709 0
-809 0
-480 508 0
-927 911 0
-529 0
-64 0
-338 0
-443 0
-404 0
-183 -274 0
-492 -906 0
-792 -311 0
482 -889 0
-94 0
-340 0
-552 -30 0
-674 0
-924 0
-900 -578 0
964 -579 0
-667 653 0
-987 445 0
-548 -843 0
741 -370 0
-606 -998 0
-878 0
-780 0
-709 998 0
-178 0
-891 327 0
944 -93 0
165 -121 0
-981 -795 0
-965 421 0
-83 0
-133 0
-13 0
-7 0
-239 0
-672 6 0
-120 -102 0
-655 229 0
874 -282 0
-320 0
-799 301 0
-879 394 0
-912 746 0
-937 0
57 -323 0
-965 -410 0
-690 0
-734 -467 0
-695 295 0
-900 47 0
-549 0
-716 597 0
-573 -875 0
-103 722 0
-903 0
-125 0
987 -187 0
-438 0
-212 0
-110 -178 0
-704 8 0
-148 382 0
-577 0
713 -639 0
-240 0
-165 783 0
-841 0
-160 -750 0
609 -91 0
-429 742 0
-743 0
-290 342 0
-736 -372 0
-249 0
-619 0
197 -642 0
-736 -244 0
-144 -363 0
-502 908 0
-64 0
68 -297 0
-624 854 0
181 -945 0
617 -844 0
-52 -241 0
-164 0
387 -195 0
603 -187 0
-521 0
-228 0
-869 0
-69 165 0
-537 0
551 -969 0
-590 0
-853 0
-593 0
-853 -721 0
-439 297 0
-783 -707 0
-10 0
594 -747 0
-790 0
-284 0
-816 -395 0
897 -140 0
880 -329 0
457 -549 0
-429 -412 0
-810 0
-734 607 0
-734 0
-546 0
-601 0
-32 157 0
-221 0
-207 0
-346 0
-926 146 0
-497 0
-865 0
-318 595 0
-23 287 0
-548 0
-800 296 0
-727 -635 0
-259 0
-827 -745 0
-93 932 0
-713 0
-17 0
974 -577 0
901 -441 0
-31 998 0
-716 0
290 -410 0
-829 0
864 -73 0
-305 0
922 -171 0
370 -33 0
-909 300 0
-893 -1 0
-374 229 0
104 -959 0
-631 0
-590 -731 0
64 -751 0
-43 373 0
-669 -459 0
896 -719 0
-686 0
604 -754 0
-764 350 0
-758 -265 0
-223 0
-79 0
-311 0
-144 76 0
-588 -906 0
-333 -723 0
-687 -983 0
-588 887 0
337 -62 0
-375 0
906 -68 0
-33 0
-377 0
-646 455 0
-454 0
-619 -306 0
-283 0
-822 0
-638 -186 0
-770 0
-622 559 0
506 -45 0
-503 918 0
-693 0
450 -778 0
-68 -993 0
-634 0
-877 252 0
-277 0
345 -466 0
-630 82 0
-743 718 0
-512 681 0
-44 974 0
-204 0
-326 -604 0
380 -636 0
-488 218 0
717 -49 0
-392 440 0
-604 0
-683 0
-821 935 0
-337 0
-29 0
-138 0
630 -258 0
90 -900 0
81 -335 0
-584 -689 0
-287 -1 0
-390 0
-214 0
-421 -491 0
-141 183 0
-63 0
-976 0
-943 0
-28 0
-294 0
-893 0
-221 0
-551 0
-201 0
-359 -977 0
-110 -993 0
-667 735 0
-168 0
-677 221 0
-936 0
-297 0
-901 0
-566 446 0
297 -275 0
-672 844 0
555 -620 0
522 -515 0
-275 0
-709 499 0
-497 0
-107 0
-45 0
-828 0
-833 0
-616 -385 0
-85 0
-455 797 0
912 -555 0
-566 870 0
-568 275 0
722 -498 0
513 -633 0
-657 0
-980 0
-788 0
-815 165 0
-374 0
-279 99 0
402 -293 0
-958 -868 0
-851 0
197 -570 0
-138 0
-231 -81 0
-368 0
761 -118 0
-631 -642 0
-678 -435 0
-951 259 0
106 -413 0
-461 715 0
-823 0
768 -137 0
-251 0
-759 -587 0
624 -551 0
753 -511 0
-910 -241 0
544 -791 0
-268 0
-558 0
-472 0
-922 0
-610 79 0
-760 120 0
-304 -417 0
-175 605 0
-733 0
-719 0
-730 -921 0
-166 699 0
-720 87 0
771 -723 0
-569 0
-237 0
-441 0
-398 854 0
-87 446 0
-683 0
671 -417 0
-995 0
369 -395 0
-564 0
-876 0
-19 0
747 -739 0
-124 -762 0
-43 0
-872 0
-400 0
45 -210 0
-398 0
-599 -226 0
-500 -977 0
-350 44 0
257 -119 0
-672 0
-886 0
-104 874 0
-37 0
730 -229 0
-517 0
-911 579 0
-15 -59 0
-141 -657 0
-447 0
-521 0
-168 44 0
419 -812 0
-13 388 0
299 -283 0
-680 0
-288 184 0
-27 -410 0
-138 -65 0
-224 0
133 -410 0
-238 -777 0
-348 -796 0
256 -706 0
481 -284 0
-487 -772 0
-339 0
-438 212 0
-962 0
-676 -833 0
-1 0
-522 0
121 -925 0
-482 0
-158 -833 0
-716 725 0
-922 0
-566 949 0
41 -337 0
-182 918 0
-832 -169 0
-803 0
-936 845 0
440 -181 0
-572 0
-528 241 0
84 -58 0
963 -812 0
808 -717 0
-843 510 0
-996 0
-754 0
-560 -435 0
-119 0
-24 182 0
-100 140 0
-563 0
-651 0
-933 0
-295 867 0
-536 773 0
-979 0
-652 0
-212 0
-232 1000 0
225 -355 0
427 -913 0
-263 253 0
221 -610 0
-576 -939 0
-630 0
369 -919 0
-336 0
-16 0
-344 -142 0
-624 -90 0
-916 -884 0
273 -701 0
-991 893 0
-492 0
-273 -601 0
-607 0
-336 -402 0
889 -634 0
-182 0
-622 -683 0
-510 -646 0
-377 543 0
-743 0
-414 269 0
-888 -975 0
-298 0
-614 12 0
657 -989 0
-980 0
-398 -955 0
-689 0
-989 0
122 -259 0
-712 0
-109 0
-6 874 0
-936 0
-376 -631 0
-7 0
-488 179 0
625 -589 0
-396 615 0
-814 282 0
-439 0
-682 -25 0
-727 932 0
-168 0
-925 0
-743 627 0
-518 -867 0
-471 0
953 -258 0
16 -550 0
-815 0
-38 0
531 -924 0
-139 941 0
-770 0
650 -198 0
-72 890 0
-728 338 0
776 -918 0
533 -465 0
-485 172 0
-596 -89 0
-751 0
-577 0
-951 986 0
-672 897 0
-756 0
-882 0
529 -550 0
712 -882 0
613 -978 0
-125 373 0
-282 0
-948 0
-712 0
629 -913 0
-351 -18 0
-709 0
616 -942 0
-640 -334 0
-844 0
-128 -948 0
-764 0
-667 -283 0
-342 0
363 -258 0
-491 94 0
-876 0
-294 -852 0
-799 0
-645 0
-956 -794 0
-913 0
-942 751 0
-550 282 0
-485 109 0
-556 0
-452 0
-317 0
-54 269 0
-810 0
-232 0
-880 954 0
-159 133 0
-951 -709 0
496 -990 0
825 -491 0
-984 0
-614 902 0
-208 -635 0
-759 -450 0
-565 -13 0
-704 0
-936 -887 0
-6 0
-583 -171 0
-340 141 0
331 -489 0
-807 -629 0
-615 0
-571 -106 0
-58 0
652 -49 0
-764 0
-374 -266 0
171 -908 0
734 -42 0
65 -966 0
107 -259 0
-994 0
-719 -870 0
-46 -278 0
90 -482 0
745 -229 0
-160 413 0
-113 63 0
-180 574 0
-248 444 0
-734 964 0
-934 459 0
-261 527 0
-638 -298 0
-15 324 0
-542 -293 0
791 -25 0
850 -868 0
280 -514 0
-367 961 0
-97 0
-597 0
-469 806 0
-148 0
-50 0
330 -794 0
-768 -81 0
-463 -934 0
957 -338 0
-829 -155 0
-272 -969 0
-617 0
-512 -570 0
3 -242 0
-552 371 0
-143 268 0
-384 60 0
-720 0
769 -158 0
-997 -297 0
908 -219 0
-59 -650 0
961 -90 0
-892 -844 0
-101 63 0
-103 -579 0
72 -398 0
160 -955 0
-894 0
-522 807 0
-910 -929 0
-136 203 0
-384 0
555 -541 0
-85 0
-688 468 0
-394 0
-605 791 0
-326 122 0
-565 0
-594 0
-515 0
552 -386 0
-746 0
-852 0
-49 0
-241 0
-541 0
-860 0
-570 0
-593 0
635 -762 0
-173 119 0
-13 614 0
-318 0
-367 -689 0
-955 0
514 -499 0
-623 169 0
-729 0
-120 986 0
-75 0
-445 -730 0
-638 -821 0
-526 0
-452 0
-423 805 0
-192 98 0
-37 702 0
-481 0
937 -775 0
-123 455 0
-582 30 0
50 -196 0
449 -27 0
333 -105 0
-985 -857 0
218 -462 0
-187 0
-252 781 0
-631 0
-589 -611 0
-469 0
-582 0
-429 87 0
-51 0
-354 0
569 -422 0
-91 0
-664 0
-341 53 0
-156 -860 0
776 -858 0
-822 798 0
-394 0
570 -165 0
-464 -119 0
-684 -131 0
-164 332 0
-430 0
-278 -253 0
-973 427 0
-575 683 0
-832 258 0
-434 -225 0
755 -897 0
944 -890 0
-78 0
-523 254 0
-630 -514 0
288 -187 0
-695 -782 0
-853 -705 0
-726 251 0
-6 252 0
347 -482 0
-51 0
-696 -66 0
-312 -369 0
-757 -953 0
-402 0
-982 0
-446 -939 0
338 -684 0
-192 -443 0
-848 -885 0
-802 0
-942 620 0
988 -353 0
-868 0
-134 0
-536 780 0
-179 0
-251 966 0
-831 327 0
-362 0
58 -20 0
-495 0
-432 287 0
-953 0
-554 0
-456 -224 0
-128 638 0
-892 0
945 -882 0
-962 0
-68 0
-353 0
995 -170 0
-774 -597 0
587 -665 0
-872 -572 0
305 -781 0
-344 -788 0
-302 -589 0
-759 -724 0
-648 110 0
658 -449 0
-642 631 0
-492 -891 0
-390 644 0
-896 0
-583 -797 0
-716 0
-805 -700 0
-180 0
-825 0
-779 0
-312 454 0
-720 0
-678 0
-984 -766 0
-526 0
-429 -545 0
-556 318 0
-182 306 0
-695 211 0
-459 0
372 -682 0
-142 0
-205 -690 0
448 -660 0
-502 -468 0
-597 -500 0
584 -514 0
-312 0
-653 615 0
569 -769 0
41 -930 0
-230 0
-592 99 0
-889 0
-137 0
202 -658 0
-464 957 0
-335 362 0
-128 186 0
-172 0
-704 587 0
654 -18 0
-56 -570 0
-676 0
468 -636 0
-13 0
-159 -14 0
-8 0
849 -11 0
-805 -81 0
597 -985 0
-966 0
-283 -449 0
-322 0
860 -787 0
666 -281 0
-327 0
-230 -939 0
-867 -666 0
-988 0
265 -798 0
-694 0
-686 0
65 -444 0
-904 0
-967 820 0
-989 590 0
-804 -659 0
-485 -698 0
595 -777 0
353 -52 0
-513 0
-580 0
-543 -150 0
-102 -258 0
-429 0
-625 0
-909 36 0
-273 0
-241 0
-348 0
-249 0
596 -387 0
-394 342 0
273 -585 0
676 -801 0
-285 -209 0
-342 0
-400 244 0
-584 -815 0
-426 0
-603 0
-812 431 0
986 -597 0
-272 -405 0
490 -3 0
-194 790 0
-340 0
344 -218 0
113 -543 0
-450 0
-881 0
-600 132 0
-482 0
-672 271 0
-96 0
-215 268 0
-30 -308 0
243 -523 0
393 -853 0
-676 -220 0
-704 0
-461 0
-611 767 0
-856 -482 0
-738 0
546 -206 0
-101 357 0
-995 847 0
-424 -216 0
-34 0
-620 0
-940 0
-937 271 0
-113 0
-674 0
-355 -914 0
-725 -901 0
-48 -846 0
-169 0
26 -484 0
-550 -156 0
-675 0
-348 -778 0
-403 0
-531 -475 0
-412 -970 0
-965 -587 0
489 -842 0
-850 407 0
-566 0
-567 330 0
-147 0
-414 -85 0
-936 -449 0
-421 0
-379 -113 0
-649 0
-206 0
-454 396 0
488 -828 0
-19 0
-678 188 0
-439 0
-302 0
-829 0
-572 0
-941 0
-392 -694 0
-582 -913 0
-813 0
-962 0
-354 87 0
-509 -340 0
-940 0
-183 0
880 -588 0
474 -342 0
937 -38 0
-17 0
707 -329 0
-119 0
-415 -802 0
-825 -481 0
-369 -161 0
-778 0
-831 0
-541 0
-295 915 0
-344 0
-318 0
-741 0
-516 0
-493 -909 0
24 -379 0
-560 -361 0
-128 0
163 -777 0
-309 965 0
571 -905 0
-988 -43 0
-38 -267 0
-798 0
-278 -139 0
-708 30 0
324 -834 0
-846 0
-716 0
-344 -931 0
-750 0
520 -391 0
-116 -675 0
-828 0
-763 0
-151 0
-632 0
-287 829 0
626 -811 0
-410 -737 0
-390 -980 0
-128 -823 0
-750 0
-579 0
-801 0
-774 0
-920 0
-222 0
-304 -699 0
-107 -665 0
698 -604 0
324 -177 0
-661 0
-210 0
-975 -315 0
-751 0
114 -434 0
-123 0
-96 0
-183 954 0
-886 110 0
-184 -934 0
-253 0
265 -924 0
-207 -114 0
-999 0
-687 0
-145 0
-334 138 0
-274 0
-907 0
520 -472 0
-177 0
-514 439 0
-846 -179 0
-71 -699 0
493 -778 0
-326 851 0
-320 414 0
-497 0
-783 0
-79 0
-452 677 0
-96 0
-783 -254 0
618 -476 0
-443 0
-434 0
-21 0
-207 0
-166 46 0
-747 271 0
-152 998 0
-946 0
81 -998 0
-940 -521 0
-463 -286 0
-253 79 0
-193 0
814 -897 0
-878 0
-539 582 0
-200 0
-460 0
-188 0
-112 958 0
904 -43 0
-408 -482 0
833 -909 0
-836 268 0
924 -219 0
-719 0
-915 0
-567 994 0
-556 -394 0
-36 853 0
-733 35 0
-540 38 0
-897 0
-811 0
-99 0
-954 0
-223 -361 0
-571 0
-118 -243 0
-664 694 0
-725 -115 0
531 -945 0
-894 -622 0
-318 0
-232 -71 0
-947 0
-829 0
-368 18 0
-40 -821 0
-499 0
-685 428 0
-108 -851 0
-10 0
-651 0
-370 983 0
-2 0
-619 607 0
-67 270 0
-621 -661 0
-463 997 0
313 -365 0
-361 -281 0
186 -845 0
-352 0
-915 693 0
-372 0
75 -661 0
-696 -646 0
-211 951 0
-918 -993 0
-340 0
-610 0
832 -483 0
-388 901 0
240 -140 0
-813 0
-630 148 0
300 -409 0
-159 0
-933 884 0
99 -67 0
-858 0
-823 0
-113 0
-959 0
480 -939 0
-744 883 0
58 -494 0
-384 0
-479 -127 0
-434 0
-699 0
-495 0
-638 443 0
-168 -100 0
-279 0
-788 -219 0
-881 0
-286 3 0
-183 -653 0
627 -650 0
-315 0
942 -817 0
528 -332 0
-390 -101 0
-520 -438 0
-772 0
-670 0
-511 -915 0
-626 -553 0
-643 -809 0
379 -124 0
-56 -455 0
432 -689 0
-344 -49 0
251 -628 0
-202 -817 0
-646 0
-795 -786 0
80 -29 0
-863 54 0
432 -333 0
665 -844 0
-459 -265 0
-782 181 0
-150 53 0
892 -602 0
91 -268 0
-48 -523 0
-712 0
-501 -748 0
-583 -572 0
-812 0
-695 662 0
-795 -617 0
-171 -122 0
-924 0
-970 0
882 -51 0
-693 -284 0
-349 -468 0
-973 235 0
-850 0
-429 0
-597 -537 0
-508 0
-880 0
-675 -993 0
136 -351 0
-344 380 0
-687 85 0
-54 0
-693 -26 0
-727 637 0
-417 0
-503 -954 0
-178 0
-182 0
-507 0
-284 -145 0
223 -369 0
-316 -977 0
-952 525 0
68 -11 0
501 -849 0
-663 -2 0
-773 -587 0
-650 -761 0
555 -428 0
-741 0
-97 0
-549 0
-370 0
-922 0
-7 779 0
-992 -315 0
-701 -145 0
-652 0
-451 0
-283 -385 0
177 -899 0
-112 0
-322 0
-691 0
-250 0
985 -157 0
-728 -242 0
-93 0
-324 0
896 -926 0
800 -587 0
-870 646 0
33 -420 0
-99 0
-823 0
-615 -803 0
-942 0
-677 0
-840 -387 0
-947 0
-728 -290 0
-466 479 0
-785 0
-510 0
58 -132 0
-373 -257 0
205 -594 0
-59 15 0
-688 0
576 -939 0
-847 326 0
831 -393 0
320 -888 0
-595 0
-306 0
-665 0
-550 211 0
-467 0
-557 0
-729 0
-408 -86 0
-280 -717 0
-290 0
49 -278 0
-160 797 0
915 -85 0
-167 787 0
-34 855 0
294 -106 0
170 -715 0
953 -771 0
-674 327 0
-822 -812 0
828 -658 0
410 -358 0
-218 0
432 -602 0
-728 -483 0
-562 0
624 -922 0
563 -275 0
92 -386 0
-39 0
-648 0
-182 -786 0
-595 0
-13 0
-246 462 0
-960 0
-518 0
-984 994 0
-229 0
-636 0
820 -419 0
-975 0
-864 -972 0
867 -435 0
-38 0
-926 0
-792 -722 0
-216 -710 0
-139 0
-270 0
-734 0
-982 0
-237 -309 0
-171 0
-679 -321 0
-964 -851 0
762 -106 0
-90 0
-934 0
-815 -647 0
-237 0
-118 0
-319 -407 0
553 -171 0
-980 0
-813 941 0
-620 0
-958 0
-23 0
-497 0
-47 0
-494 182 0
-680 -773 0
-103 -756 0
940 -321 0
-533 0
-59 0
-111 0
-127 0
441 -345 0
-773 0
-907 0
-725 0
-181 541 0
912 -328 0
-246 0
56 -659 0
-895 -41 0
-160 0
-69 0
-738 0
-54 0
-783 -346 0
-341 0
728 -179 0
48 -844 0
-718 235 0
-164 725 0
-32 785 0
718 -809 0
-911 -94 0
-156 462 0
-906 0
-327 942 0
-277 0
-592 845 0
-637 0
-213 0
-995 0
-680 -773 0
547 -963 0
-269 0
-165 -353 0
-866 0
-879 -410 0
-306 0
844 -899 0
659 -193 0
-280 -397 0
-884 622 0
-517 0
917 -417 0
-232 -697 0
18 -733 0
-55 0
-55 0
-583 0
592 -80 0
-366 30 0
-850 0
-584 299 0
-412 0
-273 0
-758 0
-85 0
173 -129 0
-863 735 0
-682 0
-839 -718 0
-494 0
-31 -473 0
-170 0
-280 0
225 -305 0
-622 -349 0
978 -450 0
-413 -651 0
-96 -846 0
-208 0
984 -530 0
-845 0
937 -210 0
490 -381 0
-241 0
-616 -100 0
-960 495 0
-317 0
-835 0
656 -451 0
-635 0
-533 0
-893 0
-593 0
-224 -323 0
-950 0
41 -445 0
-168 -161 0
-837 -393 0
-934 234 0
-32 0
-183 414 0
-838 0
208 -122 0
-60 -473 0
968 -446 0
-749 -890 0
-156 47 0
-81 0
-533 0
-710 931 0
-1 0
-266 0
-4 0
37 -458 0
-45 -113 0
-213 0
-936 -302 0
-552 915 0
-604 476 0
-382 0
-285 0
-318 0
-682 -289 0
33 -225 0
-903 538 0
-948 -481 0
-162 -489 0
-559 -791 0
664 -941 0
-678 0
-456 0
-623 626 0
315 -973 0
-73 -25 0
841 -769 0
-10 0
-688 923 0
-596 -59 0
-750 0
-334 -726 0
858 -611 0
-511 0
115 -437 0
155 -84 0
-843 0
-873 -41 0
-48 116 0
-887 154 0
280 -283 0
-97 0
-318 -33 0
-368 247 0
-591 0
-78 0
889 -950 0
-750 0
872 -533 0
-445 0
885 -674 0
-175 972 0
212 -716 0
-535 -298 0
-798 -507 0
-272 -979 0
-378 0
-114 0
-727 0
-344 683 0
-392 0
941 -635 0
-46 -273 0
-771 0
-92 0
-835 -67 0
-501 0
-407 205 0
-800 477 0
617 -691 0
-240 0
-792 0
-749 0
-994 0
-453 533 0
-801 0
633 -422 0
296 -476 0
-608 0
-278 437 0
-685 -292 0
-109 -593 0
-778 0
-615 174 0
-544 0
-729 0
288 -310 0
-847 -74 0
-810 -794 0
-28 0
-592 722 0
-982 0
-139 0
-457 0
-893 195 0
-540 199 0
-169 0
-27 0
-480 0
-516 0
-343 -599 0
-928 0
-175 0
-48 907 0
-776 0
-142 622 0
49 -858 0
-200 -935 0
264 -117 0
-911 -379 0
541 -658 0
-800 965 0
-549 0
144 -164 0
-461 0
-183 -143 0
258 -781 0
598 -345 0
-12 -227 0
-162 0
204 -756 0
-975 0
-616 -758 0
-58 -802 0
-34 -169 0
281 -163 0
765 -291 0
-709 459 0
-503 0
-223 -294 0
-720 198 0
-524 0
-451 0
-886 955 0
-905 47 0
-991 -975 0
-407 -341 0
-80 -697 0
-746 -33 0
-150 0
-210 0
-857 0
-495 955 0
-348 0
838 -833 0
-200 378 0
-364 0
-981 0
128 -925 0
384 -224 0
-974 647 0
-902 0
595 -820 0
-655 0
-280 502 0
-540 -428 0
-853 0
-422 -531 0
-84 -257 0
-827 0
-133 0
-304 779 0
889 -918 0
-957 231 0
-735 0
-501 636 0
-382 0
-942 -345 0
-463 0
-200 0
-412 0
-812 -996 0
-824 0
-490 0
-291 0
-78 565 0
-77 -218 0
267 -753 0
-616 -405 0
-484 -402 0
-16 76 0
-165 0
-654 -836 0
-257 0
-789 0
-31 649 0
-759 -369 0
-496 -516 0
-632 42 0
-431 0
-679 0
-784 869 0
-75 0
-679 601 0
-64 490 0
-455 87 0
-639 0
-976 -818 0
-715 0
-759 0
-678 549 0
-172 -107 0
-317 765 0
-816 -979 0
210 -101 0
190 -945 0
-646 0
916 -521 0
-807 -117 0
-442 -793 0
-408 -338 0
-827 0
-789 0
241 -94 0
839 -529 0
-640 -598 0
-187 0
-53 0
168 -289 0
-304 670 0
-160 -766 0
-539 0
-558 0
-291 -385 0
-543 0
-588 38 0
-600 961 0
-589 0
-578 -338 0
-555 0
393 -627 0
-881 0
-164 -595 0
-810 -137 0
-767 195 0
-144 0
-48 -87 0
455 -657 0
-706 615 0
292 -433 0
51 -730 0
945 -979 0
-220 0
-454 0
-406 670 0
-595 0
-911 -797 0
-493 0
-912 0
-335 0
-141 0
-949 0
-595 638 0
-866 -793 0
-965 0
-476 334 0
-248 0
-308 0
-215 0
-266 0
-52 0
555 -490 0
-9 0
-624 -604 0
-109 -81 0
-313 0
-660 0
-736 0
-622 308 0
326 -858 0
-561 0
-984 -757 0
-163 0
-449 0
-464 202 0
-102 -258 0
-892 564 0
170 -278 0
952 -828 0
-758 0
777 -514 0
-303 0
-710 -842 0
-781 0
-136 0
-883 0
-439 -92 0
-254 0
-919 0
787 -69 0
-654 -565 0
-122 0
-514 0
-439 921 0
-694 127 0
-572 0
193 -891 0
-893 -930 0
-62 909 0
-95 -852 0
37 -82 0
-710 996 0
-748 0
-526 0
-134 -955 0
34 -924 0
-623 0
-861 447 0
-615 -173 0
-464 0
-37 -564 0
-331 0
-391 -865 0
-839 0
-602 0
-435 0
-889 0
-777 0
78 -25 0
-899 614 0
-368 0
-580 0
-930 0
-976 340 0
-894 0
-713 0
-504 0
-315 55 0
-967 -785 0
657 -914 0
-310 222 0
-251 0
-774 493 0
235 -489 0
801 -963 0
-780 0
-17 0
-470 0
-957 0
-52 725 0
-124 0
169 -598 0
-759 0
-94 479 0
826 -493 0
754 -474 0
-340 71 0
-623 -754 0
153 -802 0
-58 0
120 -671 0
-817 0
-163 0
808 -528 0
-954 0
-744 -265 0
-810 0
-35 -250 0
992 -764 0
-289 0
145 -265 0
456 -117 0
970 -418 0
184 -435 0
-999 278 0
-562 0
-289 0
-247 -998 0
209 -787 0
98 -611 0
-877 0
-663 139 0
-177 0
-534 -867 0
-118 0
-605 -267 0
-589 0
-113 0
-296 0
-908 279 0
-795 175 0
-134 -99 0
-803 495 0
897 -294 0
-959 0
-71 937 0
-208 0
342 -281 0
-443 -642 0
-21 478 0
-557 0
-30 469 0
-470 0
-140 0
-159 0
-159 0
-249 0
-147 0
-815 -133 0
-898 0
-650 0
-201 0
-384 157 0
-333 0
409 -124 0
-663 0
-205 -297 0
-616 0
-425 0
971 -629 0
-8 221 0
832 -362 0
-714 -609 0
-892 0
-108 0
-993 0
-647 49 0
-87 0
-400 0
-927 903 0
-614 83 0
-212 725 0
-8 0
-1000 0
-903 0
-201 0
-402 0
-230 -869 0
952 -406 0
-492 -995 0
512 -338 0
-430 0
-216 -94 0
-108 0
-663 -578 0
-612 -65 0
-197 76 0
-640 0
-629 0
-797 -586 0
-858 0
-814 0
-172 0
-572 708 0
-32 416 0
-192 881 0
976 -999 0
-998 0
-511 -516 0
-384 161 0
-839 0
-729 0
-215 324 0
850 -162 0
-437 -892 0
-145 0
-652 29 0
439 -969 0
-653 -363 0
-667 0
-588 -611 0
-798 -571 0
714 -77 0
-669 0
-175 771 0
-936 871 0
-223 0
-607 -979 0
-631 -853 0
-957 0
-448 0
840 -53 0
-979 0
-86 999 0
-434 0
-938 0
-29 781 0
-644 -451 0
-148 215 0
-263 -487 0
-203 0
249 -113 0
-411 -483 0
-731 0
-99 0
-629 -772 0
-470 0
-728 51 0
-801 0
-327 895 0
-943 -21 0
-376 -398 0
-152 0
-559 -18 0
-920 0
-135 775 0
-885 0
-661 -577 0
-360 958 0
-382 0
-461 -921 0
-16 0
65 -621 0
-112 -661 0
-874 0
-929 0
-935 61 0
-580 0
-985 0
-338 903 0
-572 228 0
-663 0
-23 0
-921 0
376 -508 0
-148 -363 0
-529 0
-374 -401 0
-684 0
192 -539 0
-127 0
-891 0
-531 0
-364 372 0
-664 563 0
-521 0
-643 0
-711 -996 0
-208 0
-173 -777 0
8 -770 0
-846 0
-471 0
-767 0
-900 0
-45 0
-751 0
-117 855 0
-807 -14 0
-285 -929 0
-913 0
-331 0
-572 0
-535 0
-240 0
-666 0
437 -921 0
-783 -142 0
-70 0
-345 775 0
-383 -877 0
-542 309 0
-287 0
-703 265 0
-175 0
-129 0
-785 0
-65 0
-108 0
-120 0
-927 0
-916 53 0
-660 -90 0
684 -402 0
-847 0
456 -419 0
-503 261 0
-256 440 0
936 -195 0
-359 0
-715 0
522 -333 0
-255 -931 0
-688 -627 0
-793 0
-827 0
-566 0
-58 327 0
106 -978 0
-220 0
-215 -615 0
-384 0
-73 -473 0
-348 -963 0
-994 0
747 -354 0
-714 0
338 -561 0
-984 -910 0
-374 0
-461 0
907 -132 0
-519 14 0
-430 -370 0
-184 634 0
-428 0
-160 -668 0
424 -860 0
-872 281 0
-981 820 0
-287 415 0
-974 0
-572 31 0
-690 0
-645 -601 0
-255 0
-38 -76 0
-688 334 0
356 -201 0
-8 398 0
-908 0
-408 172 0
-57 0
-302 -325 0
-376 -894 0
947 -322 0
-509 0
48 -332 0
-584 0
-454 0
-404 0
-304 -854 0
970 -612 0
-549 0
-117 0
-679 -561 0
661 -90 0
-447 894 0
-640 0
-728 0
-355 -66 0
-902 -611 0
512 -105 0
-643 -186 0
413 -113 0
-93 213 0
-80 849 0
336 -342 0
-166 -724 0
-160 -442 0
-236 -139 0
616 -642 0
-517 -273 0
-804 317 0
-567 501 0
-215 0
-704 0
-894 0
869 -633 0
360 -367 0
-292 -618 0
925 -993 0
-264 437 0
426 -107 0
-414 0
-488 0
-229 0
-971 -915 0
-945 0
-808 83 0
616 -989 0
-14 0
912 -451 0
-128 -818 0
-215 0
-155 0
409 -897 0
-812 0
-374 0
-919 -273 0
-644 0
-185 0
394 -555 0
-279 0
-63 0
897 -938 0
-402 0
841 -677 0
98 -586 0
657 -506 0
774 -273 0
-448 312 0
-185 0
-999 -597 0
-947 -394 0
634 -355 0
825 -130 0
-307 -83 0
-182 212 0
-86 0
-977 -793 0
-153 0
-987 -233 0
-685 0
-504 900 0
-485 0
-949 0
-979 0
-304 0
-756 -201 0
-104 -181 0
725 -97 0
121 -254 0
-922 0
-214 0
-934 511 0
-651 0
-400 0
-644 0
-335 652 0
11 -547 0
-161 0
418 -413 0
-226 0
-41 0
201 -937 0
-141 478 0
-939 0
784 -20 0
-599 0
-742 547 0
-226 -553 0
-624 703 0
-981 0
-760 0
-306 0
-193 0
-219 -115 0
-104 0
36 -979 0
628 -314 0
489 -193 0
-468 0
-375 0
-126 15 0
-694 -154 0
-568 -211 0
-896 303 0
394 -701 0
-796 836 0
-443 0
-263 0
-860 0
-72 -411 0
378 -507 0
-472 0
-810 0
-463 -334 0
-907 0
951 -801 0
-288 724 0
291 -785 0
203 -865 0
-755 -474 0
-145 0
-341 -987 0
-431 -873 0
-214 0
35 -43 0
-956 0
201 -556 0
299 -204 0
-174 0
620 -219 0
-570 0
-837 0
-542 -686 0
-222 0
-170 0
-979 0
-840 -642 0
-558 -290 0
-613 647 0
-172 -436 0
-457 0
-48 814 0
-990 0
-158 132 0
-44 0
-968 751 0
-222 -61 0
-452 0
-824 -305 0
309 -369 0
-752 -199 0
-980 702 0
792 -451 0
-695 -117 0
-32 774 0
-397 0
-856 0
-419 0
-248 619 0
-227 0
-133 0
-596 0
400 -667 0
-992 -493 0
-624 25 0
-773 0
-551 0
-748 0
-371 -331 0
-591 -565 0
738 -353 0
-548 0
-166 -613 0
-400 0
-402 0
-343 59 0
-744 0
330 -548 0
-317 0
-718 878 0
-400 -3 0
-574 -734 0
-86 -595 0
896 -240 0
984 -141 0
328 -38 0
-80 -569 0
576 -424 0
851 -218 0
-703 994 0
-295 822 0
-719 426 0
-516 -171 0
-366 0
-733 -483 0
-803 0
909 -905 0
-376 160 0
-288 289 0
884 -114 0
-827 0
616 -964 0
-63 580 0
987 -948 0
99 -268 0
310 -817 0
158 -306 0
253 -995 0
-448 359 0
-859 0
-729 0
-220 0
-132 -633 0
-825 0
-194 0
-129 -585 0
978 -556 0
794 -516 0
-366 0
-788 -715 0
505 -997 0
779 -485 0
58 -633 0
-583 799 0
-91 0
-14 -675 0
-798 660 0
-968 476 0
-767 -833 0
716 -81 0
-370 0
-758 0
690 -189 0
-886 -986 0
80 -716 0
-278 0
-633 -537 0
134 -842 0
472 -600 0
-742 -508 0
-744 0
-840 -26 0
-830 -153 0
907 -970 0
-787 0
-879 0
-302 0
809 -297 0
-886 732 0
-938 0
-223 0
248 -789 0
-94 -853 0
-704 473 0
880 -272 0
-36 0
-943 895 0
-478 -324 0
-94 53 0
-382 -377 0
-278 546 0
137 -889 0
-518 439 0
477 -899 0
-968 0
-600 299 0
-600 774 0
987 -585 0
-934 -99 0
-844 974 0
-584 0
-663 0
-423 0
-99 702 0
-112 -490 0
560 -229 0
-536 0
-741 695 0
-335 22 0
-419 -618 0
152 -167 0
-608 962 0
608 -374 0
-834 0
-448 0
-604 -497 0
-62 0
-373 0
-280 0
-50 0
-915 -529 0
256 -830 0
-398 0
-249 0
-331 0
-98 0
-718 726 0
-794 0
-744 0
-605 -977 0
-520 63 0
-927 -265 0
-551 829 0
-607 0
-656 383 0
-808 0
-677 0
147 -729 0
-246 -476 0
-181 0
-641 0
-15 -963 0
-399 -598 0
-680 0
-100 -265 0
-106 -409 0
-28 0
-912 -22 0
-615 0
-280 -644 0
-983 578 0
-303 -948 0
-618 0
-704 -193 0
-733 526 0
744 -578 0
-732 597 0
953 -550 0
681 -890 0
-530 -217 0
-808 0
-516 0
-378 0
-925 0
-371 0
65 -114 0
-580 318 0
112 -72 0
-794 0
-830 -691 0
540 -683 0
-485 0
-301 -44 0
415 -489 0
-868 268 0
-846 0
-888 -825 0
-134 -476 0
-972 -907 0
-783 0
-360 982 0
253 -425 0
-952 0
16 -391 0
848 -143 0
-656 0
-325 0
-875 0
-239 0
-858 0
600 -68 0
-971 -594 0
-15 0
-709 0
-512 -200 0
-337 0
-675 999 0
-446 -516 0
-574 0
-596 -417 0
-656 259 0
-125 0
13 -722 0
-325 0
-7 0
-116 0
-284 0
-927 679 0
-590 -625 0
-852 0
106 -316 0
-375 0
840 -599 0
-288 0
-469 0
-391 0
480 -363 0
-703 -759 0
746 -990 0
-946 0
186 -761 0
-131 0
-12 941 0
-533 -945 0
-694 -661 0
-490 0
264 -283 0
-259 0
-240 0
-391 0
-953 0
80 -813 0
590 -905 0
-524 726 0
-715 0
-166 0
-83 0
-435 0
-76 0
-172 878 0
651 -865 0
-202 702 0
-946 543 0
-918 0
-854 -601 0
722 -235 0
-397 628 0
-416 533 0
346 -918 0
-689 0
-460 0
792 -58 0
-103 -942 0
805 -497 0
-411 0
-743 925 0
-342 -406 0
-371 0
25 -702 0
-60 -658 0
-129 0
-607 0
-236 807 0
-979 367 0
-96 886 0
-645 0
131 -73 0
81 -972 0
-519 0
192 -588 0
-444 0
-944 0
-570 0
-43 0
-281 0
770 -466 0
-384 72 0
248 -155 0
-968 0
-503 -965 0
-788 -43 0
-964 0
536 -702 0
587 -553 0
-107 351 0
-371 0
146 -20 0
857 -825 0
-754 0
-1000 0
-367 0
-94 125 0
-730 0
-336 0
-396 0
-552 -291 0
-695 444 0
-63 0
-503 108 0
-604 173 0
-204 -827 0
-924 860 0
166 -529 0
-247 -148 0
-540 0
834 -649 0
469 -545 0
728 -782 0
-783 911 0
-919 0
-87 310 0
577 -477 0
-363 0
-167 -741 0
-177 0
-299 0
-802 0
-698 0
-779 0
-448 0
-90 278 0
-829 679 0
-927 -26 0
338 -580 0
-326 0
-24 0
-546 -353 0
-253 0
-392 0
641 -628 0
-749 0
-350 910 0
-48 879 0
-644 0
-829 486 0
216 -823 0
-942 631 0
-990 0
-935 0
-546 0
-852 37 0
-67 886 0
-357 0
396 -244 0
-733 0
-825 0
-623 -324 0
-149 0
-291 0
-748 239 0
-876 -937 0
584 -631 0
146 -498 0
984 -489 0
-535 126 0
-255 -397 0
-198 0
210 -380 0
-562 0
-157 0
-133 -546 0
-462 0
616 -688 0
-984 0
-935 0
-948 260 0
961 -932 0
537 -63 0
-610 0
-600 0
960 -315 0
266 -257 0
-805 0
-971 0
2 -132 0
-956 0
416 -382 0
-261 -257 0
386 -89 0
-624 725 0
-234 0
749 -433 0
-177 -209 0
310 -497 0
-918 0
-498 -817 0
-591 -469 0
-152 205 0
-992 231 0
-869 0
-328 0
-676 0
-349 598 0
-304 -698 0
232 -510 0
297 -241 0
-342 221 0
-380 0
485 -666 0
-95 0
-999 0
-645 0
-929 0
-832 0
-336 0
-831 0
-678 0
-115 0
-636 0
-959 893 0
308 -275 0
-544 0
556 -995 0
785 -583 0
370 -587 0
-981 -137 0
401 -178 0
-920 0
-581 -953 0
-584 385 0
-13 366 0
154 -325 0
-479 0
-54 0
-331 71 0
938 -946 0
-453 0
728 -657 0
-495 773 0
-543 -754 0
-186 0
-695 -202 0
-620 0
-932 0
-48 -450 0
14 -794 0
-875 470 0
-143 0
-805 -387 0
-647 178 0
659 -666 0
-97 0
-853 935 0
-725 0
947 -813 0
-91 -594 0
-575 0
-389 0
-119 0
-900 0
476 -788 0
-856 0
-118 0
-901 907 0
-528 0
-284 -193 0
-336 36 0
88 -890 0
-552 930 0
-805 0
-543 755 0
-30 0
-928 114 0
-590 0
-93 -108 0
714 -758 0
777 -341 0
-939 0
-989 -421 0
369 -523 0
-543 -858 0
-551 -203 0
-160 -378 0
-710 0
-491 0
-23 -493 0
-431 811 0
-296 -255 0
-101 0
385 -714 0
-117 -273 0
-888 738 0
686 -689 0
-689 0
-557 0
-429 -476 0
277 -73 0
-258 -881 0
-55 0
-59 0
387 -674 0
753 -898 0
-960 926 0
-45 0
-540 508 0
868 -987 0
764 -129 0
-252 0
-127 34 0
-681 -889 0
-693 0
-682 639 0
-189 -277 0
-61 471 0
491 -977 0
-107 0
-918 482 0
-966 779 0
-661 0
-213 0
-896 -843 0
-423 0
-468 349 0
752 -272 0
-661 0
109 -979 0
-487 239 0
-261 0
-254 19 0
-282 0
-705 0
-477 12 0
-219 0
-194 0
-845 0
-970 0
-206 852 0
-647 -121 0
833 -361 0
-911 -194 0
-170 -98 0
-341 582 0
-141 967 0
-728 820 0
-704 506 0
-138 -617 0
-115 0
-36 -740 0
-816 0
641 -674 0
-700 671 0
-157 -826 0
-737 0
734 -273 0
-271 0
-273 0
-837 0
520 -339 0
-128 474 0
65 -883 0
-815 795 0
-624 -735 0
-984 642 0
690 -676 0
800 -980 0
36 -243 0
296 -33 0
-373 0
-804 486 0
-480 0
-672 -580 0
-888 -178 0
-478 0
-502 877 0
-801 0
-368 15 0
171 -964 0
-502 927 0
-751 0
-660 0
-307 -650 0
-638 885 0
-262 0
-501 0
-651 0
-727 -113 0
-985 0
-497 0
-269 173 0
-834 191 0
-65 0
-175 681 0
752 -951 0
-228 0
-292 0
-312 0
-840 -33 0
-501 -221 0
128 -799 0
352 -963 0
234 -57 0
-534 -484 0
-396 0
-332 -873 0
-744 485 0
-620 972 0
-820 0
572 -242 0
-699 991 0
-973 -956 0
-486 -772 0
-503 0
-547 0
-496 30 0
74 -562 0
-486 2 0
-640 177 0
-504 0
-284 -297 0
-24 0
-905 0
-627 0
562 -601 0
-911 0
952 -146 0
-834 0
-180 -809 0
-472 0
776 -442 0
-303 436 0
-620 -19 0
536 -847 0
-658 0
-855 803 0
-596 0
-548 0
-400 -783 0
-902 0
-338 0
-806 0
-437 -484 0
345 -387 0
-623 478 0
-240 547 0
-919 0
-531 0
-767 546 0
-787 301 0
-302 -414 0
-643 0
-639 -515 0
-797 0
-593 0
-482 -289 0
561 -882 0
-535 977 0
-488 -916 0
-477 0
-168 0
944 -667 0
827 -650 0
-575 150 0
-261 717 0
-936 0
-913 287 0
-263 628 0
-316 0
-867 0
-341 0
-12 437 0
-197 844 0
554 -170 0
-241 0
-216 522 0
-124 -922 0
-247 0
-463 0
-582 -501 0
-4 0
-608 0
963 -377 0
-935 929 0
-785 0
-356 0
-49 0
-430 0
-604 55 0
242 -299 0
497 -627 0
636 -444 0
-937 0
-296 -811 0
-650 -90 0
-911 -766 0
-616 -850 0
-88 -218 0
-522 0
768 -50 0
-997 316 0
845 -899 0
-759 0
-560 0
-375 -123 0
-476 629 0
-75 -578 0
-752 0
-607 563 0
-326 853 0
-896 -587 0
-940 0
773 -10 0
-476 -186 0
-599 -34 0
-12 0
-565 0
744 -694 0
-904 878 0
-152 0
-487 0
-267 0
-175 0
-52 0
-723 -809 0
-204 -507 0
-779 0
-92 0
140 -321 0
-40 925 0
-599 -189 0
-299 0
-313 0
-530 0
-496 962 0
-165 -397 0
-734 -213 0
-558 -130 0
-427 0
-951 -270 0
-424 0
-616 -508 0
-708 0
-810 -553 0
-598 -426 0
610 -460 0
962 -379 0
283 -741 0
-187 0
-879 0
-929 0
-123 0
-541 118 0
-991 -729 0
-416 378 0
-555 0
-368 0
291 -698 0
-620 71 0
533 -298 0
-413 -66 0
-224 98 0
-927 -700 0
-950 463 0
-218 39 0
-519 754 0
-685 0
-780 0
237 -833 0
-271 165 0
-272 0
-626 0
264 -570 0
-670 0
-856 162 0
-267 0
-78 0
-940 0
-564 -892 0
-783 0
377 -495 0
-591 0
-495 -5 0
-88 667 0
840 -255 0
-773 -85 0
800 -873 0
-503 0
690 -123 0
-471 -364 0
-16 -590 0
-863 0
-456 406 0
-468 -98 0
-279 429 0
-53 847 0
-275 0
-599 0
-103 0
-38 0
-991 -806 0
-243 0
-600 -836 0
-514 0
-848 0
-838 0
-332 703 0
712 -305 0
-55 -548 0
-456 0
-935 854 0
-30 0
315 -757 0
-33 -825 0
-933 255 0
-480 832 0
-129 0
-399 423 0
-747 22 0
-646 877 0
-837 543 0
-525 0
-951 0
-335 -241 0
-43 485 0
-702 0
-281 0
-609 0
-935 -962 0
465 -231 0
-314 -113 0
-928 103 0
-376 -919 0
-564 0
-106 287 0
-710 0
218 -260 0
-135 -69 0
459 -820 0
-592 -834 0
-763 -946 0
-172 357 0
-920 0
-271 -275 0
-869 957 0
-581 0
-910 0
56 -55 0
-93 311 0
-704 0
-295 -918 0
405 -107 0
-576 0
-407 0
-766 -675 0
-189 0
-134 -947 0
-670 0
986 -614 0
-695 0
-907 0
505 -989 0
-278 -340 0
-115 -529 0
-484 223 0
-692 0
120 -922 0
-312 189 0
907 -489 0
-848 0
-11 0
-419 830 0
-668 -940 0
-328 -13 0
444 -20 0
-686 260 0
-539 686 0
-428 0
-735 0
-830 -582 0
-607 653 0
-370 0
88 -256 0
-639 -522 0
-506 0
-192 285 0
-230 -445 0
-507 0
-800 191 0
-326 0
-435 -545 0
-399 196 0
-968 112 0
-160 -292 0
-528 -673 0
-797 -140 0
-550 -307 0
-461 630 0
-215 0
-314 -961 0
-4 -763 0
-355 0
-934 0
-975 419 0
121 -249 0
703 -169 0
-439 -839 0
-752 65 0
-5 0
-37 0
-773 340 0
224 -718 0
-845 -284 0
-646 0
211 -163 0
-723 0
-320 0
-863 0
-533 -331 0
-424 0
-159 707 0
-949 -138 0
324 -513 0
-121 0
-435 293 0
-505 -465 0
-451 -465 0
-393 0
-8 387 0
-896 -761 0
-896 703 0
864 -92 0
-54 0
-750 -282 0
-15 0
-856 -676 0
-519 215 0
-912 588 0
551 -545 0
-433 0
-125 308 0
-237 0
-386 0
-443 86 0
-61 0
275 -122 0
165 -345 0
-320 524 0
216 -586 0
-347 -193 0
-478 843 0
-24 602 0
-540 0
-303 858 0
-296 -436 0
-434 0
-832 52 0
362 -417 0
-44 775 0
-403 0
-32 -763 0
-494 0
-192 0
-744 0
-87 -68 0
-155 -97 0
-894 0
-8 -860 0
-947 0
-514 0
-303 -619 0
-312 -546 0
-759 -350 0
-264 -522 0
-85 0
-148 214 0
835 -309 0
-323 0
-365 0
682 -420 0
-894 -626 0
106 -346 0
-268 -873 0
-399 -226 0
-94 799 0
-54 0
-55 -654 0
-188 -667 0
-191 660 0
-447 0
-540 0
-503 523 0
-698 343 0
-473 0
-136 -866 0
-518 0
-100 501 0
-568 959 0
-191 0
89 -154 0
644 -649 0
-680 101 0
851 -689 0
-637 0
-128 986 0
-133 564 0
978 -193 0
-685 0
-484 0
-744 -651 0
-701 0
-839 423 0
-951 -474 0
-152 0
-573 0
-950 318 0
978 -730 0
-56 0
-961 0
-648 866 0
988 -538 0
522 -979 0
-143 22 0
-190 0
68 -803 0
-304 0
-819 0
-157 0
819 -945 0
465 -114 0
305 -228 0
955 -468 0
-902 -937 0
-100 0
-661 13 0
-271 -154 0
-916 0
810 -849 0
-143 -665 0
-908 -139 0
-520 0
-387 0
-918 0
-245 0
-63 0
-950 0
841 -398 0
58 -269 0
680 -576 0
-549 860 0
186 -75 0
-229 78 0
-520 -489 0
-569 0
-831 -13 0
561 -420 0
352 -805 0
-247 0
-809 0
-800 -806 0
969 -556 0
842 -995 0
-35 0
-934 0
-580 0
-824 -907 0
-548 0
-977 0
-357 -404 0
-593 0
651 -66 0
-39 170 0
-511 190 0
-417 0
-756 0
-232 886 0
-506 0
-231 534 0
-747 0
192 -13 0
-803 -489 0
-176 930 0
-869 0
296 -60 0
369 -77 0
-748 383 0
-171 0
-819 0
-699 0
-836 941 0
-661 -657 0
-499 0
837 -26 0
513 -710 0
-631 0
-647 853 0
-60 0
688 -157 0
-972 0
163 -338 0
600 -193 0
-131 -921 0
-564 743 0
-858 0
-112 0
-25 0
36 -379 0
226 -961 0
-649 0
-656 -971 0
-136 0
-253 0
746 -997 0
-386 0
384 -464 0
-744 -534 0
176 -441 0
-391 283 0
-11 85 0
-407 -42 0
74 -59 0
-238 -874 0
-575 0
-667 0
-680 -103 0
-923 -361 0
803 -259 0
-332 68 0
980 -578 0
-281 0
-301 621 0
-816 -551 0
-95 0
-231 0
-986 0
411 -164 0
-716 0
-703 0
955 -714 0
792 -204 0
-832 0
-48 0
624 -869 0
109 -99 0
-276 -586 0
-176 802 0
-774 0
-39 55 0
-109 0
-420 0
-967 20 0
65 -478 0
745 -351 0
-586 566 0
-206 397 0
-35 814 0
-19 0
-91 -746 0
-475 0
192 -938 0
-635 -618 0
-919 0
-441 0
-600 0
-590 -657 0
-957 732 0
42 -916 0
-570 -593 0
-116 0
-842 831 0
-638 0
-658 -586 0
-25 0
-288 0
-411 -938 0
-640 0
-950 0
-679 -775 0
-64 -293 0
-300 0
-132 -713 0
-359 -619 0
385 -370 0
-776 0
618 -709 0
-363 0
-94 0
-197 0
-542 0
-419 975 0
-189 -948 0
-647 0
-337 0
-781 0
-842 0
-847 0
-556 0
-672 -212 0
-896 -440 0
-92 0
-80 237 0
-767 0
-253 0
-932 -585 0
827 -297 0
-555 -433 0
-824 0
-192 -951 0
-992 -974 0
-127 571 0
-935 0
-58 0
-353 0
-544 0
-288 -954 0
-954 -89 0
643 -601 0
-389 -557 0
344 -948 0
-868 0
-504 715 0
-397 0
-172 789 0
-674 -849 0
-691 0
16 -607 0
-563 0
448 -106 0
-438 0
-288 0
-543 215 0
-967 213 0
-939 0
-54 0
556 -274 0
-685 -147 0
-125 0
-734 0
-314 0
-568 108 0
-899 -474 0
-871 245 0
498 -19 0
-211 463 0
-103 -291 0
-295 0
-939 0
-742 0
-989 0
-782 -298 0
-938 534 0
-933 0
-800 587 0
-628 0
-496 -561 0
-738 0
-241 0
-744 -62 0
-333 52 0
-227 0
362 -225 0
-414 0
-930 0
-410 0
-390 0
331 -4 0
-366 -764 0
-7 -947 0
74 -646 0
-95 807 0
568 -428 0
-723 -265 0
-59 0
-165 639 0
-88 -394 0
-884 -370 0
658 -139 0
-915 -577 0
-341 -673 0
-236 -841 0
-316 -361 0
-924 895 0
-501 270 0
-854 0
-127 -627 0
-747 0
-950 -668 0
-344 715 0
-776 0
-487 68 0
-180 0
-978 -121 0
897 -396 0
987 -972 0
-383 479 0
-35 -891 0
-929 0
-570 0
778 -100 0
-846 205 0
-87 49 0
688 -378 0
-190 -339 0
-294 -409 0
-606 -690 0
-652 0
-922 0
-612 0
-316 -723 0
-281 0
-660 0
-236 0
-427 0
-828 0
-47 -531 0
-639 -307 0
-786 0
-759 0
490 -697 0
-707 -625 0
-936 -492 0
297 -849 0
-35 0
-425 0
-490 0
-403 0
-271 -225 0
-560 -471 0
-920 0
-671 0
-856 380 0
-472 485 0
-390 0
-148 295 0
-484 0
-822 495 0
825 -297 0
-344 -545 0
-729 0
-680 279 0
-419 326 0
-456 0
-108 0
-448 696 0
-136 827 0
-724 0
-271 -978 0
-685 -741 0
-456 0
-606 0
-616 0
-1 -449 0
665 -238 0
-727 0
820 -290 0
-637 0
-871 0
-780 0
-102 0
-25 0
-654 0
-558 0
816 -643 0
-460 0
-923 0
244 -834 0
-675 0
-692 0
-102 0
321 -958 0
-283 -66 0
-630 -525 0
-898 0
585 -890 0
-516 0
-115 279 0
-817 0
-96 0
-908 -657 0
-744 -855 0
627 -788 0
746 -777 0
-601 0
-992 0
-200 -279 0
-740 663 0
-847 -507 0
-903 0
-817 0
-120 0
-419 0
-822 -521 0
-630 0
-283 0
-895 234 0
-879 413 0
-246 0
-152 -499 0
-919 -68 0
-667 -161 0
-847 533 0
-336 229 0
-42 0
-632 734 0
-646 -3 0
-307 -489 0
-643 0
-639 -751 0
-168 0
-605 -187 0
-688 283 0
-856 -578 0
-298 -953 0
-387 0
-742 -700 0
352 -718 0
-588 0
-288 544 0
-531 0
-460 -73 0
-395 -353 0
-193 -873 0
-549 -658 0
30 -33 0
-10 0
-43 0
-368 408 0
-303 -522 0
-919 -341 0
-493 230 0
-96 -289 0
-364 0
-232 -310 0
-40 -321 0
-284 0
-577 143 0
-608 0
-640 0
-826 0
-966 -757 0
342 -418 0
-544 0
-536 700 0
473 -87 0
-864 0
-565 -549 0
-129 0
-107 -442 0
-171 0
-897 0
-986 0
-338 526 0
-533 0
-430 -92 0
-522 0
-311 0
-965 -387 0
-476 796 0
-359 0
-211 0
986 -498 0
-111 143 0
-943 -972 0
-931 -499 0
-618 0
-656 -342 0
-554 0
-110 0
297 -498 0
-456 0
-8 0
516 -322 0
288 -905 0
-134 -891 0
-941 0
-652 0
-858 -801 0
-940 820 0
-739 0
-95 946 0
-992 914 0
-485 566 0
-710 -557 0
-750 -666 0
-622 -460 0
-560 0
-280 0
-332 317 0
-15 167 0
-209 0
-318 965 0
-816 963 0
-768 0
-732 -465 0
-714 0
-271 -305 0
764 -715 0
-221 0
-2 0
434 -781 0
-103 0
-711 0
-754 0
-115 0
-804 0
-359 -373 0
-658 863 0
97 -161 0
-462 876 0
90 -494 0
920 -139 0
-896 -271 0
382 -649 0
971 -660 0
-655 0
-916 0
-690 0
-808 0
33 -107 0
-830 -693 0
-742 0
-1 -282 0
-171 0
241 -779 0
-492 0
-318 -970 0
-508 309 0
-220 0
-384 -450 0
-966 0
-632 0
-264 0
-456 0
-588 0
-147 0
-688 -435 0
-710 -709 0
-874 0
473 -322 0
-659 0
-696 -306 0
979 -339 0
-319 546 0
643 -121 0
-417 0
-89 0
-93 -61 0
-184 -470 0
-512 -379 0
-998 0
-36 0
-228 566 0
-450 0
164 -938 0
-640 -749 0
-888 -519 0
66 -922 0
-328 0
-734 -347 0
57 -66 0
-261 566 0
-519 550 0
-111 -857 0
-723 -946 0
-101 734 0
-593 0
757 -90 0
-396 0
-352 -559 0
275 -474 0
-181 0
641 -563 0
-808 -173 0
-790 0
-476 0
-731 0
-21 519 0
-284 -626 0
-730 -833 0
-941 0
836 -657 0
-315 0
-317 0
-530 0
-705 0
-517 0
-798 0
-230 478 0
-627 0
-398 0
-822 -27 0
-974 -412 0
-720 612 0
-903 -796 0
-594 -665 0
-677 -755 0
360 -571 0
501 -506 0
-101 -60 0
-908 -115 0
-927 -677 0
-855 -267 0
680 -962 0
317 -873 0
-64 -990 0
-496 681 0
-640 -993 0
-344 -729 0
-159 111 0
-407 0
-751 0
-676 0
506 -420 0
-913 0
-309 828 0
-655 -445 0
-709 -861 0
-183 -844 0
404 -875 0
-996 -426 0
788 -753 0
-386 0
-752 -851 0
-943 0
-223 -930 0
-773 -425 0
-70 0
-53 0
-118 0
-616 -311 0
-112 0
-330 0
-334 0
-847 -299 0
-838 973 0
-230 -273 0
-404 0
101 -603 0
-616 -869 0
-312 -437 0
328 -525 0
-510 0
-916 0
-951 -785 0
-620 0
-437 0
-397 -491 0
845 -747 0
-64 461 0
-407 0
-421 -397 0
413 -17 0
825 -590 0
658 -405 0
-211 0
42 -947 0
-485 267 0
-643 534 0
446 -417 0
-990 0
-726 0
297 -550 0
-198 0
673 -788 0
-435 0
-727 0
154 -941 0
923 -41 0
-120 999 0
-376 0
-774 0
-824 -700 0
-35 0
-103 0
-258 0
113 -571 0
-347 735 0
-80 0
-372 0
-14 956 0
224 -815 0
-675 293 0
-790 0
-37 0
-951 0
-46 -105 0
-648 -813 0
-176 0
-552 0
-598 359 0
-15 0
-593 247 0
-522 0
-661 -411 0
432 -941 0
-583 910 0
-506 -505 0
162 -625 0
-784 602 0
-596 0
-50 0
-981 0
-909 0
-304 697 0
-516 0
-749 772 0
-903 -170 0
-749 -917 0
-249 0
843 -490 0
-3 0
-904 792 0
-867 -353 0
-735 0
420 -17 0
-663 -159 0
-894 862 0
250 -233 0
-848 0
-327 -174 0
-59 -835 0
-459 0
-899 0
-470 935 0
-608 0
-236 759 0
-191 611 0
-427 86 0
-924 116 0
-209 0
-304 959 0
435 -115 0
515 -98 0
-22 0
729 -947 0
-982 142 0
-862 -19 0
-420 445 0
-342 -420 0
-128 0
-918 203 0
-114 167 0
-861 -922 0
-411 527 0
929 -797 0
314 -75 0
-399 -545 0
-13 934 0
-652 677 0
996 -123 0
-240 673 0
-626 0
-779 0
-502 471 0
845 -841 0
194 -985 0
-365 -179 0
634 -81 0
-987 493 0
-982 -900 0
-919 846 0
-754 0
-388 0
-563 -881 0
-67 0
-187 -153 0
961 -178 0
-152 -866 0
-626 0
835 -154 0
-440 -474 0
-42 0
-335 407 0
-993 0
195 -748 0
-671 0
-283 0
-383 0
-741 60 0
-424 57 0
-459 0
-498 0
962 -173 0
-177 0
-389 -209 0
-936 0
-367 0
-86 0
-175 0
-534 0
-568 33 0
-910 0
-847 230 0
-368 -341 0
-492 -378 0
904 -903 0
-871 0
753 -510 0
-224 281 0
-783 0
-224 0
-709 0
-546 0
-543 0
177 -954 0
713 -831 0
-560 -49 0
-45 0
-251 0
-783 987 0
-853 -420 0
-857 0
-132 -108 0
-47 26 0
-390 -349 0
289 -242 0
-644 -961 0
-891 0
-738 0
-10 0
-964 0
-978 0
513 -172 0
762 -27 0
-96 0
-687 147 0
-820 0
-92 0
746 -789 0
-391 -402 0
-366 631 0
-240 675 0
-87 698 0
-74 -249 0
561 -358 0
-557 580 0
-549 0
441 -675 0
-133 -36 0
-789 13 0
-489 0
-277 0
400 -247 0
724 -188 0
-502 0
-225 879 0
-189 0
-748 0
-701 0
-685 0
-548 0
-349 0
-422 0
707 -283 0
-55 0
128 -222 0
-829 463 0
-965 -180 0
-455 772 0
-814 0
-700 -753 0
979 -771 0
-292 0
-842 -289 0
64 -157 0
-944 -315 0
17 -906 0
937 -451 0
-338 687 0
-560 0
-348 836 0
-283 -291 0
-136 0
-416 -135 0
-754 71 0
26 -385 0
168 -691 0
-184 -753 0
-959 437 0
-272 969 0
-462 -348 0
752 -61 0
-8 -313 0
493 -51 0
-835 0
-398 614 0
-839 667 0
-575 -462 0
471 -273 0
-941 39 0
-829 0
-684 0
-258 0
-635 935 0
-530 0
-276 967 0
-326 0
-775 0
454 -602 0
303 -849 0
-719 -948 0
208 -520 0
-600 -548 0
-541 0
-652 0
963 -515 0
-851 0
-216 -332 0
-850 0
736 -867 0
-350 -829 0
-294 668 0
509 -395 0
-880 251 0
-960 -869 0
-787 0
-978 -769 0
-346 0
-192 0
-181 -269 0
-52 374 0
-831 0
912 -965 0
-452 645 0
-660 398 0
-298 279 0
-294 750 0
-355 990 0
-165 0
-731 0
117 -586 0
1000 -4 0
-632 4 0
734 -514 0
-552 0
-991 0
-94 0
-839 31 0
-307 998 0
-253 0
-310 183 0
-200 502 0
514 -225 0
-422 807 0
-207 0
689 -874 0
-494 0
-997 0
910 -529 0
-401 0
-260 0
-933 164 0
-528 0
-238 -20 0
-255 0
-299 0
-187 0
-320 0
-484 0
-455 556 0
-20 -585 0
-779 -258 0
-75 0
-369 0
752 -866 0
-749 0
-495 -18 0
-732 0
-787 -170 0
-202 0
-867 0
-941 525 0
-966 547 0
-184 0
-243 0
801 -889 0
-699 0
-144 -783 0
-29 0
-280 217 0
811 -178 0
-912 -511 0
-845 309 0
-576 0
-269 -884 0
240 -288 0
410 -181 0
601 -25 0
792 -42 0
-16 -825 0
413 -201 0
-386 -833 0
-787 0
-684 0
-70 0
-745 0
80 -768 0
432 -105 0
-971 703 0
-873 0
-240 -123 0
-349 0
-813 0
-803 0
-296 0
48 -141 0
-699 0
-372 -203 0
-119 -620 0
584 -9 0
-920 0
-592 378 0
-656 780 0
-845 0
-995 814 0
-375 516 0
-568 -873 0
-907 -666 0
236 -922 0
-856 475 0
-723 0
104 -117 0
-848 -567 0
-696 0
3 -209 0
-727 0
-944 0
-272 0
-13 -331 0
-352 -395 0
-287 -897 0
-895 0
-244 -522 0
-647 0
-640 -966 0
-75 0
22 -137 0
704 -557 0
-798 23 0
-558 -577 0
-264 -659 0
-807 443 0
-383 0
898 -228 0
-517 646 0
-763 0
644 -818 0
-721 0
-419 0
-887 14 0
-141 -170 0
560 -197 0
-872 0
-276 0
-323 0
-958 -254 0
-201 0
-222 -380 0
893 -817 0
-912 0
-447 0
-736 0
-856 -211 0
-125 -299 0
-23 -932 0
68 -187 0
-781 0
-259 0
-935 0
-898 -450 0
-540 0
-357 0
-200 0
312 -577 0
-496 0
-547 0
689 -913 0
-108 0
752 -161 0
-376 122 0
-57 119 0
-631 -598 0
-69 230 0
-720 0
-193 0
-138 0
354 -996 0
-874 0
-105 0
-812 0
-365 -593 0
-567 -406 0
-899 0
-586 -42 0
-931 207 0
70 -538 0
-298 0
-416 0
-173 0
-725 -937 0
-493 0
-533 -819 0
-77 0
-512 680 0
-838 695 0
-235 0
-182 0
-138 0
628 -884 0
-407 -303 0
537 -834 0
-841 0
-48 0
-42 0
-536 812 0
-981 -306 0
-304 0
-107 0
363 -429 0
-158 0
-127 0
-697 0
-547 0
-611 998 0
464 -911 0
-7 988 0
-126 0
-756 0
-92 0
394 -803 0
-204 -724 0
-815 0
-215 -693 0
-532 -954 0
-896 39 0
739 -843 0
-517 791 0
-53 0
-49 0
274 -757 0
267 -235 0
-93 -635 0
-793 0
-163 0
-239 0
-300 0
-440 97 0
765 -497 0
-280 180 0
-433 0
-80 0
-709 325 0
-271 410 0
-285 0
-32 -23 0
-757 0
-374 -573 0
-642 0
-15 242 0
-962 199 0
-748 0
-296 762 0
-456 -506 0
928 -934 0
-2 0
-557 -780 0
-415 0
572 -834 0
-595 0
-414 -684 0
-709 0
488 -810 0
-949 750 0
-652 324 0
-190 423 0
829 -737 0
-934 340 0
465 -35 0
-119 -567 0
514 -475 0
-736 -795 0
-462 303 0
-407 -972 0
301 -250 0
-453 0
-305 0
-455 0
-740 0
-740 -681 0
-958 301 0
160 -66 0
-974 -737 0
722 -403 0
-496 -198 0
648 -548 0
-989 0
-999 -116 0
-679 582 0
-229 0
-580 0
-382 -684 0
-947 0
-782 -234 0
266 -353 0
-564 -594 0
-832 0
-120 268 0
-128 763 0
-549 -833 0
-927 0
289 -765 0
-893 0
-375 -50 0
-957 0
104 -22 0
-465 0
-111 0
826 -795 0
11 -123 0
-484 -121 0
-411 0
-207 0
-180 0
626 -429 0
-454 -473 0
-783 524 0
-746 0
-887 -486 0
-229 0
264 -142 0
435 -889 0
-288 0
-428 0
-496 -105 0
-277 -308 0
-424 0
-840 0
-32 0
939 -651 0
802 -771 0
-757 0
-993 0
346 -866 0
-124 -553 0
-37 0
-756 0
-390 0
-111 -522 0
-431 0
-711 -539 0
-129 0
344 -769 0
-567 0
-512 -845 0
-60 -938 0
-483 0
-273 0
-669 0
-481 0
27 -322 0
962 -761 0
-261 -522 0
-535 897 0
-511 -367 0
-915 0
-146 0
-816 0
-920 -950 0
2 -958 0
-613 0
737 -709 0
-563 0
-487 0
-278 0
-272 0
466 -188 0
-918 -506 0
-544 -678 0
636 -522 0
-608 0
256 -675 0
654 -425 0
-741 143 0
374 -778 0
-365 0
-26 0
665 -851 0
-340 -898 0
-710 0
-302 774 0
-218 -746 0
-817 391 0
-805 -530 0
-538 0
-290 0
-391 834 0
-79 687 0
-846 -467 0
-12 678 0
-328 -411 0
586 -994 0
-38 -242 0
-230 0
645 -738 0
-989 54 0
-208 418 0
-335 94 0
994 -485 0
-707 0
-737 0
-819 0
-219 -402 0
-143 828 0
-558 -638 0
-679 868 0
-767 -729 0
-962 0
-838 0
-644 0
209 -101 0
-721 0
-604 -524 0
-27 95 0
-359 722 0
393 -774 0
-253 134 0
-554 0
-262 997 0
-700 0
-579 0
409 -966 0
-727 0
-877 -397 0
-559 -13 0
296 -84 0
-746 0
-622 -371 0
-430 0
-163 -9 0
-390 -860 0
-576 -982 0
-584 0
-370 0
-253 -723 0
-23 0
-78 0
-535 148 0
614 -322 0
352 -895 0
994 -91 0
800 -343 0
258 -918 0
-684 0
568 -111 0
-302 405 0
-490 15 0
-613 0
-540 -369 0
-583 -854 0
-88 -861 0
-496 633 0
-818 0
-690 -458 0
-119 -70 0
-491 0
-823 -578 0
-799 -915 0
-734 669 0
-333 -913 0
-238 0
-157 -707 0
-303 -834 0
-421 0
-235 0
-677 -589 0
-516 199 0
-996 0
-675 -666 0
-294 -998 0
966 -177 0
-200 735 0
-396 116 0
48 -348 0
-881 0
306 -939 0
-767 0
-742 0
-740 -777 0
-530 0
-145 0
-161 0
-262 663 0
-214 0
-266 0
-957 0
-455 382 0
-1000 -751 0
-675 87 0
-629 0
-515 0
-787 0
-847 0
-128 0
-292 -420 0
-55 0
-790 787 0
-671 0
-38 0
-310 610 0
760 -695 0
-229 0
-817 0
-985 0
-543 -322 0
912 -595 0
347 -851 0
-140 -220 0
-258 0
-293 836 0
-840 -398 0
-984 -27 0
410 -356 0
514 -636 0
-681 0
-168 634 0
-163 -209 0
-676 -97 0
-99 350 0
800 -812 0
-246 0
-891 718 0
-949 732 0
812 -353 0
-994 0
-646 518 0
-958 814 0
-930 0
-689 0
121 -92 0
-454 0
764 -50 0
-447 0
-407 0
-306 0
-439 631 0
-999 0
-243 0
-555 0
-823 462 0
-190 0
-583 -219 0
-160 620 0
-505 0
-675 0
-373 0
-935 0
-89 0
501 -826 0
189 -41 0
190 -601 0
-200 48 0
-566 0
-402 183 0
489 -124 0
737 -670 0
-320 0
-660 629 0
896 -561 0
-648 247 0
160 -561 0
-169 0
-866 0
114 -941 0
-263 0
993 -493 0
-473 0
-344 0
-485 0
-337 0
-356 988 0
-572 0
-141 -274 0
-20 877 0
-750 0
-870 0
-624 -491 0
-400 995 0
-628 0
861 -817 0
-704 0
-202 0
-876 0
-855 -578 0
-698 471 0
126 -433 0
853 -530 0
-55 125 0
-899 -201 0
-654 0
-165 0
-99 0
-807 0
-422 524 0
-582 0
-127 0
-392 0
-998 0
-438 0
-812 0
321 -722 0
-335 0
-258 0
505 -150 0
626 -525 0
-37 438 0
-727 421 0
-807 -306 0
-898 0
-909 0
545 -756 0
129 -70 0
-625 -649 0
-298 510 0
-174 -292 0
857 -697 0
-420 495 0
-816 -548 0
-328 -817 0
-51 0
-601 0
-476 0
-358 -385 0
-24 -237 0
-746 -169 0
-208 -839 0
-215 0
-632 611 0
553 -662 0
-960 0
-895 637 0
-579 -10 0
571 -69 0
-943 0
-743 0
978 -867 0
-783 -870 0
-391 -470 0
376 -436 0
-287 389 0
-45 447 0
-176 105 0
-167 0
808 -337 0
51 -186 0
-656 0
-656 -997 0
464 -611 0
-898 0
-111 -119 0
-110 0
-817 0
-801 0
-69 0
-414 0
-586 567 0
720 -657 0
-695 -941 0
-126 766 0
-432 0
-301 639 0
-354 0
390 -233 0
-369 0
-301 0
-20 0
-846 -724 0
-860 0
690 -146 0
75 -820 0
165 -249 0
160 -83 0
81 -363 0
-217 0
-310 -797 0
355 -874 0
432 -620 0
-799 0
-919 0
-384 0
-630 151 0
-277 420 0
-702 0
-84 0
18 -898 0
-833 0
53 -298 0
-822 919 0
-963 0
-958 635 0
-68 0
-431 0
-219 0
-64 -798 0
-911 -476 0
938 -637 0
-814 538 0
-205 -633 0
-728 0
-4 5 0
-306 -241 0
-257 847 0
272 -13 0
-176 -475 0
-596 0
-707 0
520 -605 0
-306 0
-67 0
-464 0
17 -306 0
-766 10 0
-462 -178 0
-578 0
-226 0
-660 0
68 -225 0
-853 0
-225 0
-830 662 0
-922 0
-24 0
382 -913 0
-437 0
-752 688 0
-866 646 0
-800 0
-314 0
-447 110 0
-517 628 0
-22 0
-325 0
-544 991 0
-183 -572 0
-516 0
962 -934 0
-891 0
-845 0
189 -322 0
-426 0
-83 0
-154 111 0
-560 258 0
-907 0
59 -649 0
715 -828 0
-150 0
627 -794 0
-52 855 0
-995 0
-307 0
-672 399 0
82 -259 0
-981 0
-39 223 0
-263 125 0
-688 249 0
675 -51 0
850 -211 0
-743 -750 0
-975 0
-829 -722 0
-654 -44 0
-639 0
-777 -73 0
-841 0
-621 437 0
-984 877 0
-172 0
-188 -818 0
840 -506 0
-656 -63 0
-118 290 0
-647 0
-407 0
-583 -177 0
-718 14 0
184 -972 0
-103 0
-999 -666 0
-895 -564 0
-686 628 0
-380 -740 0
-666 0
-704 -389 0
-846 0
-587 0
-302 0
-574 0
-630 0
-766 0
-768 940 0
-242 0
-566 0
-431 -842 0
-672 906 0
-247 0
-259 0
-268 0
-838 613 0
-790 180 0
-779 0
925 -426 0
-386 0
-232 -837 0
-800 -806 0
-476 -274 0
-620 757 0
67 -565 0
-126 0
-353 0
-83 0
269 -521 0
-531 254 0
-399 0
-82 143 0
-652 -339 0
-588 0
-673 0
-597 -57 0
-706 0
-669 -505 0
-234 -897 0
-743 -118 0
-989 524 0
-550 0
-28 0
-162 0
161 -433 0
9 -239 0
-593 0
-822 215 0
-627 0
-338 0
-526 0
-6 0
-202 0
-715 -531 0
-372 0
-897 0
-947 0
-664 -711 0
-535 -357 0
-856 -831 0
321 -298 0
-557 -722 0
-21 979 0
-709 -178 0
-424 -136 0
-464 0
-565 0
-823 -883 0
-342 0
592 -994 0
-431 0
-280 -318 0
-792 -202 0
-24 -285 0
185 -619 0
-261 0
312 -915 0
-753 0
-728 0
-730 0
-808 -740 0
752 -27 0
-251 0
-543 0
-928 0
454 -2 0
-992 0
-728 0
-59 461 0
-624 17 0
-267 0
-953 0
-207 -293 0
-214 0
-199 -657 0
-1000 -662 0
-255 -334 0
-421 0
-996 0
-233 0
-332 188 0
-989 677 0
-85 853 0
-14 0
2 -886 0
-218 -225 0
-459 375 0
-123 0
386 -644 0
-372 -50 0
-332 0
-201 0
-131 0
-712 0
-200 0
-840 0
-517 286 0
-144 -576 0
-962 0
-397 0
-69 -44 0
952 -247 0
-551 -990 0
412 -964 0
744 -301 0
-912 189 0
-831 0
-112 123 0
-933 0
-175 -199 0
-772 0
-319 -754 0
380 -706 0
-683 -523 0
-128 0
-597 31 0
-603 622 0
-407 731 0
-742 0
816 -17 0
-343 0
-87 373 0
-827 0
-814 0
-838 0
-743 -885 0
-423 -908 0
603 -748 0
-797 900 0
-584 0
-131 0
-70 0
-166 0
-246 -313 0
-444 0
-886 0
593 -886 0
868 -932 0
-227 -219 0
-888 0
-752 780 0
-637 340 0
620 -241 0
88 -77 0
-251 0
-276 0
-166 0
-557 0
-28 -683 0
256 -95 0
-437 549 0
-934 117 0
-555 0
-519 -428 0
-486 994 0
-442 0
-358 0
-757 -388 0
-216 0
-838 -510 0
194 -946 0
-184 0
184 -680 0
-251 685 0
498 -986 0
-14 308 0
-992 0
-141 -145 0
498 -332 0
-341 0
-60 206 0
-679 84 0
-765 0
-243 0
-645 -740 0
-567 397 0
-374 0
-960 130 0
574 -898 0
-214 0
-290 294 0
-192 0
-229 381 0
-298 534 0
753 -850 0
-825 0
-610 134 0
-702 323 0
257 -593 0
-481 0
-964 0
-200 -671 0
658 -105 0
-40 0
-624 -655 0
272 -341 0
-704 -180 0
-74 0
-461 -788 0
-50 0
-846 -828 0
-511 0
-546 0
248 -230 0
-917 0
-916 508 0
-703 0
-238 0
-552 952 0
461 -186 0
-632 -903 0
-656 0
-291 0
-265 0
612 -219 0
-60 0
-616 -574 0
-339 -99 0
355 -669 0
-417 0
-632 0
-171 45 0
-888 334 0
547 -362 0
-326 0
-169 -761 0
-972 0
-130 -409 0
-869 -5 0
-184 -564 0
-637 463 0
-344 0
-550 517 0
-527 0
68 -777 0
688 -891 0
-493 565 0
-606 405 0
-866 0
-208 -202 0
-931 0
353 -180 0
822 -954 0
-982 0
744 -261 0
827 -561 0
-639 -197 0
-357 549 0
-200 -569 0
-100 0
-137 0
-614 0
709 -865 0
-51 0
448 -483 0
-934 35 0
-575 925 0
-96 0
-93 0
922 -245 0
-565 0
-640 665 0
-723 -826 0
76 -121 0
-127 -139 0
-863 974 0
-184 0
-880 -222 0
-471 0
-670 828 0
-295 -929 0
337 -58 0
-70 227 0
-913 0
-719 134 0
-796 0
317 -179 0
-582 971 0
-464 393 0
-68 0
-247 -764 0
376 -436 0
-312 749 0
-751 -485 0
-264 99 0
-906 0
-665 0
89 -247 0
-485 0
-670 0
-558 620 0
-772 -801 0
484 -275 0
98 -362 0
-75 0
-72 -667 0
-675 0
-270 0
-869 638 0
-133 -811 0
348 -393 0
-973 -81 0
-498 0
-732 727 0
480 -857 0
-396 124 0
-864 0
-272 326 0
-127 -37 0
722 -428 0
-380 -699 0
-565 0
-371 0
-272 -76 0
-503 387 0
346 -395 0
-422 0
-834 0
-385 0
744 -907 0
-386 -514 0
-100 -985 0
-814 658 0
-444 0
-77 -122 0
289 -557 0
-942 -52 0
-522 -841 0
-676 0
-524 646 0
-515 0
-997 263 0
-85 0
-116 0
-663 0
-203 0
-696 756 0
-896 346 0
-542 226 0
-352 929 0
-588 0
-210 0
66 -11 0
-62 283 0
-337 0
-536 -162 0
-638 -401 0
-287 0
-383 -694 0
-937 -97 0
-570 0
697 -115 0
-927 -413 0
-460 902 0
971 -706 0
-715 389 0
-544 696 0
-727 -257 0
-850 0
716 -377 0
222 -577 0
-47 221 0
68 -883 0
-789 -241 0
-617 0
219 -483 0
250 -996 0
-968 -289 0
-583 -876 0
-839 0
-573 717 0
-661 270 0
-514 0
-776 0
-604 0
-470 -534 0
-568 980 0
-721 0
-396 0
-882 687 0
930 -241 0
-533 0
-564 0
-419 0
-112 0
-632 122 0
971 -489 0
-224 0
-303 0
-359 0
-227 0
721 -62 0
-794 0
-709 46 0
-798 0
-193 0
-441 0
915 -154 0
-942 -549 0
-31 0
-476 0
-502 2 0
-602 -394 0
504 -149 0
609 -302 0
-358 -761 0
-570 303 0
-754 0
-911 247 0
756 -618 0
-159 267 0
-87 700 0
-711 0
-181 0
-663 0
304 -148 0
3 -805 0
-78 -491 0
-96 230 0
-548 0
956 -18 0
-75 0
360 -291 0
-641 375 0
-330 0
-679 0
-363 0
-967 -665 0
-875 286 0
-541 -740 0
-149 0
-648 -781 0
-3 854 0
-715 0
-809 143 0
-504 -455 0
-278 -166 0
-386 0
-678 -129 0
-472 -830 0
-562 47 0
-370 0
-830 252 0
-224 0
-415 -315 0
-455 0
-382 551 0
-529 0
-237 887 0
-770 0
-726 -898 0
-944 -466 0
-775 0
-877 -276 0
-868 -260 0
-804 -353 0
494 -977 0
-218 0
-829 0
-894 -517 0
-159 -781 0
-146 0
-774 -561 0
129 -922 0
-648 452 0
4 -274 0
-732 0
-959 341 0
-621 0
-288 723 0
-298 159 0
-287 0
-631 666 0
-171 0
-344 0
-799 0
588 -732 0
521 -301 0
-786 0
-646 693 0
-571 -74 0
-868 0
-925 0
750 -522 0
-487 139 0
-44 0
-146 -521 0
-565 0
701 -379 0
995 -68 0
-902 316 0
-750 -477 0
-23 -363 0
-559 134 0
-669 -274 0
706 -827 0
352 -573 0
627 -485 0
-972 37 0
-453 949 0
-848 413 0
-825 0
-26 -41 0
-15 0
-72 627 0
-488 147 0
-223 -910 0
454 -234 0
-8 634 0
531 -397 0
793 -963 0
377 -74 0
-369 0
-350 522 0
-947 278 0
-680 0
192 -954 0
-552 -887 0
-328 797 0
-802 0
-188 942 0
-216 -443 0
-221 0
-375 0
442 -773 0
-134 -870 0
-132 -137 0
625 -12 0
-471 499 0
-855 413 0
-450 0
-563 0
-284 502 0
-733 0
-64 -641 0
-440 23 0
-967 -758 0
-683 0
-93 0
-439 0
-332 319 0
-496 0
-70 -454 0
-190 635 0
-59 0
-839 -101 0
949 -561 0
17 -295 0
491 -730 0
-323 79 0
-84 -82 0
408 -490 0
-880 -293 0
-354 -434 0
-86 0
744 -455 0
-361 0
-970 0
-272 -47 0
-964 0
-351 -383 0
-686 -713 0
-910 0
-336 0
-174 0
-624 0
-518 654 0
-920 -477 0
-199 -875 0
-905 0
-279 11 0
-330 0
4 -547 0
-980 0
-980 -515 0
-848 739 0
909 -434 0
-138 0
-917 0
-157 404 0
-711 0
-132 0
-877 0
613 -26 0
-13 0
-158 0
-548 109 0
-456 -173 0
-196 -675 0
-658 -729 0
419 -907 0
290 -659 0
409 -785 0
-368 -388 0
-421 716 0
-161 0
-651 0
-885 0
-31 0
926 -338 0
113 -820 0
-630 7 0
-917 -442 0
-631 0
-151 -735 0
307 -524 0
621 -370 0
313 -462 0
-123 0
-696 915 0
50 -212 0
-736 39 0
-588 0
-968 684 0
-792 -314 0
-475 335 0
130 -348 0
-976 -507 0
-391 0
-861 0
-396 -161 0
-24 707 0
-248 52 0
-208 0
556 -138 0
217 -721 0
-94 0
-839 898 0
-326 -569 0
-36 -820 0
116 -90 0
-518 327 0
-941 -97 0
-542 0
-104 295 0
-725 775 0
-603 0
-142 501 0
-964 0
-504 105 0
-443 0
-157 0
822 -713 0
-151 964 0
-802 766 0
-461 0
-362 214 0
-424 932 0
537 -453 0
-700 -354 0
-442 0
-648 314 0
-178 0
-564 966 0
-7 0
-981 0
-730 0
-565 0
-900 679 0
-272 562 0
-189 301 0
-608 -407 0
-218 0
-383 445 0
632 -930 0
-516 0
-736 924 0
-645 0
191 -465 0
-722 0
-827 0
-63 0
-942 467 0
-611 -354 0
832 -524 0
-906 0
-373 0
-96 940 0
970 -722 0
-859 -138 0
-910 550 0
-502 147 0
-281 0
963 -923 0
-520 268 0
-987 0
918 -138 0
-904 -799 0
282 -849 0
-237 0
-3 0
-700 671 0
-631 649 0
-893 -781 0
-887 0
-175 0
-578 0
-994 0
-554 342 0
69 -555 0
-717 0
-474 0
80 -470 0
-96 595 0
-778 0
-911 -146 0
-297 0
-453 0
992 -110 0
-644 287 0
232 -52 0
-63 -742 0
-371 -842 0
-392 -660 0
-856 0
664 -26 0
-664 746 0
318 -105 0
-534 0
-699 0
-9 0
300 -482 0
-454 0
-851 0
-286 267 0
639 -57 0
-453 -797 0
-695 346 0
688 -425 0
-713 663 0
97 -947 0
-493 371 0
368 -563 0
-470 0
-444 39 0
-439 -659 0
-25 0
-375 140 0
-782 0
-631 0
-480 0
-608 0
623 -617 0
1 -596 0
-960 -527 0
-203 -339 0
792 -796 0
-136 0
-32 -839 0
-6 0
195 -490 0
-55 -117 0
-423 -715 0
-618 0
-389 92 0
-887 706 0
-488 -417 0
-358 0
-414 0
-351 195 0
-800 236 0
704 -658 0
56 -622 0
56 -810 0
728 -908 0
-13 0
-829 -29 0
-290 54 0
-101 0
-836 -89 0
-116 846 0
982 -530 0
-188 -964 0
260 -474 0
-842 367 0
-349 126 0
-998 0
-365 -633 0
-900 0
149 -114 0
793 -411 0
-89 0
-168 -175 0
-639 292 0
978 -548 0
-494 0
-119 0
-966 0
929 -194 0
313 -922 0
249 -316 0
-127 0
-738 0
-971 702 0
-605 733 0
-755 0
-176 702 0
-488 0
-782 0
-773 -18 0
-76 967 0
-139 0
-472 -751 0
-240 -74 0
545 -491 0
-214 -627 0
-843 198 0
-162 -817 0
-792 697 0
-274 0
-36 565 0
-340 0
-113 0
930 -42 0
-318 126 0
-500 430 0
496 -750 0
-668 -803 0
-627 -330 0
-75 0
-473 -265 0
-954 0
-997 444 0
-999 0
-663 188 0
-188 0
-823 398 0
42 -402 0
-176 0
-333 573 0
-847 11 0
-386 0
297 -725 0
712 -580 0
-386 -218 0
-690 0
-747 0
182 -97 0
-406 -154 0
-678 0
-291 0
-580 0
-10 0
-494 0
405 -633 0
-302 0
-998 -331 0
105 -137 0
-927 0
-421 0
-612 0
-955 -513 0
-224 0
206 -81 0
-670 0
-916 -594 0
-783 566 0
-933 -917 0
-284 86 0
-257 0
-618 0
-455 0
-46 0
-472 -956 0
-778 743 0
-135 509 0
-632 0
-936 650 0
358 -778 0
-822 706 0
-344 195 0
776 -320 0
-78 -394 0
-560 0
-217 0
-124 0
-267 0
552 -706 0
-546 0
-808 112 0
-617 0
-45 0
-728 0
-551 293 0
-811 -858 0
-775 -330 0
-818 0
-99 0
-54 0
433 -995 0
-785 191 0
-493 -778 0
-376 0
649 -602 0
-485 -217 0
-591 -228 0
-119 189 0
577 -715 0
-845 -155 0
-687 0
-287 598 0
789 -841 0
-694 0
-96 -251 0
-781 -906 0
348 -34 0
242 -284 0
-30 0
-696 -276 0
-702 21 0
-107 830 0
-403 -313 0
-560 -596 0
-701 -379 0
316 -105 0
-727 -500 0
-272 924 0
-627 0
-148 -795 0
-340 -339 0
-315 38 0
-80 663 0
-815 0
-349 158 0
-541 0
882 -683 0
-737 0
-529 0
-64 0
-167 -795 0
-762 0
-992 -343 0
-397 0
-700 -697 0
-239 -782 0
-480 0
-547 0
-193 0
-797 0
772 -274 0
610 -501 0
-872 82 0
-455 0
-882 0
789 -353 0
-264 -511 0
-32 723 0
-27 350 0
-181 -477 0
-996 -657 0
-115 654 0
-767 958 0
-880 0
922 -621 0
449 -884 0
-63 -454 0
777 -987 0
-133 0
-856 -273 0
-975 -361 0
-315 0
-486 0
-736 0
19 -331 0
-838 0
993 -115 0
139 -331 0
-847 203 0
-550 -506 0
-624 -982 0
-354 0
-302 367 0
-803 0
-142 -441 0
856 -915 0
-423 249 0
-398 -825 0
-213 -819 0
-784 621 0
-91 0
-612 790 0
-328 -1000 0
-503 -242 0
-212 318 0
-410 0
-972 0
-271 695 0
-304 0
-73 0
-637 0
-346 0
-569 0
-427 335 0
947 -460 0
-381 -697 0
-595 -289 0
-104 270 0
-148 0
-815 0
-350 0
-602 -122 0
-800 -966 0
-116 0
155 -532 0
-919 239 0
-567 686 0
-44 0
-708 0
-985 0
42 -693 0
-362 0
-259 0
-573 -282 0
-521 0
-471 0
-568 706 0
-240 0
-857 0
979 -123 0
937 -147 0
-453 0
-945 -961 0
-794 0
-188 -481 0
-947 0
-169 0
-105 0
-398 -942 0
-901 0
-652 -12 0
-14 179 0
-40 0
-329 0
696 -94 0
-20 -289 0
-525 0
-212 -443 0
-639 0
-278 0
-732 0
380 -322 0
-502 526 0
-741 -325 0
275 -972 0
-879 0
-624 0
-606 358 0
563 -835 0
-222 -306 0
-772 0
-693 439 0
-904 0
-386 0
-399 0
-342 0
-861 0
-517 -140 0
-98 0
-324 199 0
-339 0
426 -233 0
794 -716 0
-908 -321 0
368 -598 0
843 -330 0
-444 0
792 -863 0
-825 0
-444 142 0
217 -197 0
-175 -421 0
512 -113 0
-656 -251 0
-534 263 0
-736 0
-7 -290 0
368 -710 0
-118 -451 0
-102 -499 0
-760 0
-687 0
-207 398 0
-732 -444 0
-335 -379 0
-145 0
-551 210 0
-640 -625 0
136 -145 0
729 -863 0
-885 -538 0
-791 268 0
-589 0
-635 6 0
-269 -267 0
-877 620 0
-752 135 0
-917 0
-245 998 0
-620 -36 0
735 -737 0
-695 0
-160 474 0
452 -668 0
706 -42 0
-673 0
-69 -540 0
-120 -242 0
-390 -204 0
-629 0
-644 852 0
148 -177 0
-389 -937 0
97 -506 0
-909 -373 0
-431 -412 0
-705 0
-633 -321 0
-942 373 0
-33 0
-351 971 0
-193 0
323 -645 0
-646 0
-770 -449 0
-120 -609 0
-356 -476 0
441 -854 0
-298 0
-468 0
-242 927 0
-42 0
-676 0
545 -779 0
-316 -465 0
-182 0
-232 998 0
872 -14 0
-118 892 0
-474 0
546 -665 0
-477 0
-935 -954 0
362 -978 0
-880 0
667 -513 0
-630 0
-373 0
-656 0
36 -521 0
-256 275 0
708 -475 0
-784 0
-244 0
-111 508 0
418 -366 0
-567 -660 0
-320 -767 0
506 -937 0
-447 0
-847 0
-716 500 0
-5 -468 0
-114 0
898 -362 0
-791 -250 0
-997 726 0
-228 0
-943 -900 0
-8 -299 0
-750 -29 0
-184 0
529 -782 0
-847 0
490 -124 0
-536 255 0
-605 0
-591 -249 0
592 -695 0
-154 0
-743 -523 0
-849 0
-736 0
-524 0
-493 -418 0
-773 0
-972 -929 0
765 -681 0
-293 605 0
546 -569 0
-891 0
-772 0
-701 0
-255 0
-350 461 0
1000 -137 0
-746 0
-756 -426 0
-88 -215 0
-685 -275 0
-49 0
-543 458 0
-468 759 0
-51 0
-404 0
-824 -778 0
802 -681 0
-711 -357 0
-518 -894 0
-498 0
-500 -339 0
-923 0
-306 0
-156 -569 0
-1000 0
-837 791 0
224 -553 0
-651 0
-527 55 0
-714 0
-792 0
212 -610 0
-917 0
-452 -162 0
-574 0
-496 -725 0
-959 0
152 -342 0
-664 0
-382 0
152 -659 0
515 -349 0
-874 0
-564 -875 0
-311 0
-18 0
-407 0
-488 0
739 -457 0
-788 0
-45 -545 0
-903 850 0
-198 0
-225 0
-590 228 0
-864 769 0
-373 0
-574 469 0
-259 -578 0
-152 -86 0
-298 0
-391 0
208 -406 0
25 -396 0
-985 0
-509 0
-994 0
-357 0
-152 0
-203 0
-299 0
181 -521 0
-583 830 0
-320 -926 0
-392 -837 0
-211 678 0
-662 0
853 -306 0
809 -977 0
-243 0
-326 -418 0
-854 0
-308 -866 0
-125 -322 0
428 -714 0
-590 110 0
-573 0
966 -889 0
-238 -790 0
-561 0
846 -418 0
593 -500 0
-684 0
-928 988 0
-73 0
-989 255 0
-673 -81 0
107 -242 0
-623 0
-709 675 0
-133 -650 0
59 -803 0
-405 0
-105 0
-808 -661 0
-766 -235 0
874 -138 0
-214 350 0
-733 0
-32 0
-173 -132 0
-218 -97 0
-616 0
482 -724 0
-668 0
-534 -470 0
258 -1 0
-731 -177 0
-848 356 0
-629 0
-750 0
-599 -853 0
-162 0
-630 0
-97 0
-924 0
921 -325 0
-950 -453 0
-509 807 0
569 -84 0
-619 0
-750 0
-18 183 0
-709 54 0
-480 735 0
-431 996 0
-496 0
-566 -332 0
-330 -505 0
409 -618 0
-519 -938 0
251 -657 0
-838 0
-622 741 0
-71 0
-199 0
-729 0
682 -612 0
-741 0
-191 0
-204 0
-826 -178 0
976 -63 0
-126 -899 0
-368 461 0
-15 0
-320 0
507 -476 0
-597 37 0
-990 0
-444 0
-964 207 0
-726 -266 0
-215 359 0
-603 133 0
-784 -126 0
-351 0
723 -955 0
-56 201 0
-543 -734 0
755 -149 0
-143 474 0
-750 -756 0
-173 0
-497 0
-439 0
-7 524 0
-183 -883 0
-918 0
-845 0
-637 0
-622 358 0
-528 779 0
-85 -298 0
-177 0
-686 -770 0
-299 0
-36 0
-544 529 0
-802 0
559 -97 0
-214 -668 0
-507 0
-97 0
-420 829 0
688 -903 0
604 -818 0
362 -858 0
-781 -521 0
43 -755 0
-31 -541 0
164 -226 0
-575 0
-332 -59 0
-125 0
-699 -913 0
-326 198 0
337 -74 0
-567 0
-989 981 0
-52 0
-517 0
-319 154 0
-253 0
-397 0
665 -805 0
-900 822 0
-297 -881 0
-631 322 0
611 -498 0
-965 567 0
-375 242 0
-83 -178 0
-669 0
-867 0
-95 0
728 -701 0
-536 -97 0
-640 0
-728 0
-192 0
-971 941 0
-439 957 0
-833 0
-958 0
-680 162 0
-118 223 0
-293 -42 0
-549 0
-98 0
-14 0
-287 0
-39 0
570 -602 0
-773 164 0
771 -596 0
-789 0
88 -156 0
-40 589 0
748 -811 0
-924 -25 0
938 -660 0
683 -977 0
-696 599 0
-929 0
-151 157 0
330 -468 0
-406 0
-86 -797 0
-58 0
-231 -441 0
25 -716 0
-39 977 0
-383 0
-738 0
-626 0
920 -857 0
-299 863 0
-452 0
-704 -569 0
-814 282 0
-207 -583 0
-351 0
-986 0
933 -113 0
-424 675 0
-15 66 0
-243 0
37 -129 0
-650 0
-491 0
-693 0
232 -181 0
-54 -498 0
82 -611 0
328 -131 0
-328 -709 0
-875 0
554 -833 0
564 -770 0
-923 -98 0
-778 0
-726 0
-593 0
-312 0
-120 -285 0
-43 0
178 -278 0
-581 0
-661 6 0
-844 0
688 -706 0
-659 783 0
233 -115 0
-885 -452 0
826 -381 0
336 -31 0
-472 8 0
20 -186 0
-990 74 0
-470 0
-807 -762 0
-830 83 0
-680 -930 0
536 -587 0
-73 0
866 -260 0
-22 -155 0
-493 0
-445 388 0
-278 -259 0
-205 0
386 -513 0
-549 0
-122 0
81 -830 0
449 -137 0
-608 0
-949 0
712 -777 0
356 -73 0
-945 0
-706 934 0
-823 255 0
-460 118 0
-263 0
146 -803 0
562 -297 0
-340 437 0
-269 0
-167 0
-911 0
-172 0
-390 -790 0
-367 0
-284 885 0
754 -43 0
708 -345 0
456 -877 0
-419 0
-664 0
-646 0
-814 -454 0
-945 0
-839 673 0
-503 238 0
-840 -16 0
-427 0
-368 467 0
-806 60 0
321 -507 0
-735 0
-856 178 0
-662 687 0
-750 0
-991 436 0
48 -297 0
-442 0
-399 455 0
730 -884 0
367 -385 0
945 -97 0
-308 -26 0
-238 403 0
202 -438 0
-989 0
-820 621 0
-840 871 0
80 -675 0
-430 91 0
-78 -827 0
-665 0
713 -646 0
410 -869 0
333 -306 0
-659 0
984 -479 0
-228 0
-926 -949 0
-803 0
-257 0
-946 0
-797 0
-384 0
-686 0
169 -474 0
994 -858 0
-888 482 0
-229 -633 0
434 -483 0
-383 -492 0
-472 -886 0
497 -684 0
-774 -515 0
-485 0
-296 -593 0
-349 222 0
-253 0
736 -726 0
768 -329 0
472 -41 0
-63 0
-688 848 0
-869 0
-695 711 0
-414 -829 0
-72 399 0
946 -260 0
160 -170 0
-739 0
-214 0
347 -10 0
-632 0
-112 202 0
-629 -602 0
-500 0
-925 0
170 -785 0
-440 -87 0
-831 0
-814 0
889 -218 0
-507 575 0
-584 0
-199 -561 0
195 -858 0
-795 0
-120 428 0
-313 0
857 -57 0
-129 -25 0
-687 -175 0
180 -194 0
-717 -356 0
-424 0
-647 0
-126 346 0
-839 -883 0
445 -426 0
-872 470 0
843 -517 0
-866 0
393 -501 0
-527 0
-868 375 0
-706 0
-461 -449 0
-114 0
-626 0
-618 0
845 -953 0
-742 0
-689 0
-160 209 0
-8 355 0
-641 0
-277 0
-524 -225 0
-980 815 0
477 -363 0
-791 0
-606 0
960 -312 0
730 -785 0
-136 -439 0
-404 0
310 -73 0
-734 0
402 -266 0
-157 0
-48 455 0
-553 0
-788 0
-791 0
964 -731 0
-967 452 0
-408 114 0
-839 374 0
-71 -130 0
933 -347 0
-35 0
-568 0
817 -172 0
-982 0
-162 0
-306 0
-441 0
-258 0
-714 0
-960 0
-414 -997 0
-126 886 0
-743 0
-344 -181 0
-822 -906 0
-912 0
-976 0
-360 0
-523 0
-523 -881 0
-168 -657 0
206 -545 0
-557 0
-230 -739 0
-263 0
-760 -554 0
-784 364 0
-293 0
369 -58 0
-633 0
-703 -165 0
-14 0
-506 -345 0
-166 179 0
668 -410 0
-422 0
242 -145 0
-323 -977 0
-157 669 0
-11 -569 0
-560 901 0
-406 0
-96 421 0
532 -283 0
-444 991 0
985 -39 0
-282 255 0
-992 -206 0
-195 0
-788 0
625 -413 0
-964 0
-941 -699 0
-60 0
-382 -658 0
-810 -714 0
410 -59 0
-639 252 0
-540 0
-21 150 0
-256 431 0
79 -185 0
-139 0
-87 0
-441 0
-611 0
-886 0
-624 0
-638 -85 0
-229 775 0
822 -657 0
-696 0
145 -708 0
851 -468 0
-527 0
-549 -961 0
-645 0
218 -60 0
-221 -281 0
-302 116 0
793 -886 0
-303 0
-63 274 0
-484 0
219 -172 0
681 -268 0
-260 508 0
-568 471 0
-884 684 0
-530 0
689 -169 0
-377 0
690 -507 0
-178 0
-623 431 0
-486 0
-149 -11 0
394 -481 0
806 -338 0
812 -315 0
444 -897 0
579 -349 0
-705 0
-904 0
-390 -154 0
-398 -446 0
954 -115 0
-928 0
-7 733 0
-631 -577 0
-711 653 0
-99 0
-862 0
-695 -790 0
322 -66 0
-69 0
-36 565 0
-833 0
553 -463 0
-647 0
-924 -897 0
-785 0
-248 0
-470 0
285 -969 0
-782 0
857 -723 0
-696 0
273 -73 0
-240 0
-509 0
803 -665 0
-735 -356 0
533 -977 0
-295 0
355 -10 0
-482 0
9 -54 0
-374 0
-817 -265 0
-624 0
-605 173 0
714 -910 0
298 -505 0
-208 0
369 -195 0
-232 702 0
-874 0
880 -804 0
-245 0
-332 -315 0
-342 542 0
362 -386 0
-186 0
-378 0
504 -363 0
-488 0
-478 0
-765 -338 0
-432 -585 0
-982 485 0
-647 0
-830 29 0
900 -347 0
864 -326 0
-422 0
-462 -580 0
-566 0
-776 -429 0
-119 -234 0
29 -394 0
-999 0
-195 919 0
-846 0
-645 727 0
-284 -202 0
-457 0
-305 0
-943 -122 0
-546 -625 0
-108 0
-854 923 0
936 -11 0
776 -478 0
594 -770 0
605 -875 0
-774 0
-120 -881 0
-446 347 0
-32 281 0
307 -506 0
-87 0
-70 -811 0
-853 -708 0
-904 51 0
-128 0
688 -596 0
-811 0
755 -761 0
-365 0
-813 -531 0
-909 0
-173 -869 0
136 -314 0
-901 0
-440 154 0
-864 -547 0
267 -265 0
-711 0
-324 798 0
378 -252 0
-470 396 0
513 -122 0
-816 161 0
-713 0
-246 -131 0
-121 0
532 -889 0
227 -660 0
-998 0
-305 -185 0
-428 0
-886 0
-134 -977 0
-569 0
813 -243 0
-975 0
488 -776 0
-938 0
-92 0
-189 -521 0
-216 0
-719 -783 0
-522 167 0
53 -258 0
-236 0
-392 929 0
-120 0
-906 0
-634 -905 0
-823 -641 0
-3 431 0
-523 0
-976 206 0
552 -293 0
-92 0
-120 487 0
-855 0
77 -241 0
264 -911 0
-952 -111 0
160 -938 0
-813 493 0
-851 0
-866 -410 0
-600 -378 0
-253 -60 0
-519 -340 0
-852 0
-9 0
-924 0
-655 -510 0
-839 -444 0
-142 923 0
-358 -461 0
-517 0
-792 0
-255 -673 0
61 -610 0
734 -58 0
621 -42 0
-518 0
-61 0
-847 0
-960 0
-530 0
-206 0
-863 -499 0
235 -241 0
-200 0
-38 0
-614 235 0
546 -914 0
-88 150 0
-611 -843 0
-285 -308 0
-528 0
-108 -393 0
-439 -660 0
-490 0
546 -417 0
-989 0
-359 137 0
-935 -674 0
624 -517 0
-668 0
-230 -865 0
-504 55 0
-480 -712 0
-775 0
114 -52 0
-895 0
-340 367 0
-945 0
338 -995 0
-52 0
-746 0
-382 -977 0
667 -124 0
-628 0
-397 -873 0
-896 -349 0
-843 0
-962 0
-703 84 0
-211 0
-259 6 0
-267 -642 0
-40 0
-429 0
-503 0
818 -426 0
-528 -638 0
-978 0
-746 0
857 -686 0
-779 -763 0
-342 -515 0
-812 0
521 -819 0
-763 -75 0
-823 175 0
760 -94 0
296 -925 0
-847 958 0
-375 0
131 -90 0
-44 0
-325 0
-861 -300 0
-779 158 0
889 -770 0
744 -115 0
496 -144 0
-580 -113 0
-696 -50 0
-474 0
138 -230 0
-947 0
856 -254 0
-11 0
-308 -915 0
-392 0
-3 0
348 -337 0
-297 0
-974 -726 0
-553 0
-893 0
-151 0
-960 0
-263 290 0
-444 92 0
588 -601 0
2 -877 0
-568 0
-489 0
-287 -531 0
29 -945 0
-718 0
128 -20 0
-968 383 0
-989 0
-129 0
-890 535 0
-801 0
89 -986 0
-396 0
-652 0
-796 0
-315 0
-534 927 0
-590 0
-902 0
-686 -699 0
-844 0
-723 942 0
-488 -746 0
-767 677 0
-168 409 0
-638 12 0
1000 -662 0
-776 634 0
-336 0
681 -886 0
855 -857 0
-140 31 0
-655 -711 0
-648 0
-134 0
-12 654 0
-71 0
-907 0
361 -438 0
-259 927 0
24 -834 0
-212 0
-991 249 0
-244 -322 0
-46 -873 0
-690 -225 0
-435 0
-789 -482 0
-612 0
-698 0
-404 0
-933 0
-38 0
-769 0
-454 0
-399 453 0
-955 0
952 -918 0
-330 0
-390 0
-29 -193 0
-232 -788 0
795 -26 0
-394 0
-173 190 0
-409 0
-353 0
-650 0
-857 0
-13 838 0
-551 -626 0
-355 0
-824 0
-843 0
-103 0
952 -610 0
-687 0
882 -50 0
-934 0
-423 -662 0
-790 0
-941 0
789 -393 0
-551 0
-178 839 0
314 -379 0
690 -490 0
-900 0
715 -881 0
-578 0
-93 0
214 -538 0
-751 471 0
-666 -538 0
237 -91 0
369 -223 0
-161 0
-539 0
-559 0
-84 0
640 -723 0
-822 525 0
-904 0
-936 0
139 -482 0
-501 613 0
832 -330 0
-197 0
-61 -138 0
-926 171 0
-886 -430 0
-708 815 0
-200 811 0
-264 -399 0
265 -841 0
-649 0
-233 0
-622 -308 0
-600 -590 0
-213 284 0
-503 0
-724 0
-451 0
-16 -471 0
24 -865 0
-346 0
-735 118 0
-286 0
40 -185 0
-502 -921 0
-755 0
-604 0
207 -201 0
-717 884 0
-885 -787 0
-687 -85 0
-813 -505 0
-348 94 0
-806 0
-560 824 0
-189 84 0
-956 0
-101 395 0
-901 0
-314 0
-6 0
-566 -220 0
-207 45 0
-300 0
-432 0
-783 0
-752 -161 0
-911 0
133 -993 0
-423 -271 0
-45 -859 0
-557 0
672 -377 0
-566 -729 0
-870 0
-704 -353 0
668 -979 0
-256 -717 0
90 -761 0
-405 693 0
-247 -425 0
-366 0
-743 0
-600 0
66 -266 0
-966 0
-975 972 0
-983 0
108 -723 0
-912 -172 0
-1 0
-997 111 0
-658 0
-578 -289 0
-349 156 0
-880 827 0
267 -475 0
-839 996 0
-761 0
-913 -337 0
-17 0
756 -811 0
522 -765 0
-705 -345 0
-508 877 0
-756 0
-97 0
-773 0
-313 0
944 -572 0
-504 279 0
-782 -506 0
937 -153 0
433 -90 0
-198 0
-134 -163 0
-620 0
674 -411 0
-59 0
-87 523 0
808 -1 0
-183 0
-184 0
293 -833 0
-377 0
-82 0
-492 0
-12 0
-195 383 0
-282 0
-630 -522 0
-363 0
-252 31 0
-545 0
-980 0
-493 148 0
-172 0
595 -489 0
-40 748 0
-508 0
-952 811 0
-366 940 0
-47 -412 0
-565 0
-116 0
809 -684 0
-199 -898 0
-873 0
-53 0
-1000 722 0
-888 756 0
-528 -30 0
-759 -292 0
355 -354 0
-490 0
932 -915 0
-215 0
-324 0
-496 -961 0
-678 -178 0
541 -169 0
-922 -273 0
-720 -39 0
-200 -514 0
-632 -860 0
-567 0
-756 -209 0
-434 0
-62 564 0
171 -418 0
-176 -69 0
-459 0
-463 -91 0
-878 487 0
-302 0
812 -457 0
-193 0
-941 -537 0
10 -537 0
435 -69 0
-223 -741 0
-423 711 0
49 -123 0
-261 0
-702 738 0
-463 -187 0
-719 755 0
-759 0
-508 -769 0
-916 -443 0
-816 374 0
-543 -51 0
-774 -885 0
946 -69 0
-627 0
-621 0
-849 0
376 -341 0
-688 -465 0
-294 671 0
369 -284 0
-767 0
169 -178 0
-957 0
-465 0
-53 0
-870 533 0
-718 -321 0
-602 0
-631 0
876 -771 0
801 -457 0
-477 493 0
-996 -355 0
-509 0
-621 0
-247 702 0
-257 0
-372 -571 0
-495 715 0
-691 549 0
-370 0
321 -666 0
-928 -83 0
-540 0
-431 0
754 -305 0
-179 -609 0
992 -838 0
-769 0
-421 -625 0
224 -450 0
-446 -614 0
-718 0
-938 0
-575 0
-425 0
-629 0
-255 366 0
-535 461 0
-391 -765 0
-372 0
584 -234 0
824 -457 0
-678 0
-903 0
-263 0
-526 563 0
-56 -535 0
-10 0
-364 0
-590 462 0
-782 0
152 -94 0
-341 -746 0
-437 0
-570 0
-611 662 0
-46 698 0
760 -644 0
-828 0
-516 0
-334 -476 0
-206 605 0
59 -658 0
-247 0
202 -333 0
-215 -606 0
-846 -828 0
50 -906 0
-973 -771 0
-166 0
-521 -865 0
-139 -714 0
628 -555 0
-639 718 0
-844 118 0
-210 0
-827 -49 0
-638 0
697 -490 0
-182 0
-736 -917 0
-296 0
-739 917 0
-833 0
-619 0
-339 0
-364 0
-864 200 0
-445 519 0
-786 0
-16 0
-225 0
-281 0
-158 -729 0
-996 0
-655 0
-408 -849 0
-943 0
-546 0
-958 437 0
-144 0
-518 0
-669 631 0
-56 -385 0
-332 0
-16 -864 0
-461 0
-367 0
-982 0
-384 -443 0
-408 84 0
-709 916 0
140 -393 0
-518 0
-789 855 0
-847 0
772 -905 0
-658 471 0
-306 0
851 -84 0
-911 0
-594 0
354 -317 0
-863 0
-33 0
-837 93 0
-989 742 0
-47 -731 0
338 -133 0
-905 999 0
84 -523 0
-372 0
-952 -443 0
817 -365 0
-983 0
-967 194 0
-269 0
976 -348 0
-443 558 0
-143 245 0
-902 0
-842 0
1 -969 0
-398 0
-721 0
-595 638 0
-986 0
-52 -123 0
57 -870 0
-593 0
-392 -108 0
-469 -3 0
108 -194 0
-697 0
-962 0
216 -381 0
-272 0
-245 0
-305 0
-577 0
-617 0
-278 0
925 -83 0
-156 245 0
-747 182 0
-250 0
923 -593 0
-269 0
-414 0
-873 -465 0
-56 -486 0
361 -491 0
-855 -217 0
-339 -321 0
160 -411 0
612 -218 0
936 -517 0
104 -155 0
-29 236 0
-786 0
-559 -493 0
-613 644 0
-191 0
440 -470 0
-772 -898 0
-127 886 0
-61 0
-12 -915 0
-336 0
-978 0
-652 0
-104 -757 0
-633 0
-669 0
-127 0
154 -989 0
-774 579 0
-743 0
-81 0
-69 0
835 -793 0
-548 -796 0
-556 695 0
-252 0
-936 497 0
989 -675 0
152 -927 0
85 -355 0
-471 0
392 -740 0
-399 0
-742 0
-984 -105 0
-529 0
595 -555 0
-445 373 0
-135 0
-872 363 0
-625 0
-833 199 0
-929 0
-824 0
-10 559 0
917 -379 0
-103 0
-415 0
-100 -684 0
649 -598 0
-61 -723 0
-231 -382 0
-424 138 0
-368 0
-5 781 0
-808 -521 0
82 -196 0
-511 -719 0
-734 -585 0
-697 0
-908 0
-530 0
-386 0
-317 484 0
-832 -139 0
-367 0
-252 0
-740 0
-208 156 0
-236 0
-214 -821 0
-840 -215 0
-767 988 0
-484 0
48 -625 0
-167 0
-606 0
857 -540 0
521 -515 0
-253 861 0
-64 -382 0
-136 -525 0
345 -844 0
-220 573 0
-302 0
-644 0
-948 0
-5 0
-185 -633 0
440 -676 0
-601 759 0
-847 -50 0
-262 -403 0
-829 -946 0
75 -409 0
932 -17 0
-733 0
-288 -259 0
-46 -206 0
-816 -45 0
747 -801 0
-704 -591 0
-548 12 0
954 -851 0
-400 -477 0
-473 951 0
-41 0
-996 0
-227 -875 0
-376 609 0
115 -465 0
-272 0
-552 -264 0
-798 -483 0
189 -914 0
-328 -823 0
-516 0
-672 -381 0
-418 215 0
485 -707 0
790 -769 0
-727 0
-187 0
801 -50 0
317 -707 0
-512 0
-975 922 0
-688 382 0
-410 0
-45 335 0
-359 0
-362 0
-284 582 0
-491 917 0
105 -133 0
-975 599 0
-45 -866 0
-702 0
-374 0
528 -405 0
-756 -897 0
-348 0
-45 0
-392 0
-716 807 0
-396 -499 0
-21 900 0
-473 623 0
-350 -748 0
-126 0
-647 716 0
-821 -123 0
-39 502 0
-585 0
-409 0
-627 -978 0
540 -771 0
713 -638 0
-116 0
-112 391 0
-153 0
-954 -633 0
-119 -977 0
-325 0
-703 37 0
-990 0
-277 45 0
-207 492 0
-416 -224 0
-472 681 0
-294 0
-785 0
-366 0
595 -299 0
138 -825 0
-220 0
-861 0
-168 -65 0
582 -522 0
-565 0
680 -431 0
-262 -395 0
-787 0
-735 -83 0
-302 87 0
-746 750 0
-809 0
-533 0
707 -498 0
-433 623 0
-320 -504 0
-580 -683 0
-971 0
-44 0
-773 511 0
-79 605 0
569 -433 0
-561 0
792 -421 0
-996 326 0
-550 205 0
-758 892 0
-901 0
-930 0
-512 -831 0
-524 -705 0
-134 6 0
-702 0
-886 0
-216 245 0
-326 646 0
-216 -598 0
-177 0
-968 -208 0
-512 953 0
-559 227 0
-767 -629 0
-399 -866 0
662 -242 0
-16 0
-412 0
-623 809 0
571 -851 0
-501 0
426 -894 0
-646 147 0
-760 358 0
767 -969 0
-656 561 0
-720 0
-34 -489 0
-679 -948 0
-279 959 0
9 -243 0
619 -429 0
-654 -337 0
-931 0
-407 -358 0
-158 436 0
-146 742 0
-895 0
-678 0
-959 0
-191 -123 0
-830 762 0
-942 0
-1 0
-360 0
-942 0
216 -378 0
-773 0
-182 902 0
-648 0
928 -838 0
273 -622 0
-71 0
-186 0
-759 0
264 -465 0
-728 0
-198 965 0
-47 390 0
-629 0
701 -626 0
-773 566 0
-886 0
-997 364 0
91 -923 0
-699 518 0
-426 846 0
-828 -979 0
-493 -237 0
-697 0
-767 0
-675 142 0
-502 -203 0
111 -217 0
-392 435 0
-810 0
344 -183 0
673 -438 0
-850 0
-897 0
-230 636 0
-949 0
817 -708 0
763 -572 0
185 -114 0
427 -809 0
-116 0
-939 0
-679 -697 0
-108 -332 0
724 -483 0
-701 0
-85 -481 0
-511 0
-317 -442 0
-96 0
-778 0
-906 -121 0
-246 716 0
-899 -545 0
-52 0
-237 -475 0
-759 0
-768 0
-51 0
-448 0
-793 0
-612 -11 0
864 -551 0
426 -580 0
-500 84 0
-194 0
-847 253 0
-597 687 0
-842 190 0
-339 0
-741 -370 0
-72 0
-256 -587 0
417 -678 0
-809 0
418 -987 0
-63 -701 0
987 -514 0
-856 0
817 -494 0
948 -587 0
-560 241 0
-239 -333 0
-112 0
-19 0
-581 -331 0
-835 0
-598 252 0
168 -212 0
347 -545 0
-527 -814 0
-272 0
-400 -868 0
594 -901 0
-989 0
-55 141 0
-558 0
-372 965 0
-123 0
-495 0
-568 0
-193 0
-752 -365 0
170 -541 0
-394 -33 0
-13 988 0
155 -396 0
-68 0
-32 0
-778 0
-266 0
-382 627 0
-918 932 0
-331 0
-227 789 0
-64 0
-168 867 0
922 -841 0
632 -435 0
-46 740 0
-580 759 0
-505 0
-913 0
-894 508 0
-807 -855 0
-480 0
-272 -394 0
580 -163 0
-954 0
-229 -739 0
-66 -49 0
-534 -139 0
-765 0
-620 0
422 -553 0
-393 0
-96 -274 0
467 -762 0
744 -85 0
-601 0
-758 -585 0
931 -691 0
306 -34 0
-615 0
-629 0
-555 -330 0
-579 119 0
-343 -198 0
-871 -574 0
-752 0
498 -803 0
-363 -634 0
-43 0
-251 0
644 -891 0
-184 -245 0
19 -993 0
764 -225 0
170 -598 0
-862 103 0
-765 0
-200 621 0
-342 557 0
521 -767 0
-799 -750 0
-982 -68 0
-334 0
-67 0
-343 62 0
-928 790 0
64 -41 0
-935 0
-876 -450 0
-782 0
-768 285 0
-315 -827 0
-87 0
-848 54 0
-804 0
-566 -949 0
-212 0
786 -709 0
-782 205 0
251 -634 0
-990 22 0
550 -601 0
-991 0
-694 -125 0
-917 284 0
-694 735 0
-581 244 0
-368 -308 0
-384 0
-382 -226 0
-877 0
-139 0
-658 671 0
-686 219 0
-764 0
-219 0
419 -259 0
-630 0
96 -353 0
-792 -793 0
-989 948 0
-851 -145 0
155 -561 0
-288 -392 0
-967 342 0
-834 0
-976 0
-158 0
-300 -428 0
-91 143 0
-638 556 0
113 -913 0
49 -306 0
-968 171 0
9 -710 0
-342 0
-765 -148 0
-470 -365 0
-610 0
-904 -137 0
-928 -773 0
-175 0
-602 0
-353 0
850 -842 0
522 -37 0
-830 -947 0
-422 -635 0
-318 -587 0
-792 978 0
-904 0
77 -570 0
-103 -572 0
970 -597 0
-841 0
-935 0
545 -251 0
936 -552 0
-755 0
-454 0
-781 0
-382 654 0
893 -314 0
-895 29 0
-17 0
-98 -57 0
196 -787 0
-411 391 0
-235 175 0
-800 796 0
-704 0
-879 199 0
-244 0
-625 0
-29 901 0
204 -604 0
-151 -268 0
800 -526 0
-484 -785 0
-88 -196 0
-159 261 0
512 -781 0
-93 0
-783 -124 0
-292 -346 0
929 -967 0
-566 -885 0
-357 147 0
-32 524 0
-151 0
-923 135 0
-711 638 0
-899 0
594 -677 0
-653 0
331 -948 0
-355 0
-536 -798 0
-616 748 0
-977 0
912 -596 0
-101 557 0
-839 0
-661 0
256 -809 0
835 -11 0
-128 938 0
-866 0
-486 0
-467 693 0
-408 0
-908 0
-978 743 0
-452 750 0
435 -869 0
-407 245 0
685 -362 0
-980 -28 0
-12 0
-797 822 0
-973 -733 0
-192 -833 0
942 -185 0
-109 0
-294 0
-468 0
-917 222 0
325 -362 0
-974 0
-157 132 0
-703 -18 0
-776 0
-709 -698 0
-492 0
-23 -75 0
936 -518 0
-666 23 0
-711 -275 0
-213 67 0
-694 -891 0
-328 941 0
-84 -755 0
-991 0
-272 429 0
-132 0
290 -22 0
-940 -563 0
-184 -985 0
-678 443 0
929 -630 0
-400 324 0
-837 0
-724 0
866 -652 0
-813 76 0
610 -436 0
-786 0
-157 0
875 -787 0
-113 0
-101 934 0
-727 0
-880 41 0
-588 772 0
-11 0
755 -954 0
-765 0
-340 -274 0
-686 771 0
705 -14 0
-913 -273 0
-299 0
944 -391 0
-871 0
-628 508 0
-924 -699 0
-582 -843 0
-239 0
-568 152 0
-29 0
216 -579 0
-285 0
-872 262 0
-492 -243 0
257 -822 0
600 -817 0
-847 0
-587 0
-151 290 0
-128 544 0
296 -686 0
433 -10 0
-744 224 0
-380 566 0
-564 0
-856 0
691 -483 0
-394 0
-742 -121 0
-804 0
-361 -897 0
592 -31 0
-704 -103 0
-149 0
-776 298 0
-70 0
305 -269 0
-448 0
-894 909 0
-71 0
-506 0
160 -780 0
-823 -762 0
-860 0
-827 791 0
478 -258 0
-597 0
52 -778 0
-459 0
-679 -445 0
-264 400 0
-430 379 0
-935 -148 0
-203 -433 0
-269 0
-463 0
-640 -40 0
886 -834 0
-902 940 0
-200 -546 0
698 -678 0
-603 158 0
-949 0
-396 -820 0
-228 765 0
-541 -180 0
-130 -793 0
-387 -363 0
-632 124 0
-803 0
-976 0
-464 622 0
-639 -817 0
-672 -460 0
346 -554 0
-730 0
485 -234 0
-836 623 0
-857 0
-654 762 0
-197 110 0
-300 0
-1000 0
-453 647 0
-388 199 0
-643 0
-679 -540 0
-521 0
-342 -346 0
-807 675 0
-670 0
194 -771 0
-204 757 0
-673 0
-166 652 0
320 -111 0
-56 0
-890 0
-896 -47 0
-979 0
-638 699 0
-740 0
-724 0
-567 -465 0
-78 0
809 -452 0
641 -982 0
-560 0
-920 104 0
-549 -643 0
-802 -986 0
217 -750 0
-557 0
-807 -810 0
-967 494 0
545 -790 0
-831 0
-48 0
-560 902 0
-118 -85 0
-57 0
-300 -771 0
-280 -983 0
-939 0
195 -441 0
-679 0
-997 396 0
-947 0
-32 0
-790 0
-854 709 0
-570 0
-502 -947 0
-21 103 0
-446 0
668 -826 0
841 -343 0
-374 0
-35 -826 0
-936 124 0
26 -782 0
376 -951 0
-885 -115 0
-879 0
-32 610 0
411 -738 0
-543 0
-989 0
-781 0
-18 -281 0
-175 356 0
425 -420 0
-12 982 0
-665 0
-284 0
-463 763 0
532 -729 0
-550 742 0
209 -541 0
235 -489 0
784 -8 0
-44 548 0
859 -36 0
-958 0
-790 557 0
-615 0
-622 0
-530 0
-431 -2 0
-415 0
918 -153 0
136 -27 0
922 -889 0
-683 -602 0
-447 877 0
-442 359 0
-312 -546 0
-213 0
593 -444 0
-742 -53 0
-308 743 0
-798 806 0
931 -500 0
-760 0
-765 0
-543 0
-27 -202 0
-23 0
-167 806 0
-429 -843 0
-256 -575 0
121 -597 0
-143 334 0
-77 -657 0
929 -131 0
-258 0
-390 811 0
-301 0
-536 838 0
-542 0
-610 294 0
512 -306 0
-964 996 0
-736 0
-402 0
898 -337 0
-951 -716 0
-629 -321 0
433 -165 0
-389 -732 0
184 -882 0
-114 0
-987 -921 0
-224 598 0
48 -675 0
-748 0
427 -913 0
-291 0
-644 -643 0
-192 -132 0
-724 -20 0
225 -426 0
-662 0
-53 198 0
156 -138 0
-245 0
-27 0
-528 -784 0
-342 -260 0
803 -284 0
-743 -10 0
275 -660 0
-264 870 0
-223 68 0
522 -185 0
916 -204 0
257 -918 0
-834 0
-160 0
-397 0
-312 0
169 -553 0
-948 0
-296 0
-128 -355 0
-785 0
-992 849 0
504 -359 0
-717 247 0
-405 0
-917 -353 0
-399 -170 0
-656 0
936 -352 0
-644 0
-123 0
731 -541 0
-711 0
-885 0
-352 -199 0
-647 0
-874 0
-768 -578 0
-406 0
978 -860 0
-550 0
-457 0
342 -697 0
-263 0
-172 0
-277 172 0
-94 0
467 -924 0
-757 0
-423 0
-118 -529 0
944 -60 0
-147 -121 0
899 -924 0
-828 0
546 -579 0
292 -338 0
-373 415 0
-931 0
-38 0
96 -278 0
-944 885 0
-542 0
-723 0
-736 901 0
690 -290 0
805 -225 0
-911 0
977 -369 0
-800 0
-430 836 0
-19 0
-542 -138 0
-385 0
-184 -90 0
-63 0
-330 0
-835 0
611 -59 0
-146 0
-998 0
-359 242 0
-214 461 0
208 -246 0
-823 91 0
-908 0
-336 0
-136 710 0
-830 0
371 -698 0
882 -270 0
-183 163 0
-678 308 0
-211 0
-459 0
-168 0
-496 -436 0
-870 639 0
144 -420 0
-153 0
-926 0
-224 -414 0
-850 0
-245 0
-226 -601 0
748 -618 0
-822 0
-702 -626 0
304 -67 0
9 -670 0
-843 0
850 -508 0
-431 0
-557 622 0
-204 39 0
-320 -852 0
-522 -689 0
-673 0
-274 0
-339 -905 0
-447 -556 0
-578 0
-182 589 0
522 -484 0
428 -873 0
-833 -409 0
-706 -522 0
-670 0
-968 -344 0
-239 598 0
-770 0
-482 671 0
-635 431 0
577 -314 0
202 -363 0
516 -827 0
-285 0
555 -322 0
-321 0
-44 885 0
-833 679 0
408 -116 0
-462 0
-871 -1 0
-989 0
-726 918 0
62 -793 0
-82 0
-239 0
-408 874 0
-75 0
619 -938 0
-576 -768 0
-992 -943 0
-510 0
-473 527 0
-490 0
-392 -343 0
122 -35 0
-174 62 0
-264 85 0
360 -190 0
-739 0
-555 0
-760 0
-728 635 0
-802 0
-383 0
779 -443 0
-758 124 0
304 -856 0
113 -658 0
-58 343 0
-606 -810 0
190 -801 0
-821 0
-912 362 0
-219 54 0
-508 -194 0
-64 -994 0
-811 0
17 -906 0
-269 0
-400 361 0
-984 -427 0
-164 0
-929 0
530 -939 0
-495 0
-693 -877 0
-744 0
-917 829 0
220 -715 0
-270 -556 0
-27 0
-921 0
-975 324 0
-377 0
547 -109 0
-929 -537 0
394 -531 0
-78 0
-688 684 0
16 -866 0
-567 0
-70 -91 0
-517 0
-541 -658 0
245 -786 0
-460 0
-669 -322 0
-408 608 0
-225 0
-722 0
-604 -867 0
233 -188 0
-983 -274 0
-91 878 0
-318 -132 0
-847 30 0
973 -643 0
643 -978 0
-558 -489 0
553 -41 0
-527 0
-573 0
-463 614 0
-891 0
-439 0
-959 918 0
-647 411 0
11 -1 0
-455 886 0
-945 0
-796 799 0
-593 0
640 -918 0
-146 134 0
-473 0
-366 -30 0
147 -156 0
-668 -115 0
379 -332 0
-341 739 0
440 -287 0
-696 836 0
-275 0
154 -941 0
-326 0
501 -538 0
368 -455 0
-949 0
-299 0
-713 0
-37 0
-350 -833 0
-572 0
-343 311 0
-259 0
610 -490 0
-269 0
-299 0
-980 0
-922 0
-883 0
-103 0
-720 -884 0
-318 0
-726 0
-101 532 0
-127 -85 0
-425 0
-293 0
-935 0
-590 -282 0
-819 0
-854 802 0
-188 0
-854 -441 0
-123 0
-979 0
-927 788 0
-757 -738 0
220 -434 0
-836 0
309 -154 0
920 -371 0
747 -571 0
-279 0
716 -292 0
688 -597 0
184 -508 0
-988 -611 0
-874 0
-942 443 0
-423 -830 0
-423 -839 0
760 -521 0
-358 0
640 -825 0
-323 -946 0
-271 -563 0
-236 0
347 -739 0
-628 0
-690 0
-765 -66 0
-555 0
-1000 0
139 -170 0
-520 940 0
-51 0
-258 0
-333 44 0
-800 -210 0
-833 -969 0
-910 0
668 -796 0
587 -673 0
-61 0
-143 0
-310 0
-624 0
930 -164 0
-960 0
-829 -58 0
592 -713 0
-248 -418 0
-774 -706 0
-694 470 0
-524 -897 0
-417 0
760 -291 0
-384 394 0
-297 0
467 -403 0
-95 0
-285 0
-36 765 0
-403 0
468 -265 0
8 -130 0
-103 0
-425 0
-241 0
-587 742 0
-197 0
962 -173 0
-14 612 0
-821 0
-471 -524 0
920 -387 0
-673 0
-858 0
-932 -970 0
-817 0
788 -841 0
-440 972 0
900 -690 0
-760 -990 0
-24 0
-355 0
-278 -235 0
680 -150 0
-992 -865 0
-320 -10 0
467 -907 0
-606 692 0
-280 0
512 -161 0
-868 0
-524 -403 0
-135 0
107 -137 0
-224 116 0
-252 -947 0
-451 -105 0
785 -713 0
-190 0
465 -358 0
-371 0
-720 586 0
-203 -43 0
-478 -458 0
-800 0
-456 0
-408 970 0
-976 -854 0
-198 110 0
-900 446 0
-281 -105 0
-586 0
-863 0
-416 804 0
-788 0
-68 -436 0
-903 0
829 -99 0
-891 0
-734 -942 0
-546 0
-248 -844 0
-332 751 0
-92 0
-398 -52 0
-986 39 0
-967 119 0
-840 860 0
-170 350 0
377 -461 0
-996 0
-182 246 0
-776 0
-871 0
720 -995 0
-573 -738 0
-231 0
-937 0
-16 0
-64 240 0
-464 594 0
-937 0
-936 0
168 -443 0
-374 399 0
-975 0
926 -201 0
-537 0
660 -114 0
-385 0
-149 0
-389 0
-152 -772 0
-924 758 0
-960 0
-688 -797 0
-62 0
-912 -793 0
-139 -433 0
-208 -498 0
-380 -626 0
-458 0
-130 -762 0
-921 0
-679 619 0
-146 0
-518 0
-117 0
545 -1 0
-784 0
-246 0
-542 0
-818 0
-527 0
-583 0
-338 0
-527 556 0
937 -375 0
-100 37 0
909 -889 0
961 -229 0
482 -273 0
160 -56 0
