p cnf 16002 63719
896 577 0
717 797 0
848 354 0
732 581 0
544 740 0
657 0
725 254 0
50 765 0
865 0
148 0
62 614 0
760 902 0
132 0
351 0
762 203 0
774 0
995 0
947 0
550 262 0
508 630 0
953 477 0
397 591 0
691 0
671 0
958 0
931 0
875 436 0
699 0
713 0
871 0
893 0
738 0
323 0
118 0
488 0
66 0
765 0
928 111 0
591 0
959 0
361 0
907 0
599 0
673 76 0
999 0
752 0
218 508 0
573 0
777 963 0
460 0
33 0
910 0
950 0
576 25 0
784 0
674 0
899 0
589 653 0
456 0
448 0
167 0
454 0
686 0
493 0
761 0
871 0
307 468 0
132 0
72 0
645 0
578 0
881 0
648 0
460 0
58 188 0
915 668 0
90 410 0
414 0
12 0
39 0
966 0
454 0
720 0
813 0
47 0
774 0
72 0
657 271 0
542 0
322 0
137 119 0
476 0
393 0
449 475 0
230 0
386 0
831 0
401 713 0
56 97 0
551 0
536 0
700 798 0
107 0
58 0
152 0
306 0
467 629 0
509 0
831 0
686 0
241 386 0
400 378 0
437 0
435 0
692 0
110 0
388 0
679 0
229 0
425 924 0
751 0
403 0
922 564 0
83 0
700 943 0
885 0
262 0
125 0
815 0
948 0
828 0
107 619 0
930 678 0
228 541 0
287 0
969 0
597 0
299 0
963 0
882 0
837 0
145 755 0
323 0
232 0
696 0
586 980 0
597 0
160 0
607 0
593 617 0
946 0
328 384 0
170 815 0
807 0
331 0
496 139 0
830 0
161 218 0
608 421 0
578 0
37 0
47 0
429 0
922 54 0
43 0
130 0
370 50 0
733 0
85 0
675 0
554 618 0
657 0
235 0
169 519 0
561 175 0
918 0
258 0
982 0
347 375 0
161 862 0
476 854 0
801 0
216 0
198 599 0
717 0
185 0
341 301 0
93 0
943 0
296 0
626 0
23 0
321 407 0
775 0
705 0
413 0
748 0
770 646 0
27 0
265 917 0
491 0
452 0
436 0
857 0
433 54 0
543 0
38 0
898 599 0
970 971 0
367 0
81 0
648 589 0
393 299 0
426 543 0
563 621 0
603 0
7 0
384 909 0
497 0
44 0
506 36 0
352 702 0
755 0
150 0
562 0
228 798 0
889 0
121 685 0
653 0
111 0
65 660 0
82 0
657 278 0
104 597 0
774 0
404 215 0
218 0
91 0
655 0
850 7 0
329 759 0
585 14 0
516 0
367 0
884 781 0
218 482 0
337 937 0
861 223 0
756 0
154 0
271 0
379 0
227 0
256 0
620 0
935 255 0
528 0
62 0
440 0
509 0
722 0
861 0
984 0
570 0
138 0
587 0
237 0
523 156 0
811 559 0
438 0
19 0
956 0
90 0
908 294 0
857 0
914 0
764 358 0
921 502 0
262 855 0
780 0
314 911 0
593 402 0
282 982 0
160 883 0
503 0
52 0
83 0
536 0
588 0
809 0
403 0
250 268 0
718 0
764 0
997 0
371 0
122 0
82 765 0
577 0
383 0
16 112 0
159 0
776 504 0
63 0
884 564 0
580 0
951 0
564 997 0
618 0
622 0
351 0
517 0
333 0
580 0
217 603 0
35 0
965 0
26 451 0
143 0
369 0
276 830 0
746 0
962 0
198 951 0
190 0
84 0
50 0
688 235 0
67 0
976 0
340 0
959 0
988 0
37 0
245 0
204 0
602 966 0
82 0
448 222 0
606 0
224 678 0
994 798 0
362 0
418 845 0
960 259 0
967 0
624 0
669 0
969 0
995 996 0
930 0
421 0
958 0
61 0
869 414 0
186 651 0
11 0
755 0
230 0
859 0
797 0
810 691 0
428 0
304 356 0
934 0
138 0
212 0
835 0
416 0
697 479 0
179 0
443 292 0
729 0
670 0
953 617 0
235 134 0
475 21 0
814 0
934 0
997 0
152 0
32 940 0
208 0
654 0
216 197 0
346 0
107 0
581 686 0
673 205 0
636 565 0
545 0
116 0
944 199 0
624 0
950 774 0
776 0
467 0
544 0
612 0
417 244 0
561 114 0
131 0
254 0
516 0
1 335 0
1000 0
414 0
430 0
112 249 0
896 0
260 0
792 0
318 0
515 518 0
879 0
205 647 0
197 0
507 0
5 0
294 831 0
146 0
723 0
819 0
922 0
292 0
73 245 0
909 670 0
768 0
975 0
132 0
697 620 0
455 0
385 985 0
614 0
343 0
89 0
837 0
141 327 0
476 0
567 0
240 585 0
317 0
349 0
818 134 0
802 260 0
147 439 0
366 0
747 0
943 0
489 969 0
321 0
963 908 0
542 151 0
358 0
666 0
942 0
167 0
751 0
352 0
322 387 0
29 0
972 0
477 0
239 0
890 0
553 0
775 0
661 405 0
365 0
925 638 0
32 195 0
771 0
563 0
349 471 0
28 909 0
111 0
202 861 0
678 0
429 174 0
152 633 0
420 0
759 0
27 0
463 0
185 549 0
370 0
243 447 0
443 223 0
309 0
275 0
323 0
229 173 0
877 0
339 461 0
717 0
993 260 0
837 806 0
871 0
306 0
668 0
562 0
413 0
915 0
517 0
534 0
83 0
852 0
928 242 0
65 162 0
670 0
625 0
960 0
107 0
529 0
763 903 0
602 2 0
198 0
356 0
667 0
734 0
831 0
601 887 0
353 333 0
762 0
228 0
335 0
800 642 0
706 0
820 0
742 727 0
900 0
211 0
644 207 0
441 0
418 223 0
280 0
105 277 0
86 358 0
127 0
267 0
130 0
851 757 0
328 0
608 851 0
495 0
211 309 0
301 0
706 0
121 902 0
106 443 0
821 0
969 860 0
376 0
8 806 0
140 0
533 0
992 0
350 0
286 0
785 0
297 0
498 316 0
164 0
221 711 0
931 0
499 0
853 0
53 0
273 0
909 0
894 0
643 0
163 0
631 0
400 99 0
400 0
877 0
949 0
242 607 0
423 0
828 0
924 0
110 0
471 0
720 0
77 0
608 380 0
637 0
936 0
215 0
844 446 0
329 0
890 0
523 0
198 0
967 0
371 365 0
344 0
786 909 0
272 0
857 154 0
907 0
597 0
484 182 0
441 868 0
183 0
538 0
787 0
53 0
745 0
937 0
284 0
168 113 0
272 0
766 0
833 0
641 0
662 0
175 0
608 533 0
297 0
615 0
123 0
52 183 0
127 0
434 0
438 0
325 991 0
806 0
848 505 0
490 0
769 0
761 734 0
533 0
272 0
145 0
973 0
578 0
308 0
801 0
864 0
505 0
560 104 0
233 0
68 749 0
517 0
741 446 0
696 0
343 0
479 0
946 0
238 0
586 0
20 277 0
449 817 0
225 10 0
808 985 0
561 0
752 495 0
946 74 0
717 0
426 878 0
892 0
409 735 0
365 0
551 0
137 0
575 0
158 0
492 0
881 474 0
264 151 0
308 7 0
670 0
846 0
827 0
735 0
522 0
630 0
890 0
513 0
231 0
84 332 0
9 0
424 292 0
28 0
421 0
971 884 0
10 886 0
495 0
280 296 0
808 106 0
210 0
376 87 0
737 279 0
528 945 0
721 0
290 0
898 567 0
270 0
474 0
165 0
116 0
427 0
112 0
875 470 0
487 0
640 832 0
784 0
236 0
991 0
8 803 0
386 331 0
893 0
560 19 0
642 0
99 0
870 0
80 0
751 0
867 0
906 0
121 0
927 0
802 0
912 0
697 436 0
598 0
208 0
539 0
869 0
217 778 0
26 515 0
760 0
196 0
954 0
376 398 0
645 247 0
115 44 0
788 0
686 351 0
414 0
847 0
717 0
397 0
640 0
200 0
338 0
375 0
349 0
446 0
510 0
562 0
384 654 0
552 461 0
554 0
215 0
873 0
334 0
383 0
483 0
878 0
555 0
59 0
2 0
24 955 0
850 0
37 0
654 0
533 637 0
364 0
211 0
258 147 0
839 0
934 0
146 15 0
355 564 0
994 0
609 0
650 76 0
777 0
593 0
659 541 0
519 0
874 0
385 229 0
148 741 0
328 0
625 0
28 791 0
867 0
23 0
643 308 0
233 26 0
24 704 0
827 124 0
795 309 0
792 0
384 362 0
379 0
819 95 0
217 316 0
17 0
294 0
601 0
505 0
692 0
872 0
425 451 0
39 0
923 0
389 0
321 0
157 0
114 0
305 102 0
99 0
576 335 0
398 0
577 188 0
216 0
590 934 0
866 0
240 0
501 0
320 0
953 0
796 0
857 0
544 0
521 836 0
345 487 0
647 0
392 0
42 0
492 359 0
256 227 0
944 294 0
219 0
658 0
672 570 0
277 0
707 0
474 660 0
686 238 0
564 0
642 699 0
473 141 0
257 979 0
784 0
200 0
511 0
85 0
888 939 0
867 0
951 0
592 0
112 667 0
423 0
589 0
573 0
218 0
124 845 0
152 0
489 0
128 0
153 0
291 0
416 0
945 0
202 92 0
414 0
593 0
562 0
200 708 0
544 213 0
16 548 0
610 0
793 0
618 0
873 895 0
334 0
860 0
943 0
62 0
771 77 0
851 0
829 0
585 902 0
867 469 0
704 0
558 0
162 229 0
729 903 0
142 0
289 63 0
69 157 0
466 0
265 0
484 167 0
24 0
320 0
920 0
151 583 0
562 847 0
520 0
436 0
32 0
456 0
416 0
525 0
948 0
815 0
184 0
865 355 0
666 0
186 622 0
154 0
127 0
905 883 0
592 886 0
692 532 0
804 0
626 655 0
384 495 0
782 0
142 0
945 890 0
769 0
442 303 0
141 630 0
480 798 0
490 0
220 0
537 375 0
391 0
526 0
956 381 0
599 0
505 938 0
754 0
290 0
501 662 0
124 0
870 0
971 645 0
160 0
141 0
338 0
970 6 0
321 0
899 0
320 0
846 0
886 0
681 0
684 0
174 0
828 0
815 0
835 0
694 126 0
938 0
512 0
26 4 0
628 895 0
747 0
19 574 0
403 0
585 635 0
526 0
906 891 0
863 0
848 0
847 0
24 0
849 0
752 420 0
497 0
810 0
851 0
253 0
46 0
888 836 0
621 0
997 262 0
974 86 0
43 0
836 0
203 0
17 463 0
592 519 0
107 0
509 702 0
388 0
785 0
517 0
312 0
960 0
98 0
162 0
936 186 0
785 484 0
917 0
92 0
418 141 0
792 90 0
737 0
586 268 0
569 0
948 0
128 0
263 0
789 0
475 205 0
687 0
126 0
412 222 0
377 0
485 0
21 375 0
708 92 0
652 0
273 23 0
704 141 0
379 0
984 0
24 0
775 0
896 0
27 0
584 0
19 0
529 0
345 361 0
177 491 0
633 745 0
477 0
700 277 0
616 0
651 911 0
822 0
226 0
258 0
563 0
495 0
787 167 0
487 0
352 512 0
916 0
380 0
874 0
932 861 0
98 0
596 0
870 0
495 0
890 0
972 0
818 0
402 435 0
120 0
946 0
476 620 0
869 0
258 781 0
792 0
395 814 0
69 0
673 435 0
431 0
259 0
342 0
161 0
225 533 0
579 0
410 0
96 622 0
106 0
161 294 0
412 0
89 0
356 0
612 484 0
368 178 0
526 0
111 0
670 0
249 0
754 0
622 0
401 319 0
376 273 0
907 0
252 0
578 463 0
470 0
600 798 0
136 859 0
294 0
71 0
264 444 0
87 0
900 525 0
547 0
205 645 0
868 0
479 0
761 0
227 406 0
413 390 0
347 115 0
294 0
495 0
20 852 0
945 0
994 0
525 0
320 645 0
549 0
533 0
707 0
280 306 0
158 0
136 0
267 0
618 334 0
897 415 0
434 0
900 0
857 703 0
279 0
902 0
948 0
255 0
139 124 0
612 0
888 0
659 0
308 0
726 727 0
616 820 0
552 0
602 0
238 0
339 0
585 901 0
796 7 0
210 0
680 863 0
245 0
647 0
193 646 0
442 845 0
307 862 0
659 0
400 0
171 164 0
66 0
425 0
194 511 0
972 333 0
434 0
158 0
245 495 0
75 0
886 0
249 0
205 0
29 0
170 859 0
320 0
213 0
877 0
687 0
433 949 0
749 0
441 0
161 618 0
206 0
665 586 0
862 0
945 267 0
911 0
800 0
28 0
905 980 0
408 0
887 0
35 0
8 287 0
209 539 0
400 449 0
200 359 0
311 0
98 0
193 399 0
968 0
783 0
332 0
618 0
911 0
233 381 0
537 0
957 0
326 742 0
636 0
360 0
32 0
311 0
599 0
116 0
154 0
947 279 0
110 479 0
330 0
158 0
906 310 0
849 365 0
711 0
218 980 0
114 0
185 0
387 0
249 0
324 77 0
662 303 0
241 0
504 389 0
987 500 0
148 0
260 780 0
366 0
494 0
263 0
206 0
312 10 0
144 0
45 0
41 0
634 21 0
978 0
93 0
348 0
769 655 0
613 0
117 0
84 222 0
961 0
186 0
469 0
157 0
798 0
563 0
316 269 0
860 0
842 639 0
326 0
214 167 0
53 0
324 0
593 773 0
716 0
579 0
639 399 0
440 691 0
394 0
605 0
824 285 0
114 0
902 0
733 302 0
271 0
368 0
562 0
626 804 0
676 342 0
338 0
700 846 0
784 381 0
734 0
276 317 0
6 0
93 0
215 0
253 0
802 531 0
370 0
813 0
756 0
422 0
327 0
723 0
163 510 0
80 0
6 0
908 894 0
685 0
218 930 0
283 527 0
621 0
152 0
137 67 0
683 471 0
67 772 0
451 0
361 0
176 0
627 0
376 0
616 489 0
600 125 0
380 0
140 0
157 0
884 0
486 111 0
186 987 0
320 0
808 0
722 0
972 0
492 0
408 0
801 0
639 0
257 759 0
593 0
243 252 0
907 0
96 916 0
615 39 0
537 0
718 0
924 844 0
360 308 0
153 0
787 0
571 478 0
202 622 0
91 0
865 714 0
251 244 0
357 0
719 0
119 0
310 454 0
652 0
310 0
300 0
84 0
945 0
642 0
788 0
849 0
595 0
155 0
614 0
328 0
279 0
137 0
475 0
949 0
569 0
273 0
298 0
229 0
306 0
124 445 0
180 709 0
993 277 0
367 0
133 0
92 0
10 645 0
767 0
285 783 0
824 215 0
107 0
680 938 0
586 596 0
491 0
868 0
144 453 0
548 829 0
228 0
148 749 0
946 0
260 0
235 0
850 0
393 801 0
445 0
981 0
737 0
409 0
596 214 0
323 0
525 446 0
174 0
187 0
789 231 0
489 0
365 0
439 0
797 0
577 0
148 0
804 190 0
477 0
345 0
391 0
303 0
110 0
746 0
956 503 0
832 0
380 0
722 0
487 0
377 0
634 0
77 895 0
783 0
649 0
139 0
401 0
209 148 0
214 0
321 0
433 398 0
18 0
835 700 0
942 0
745 477 0
352 514 0
235 615 0
390 767 0
43 0
224 0
721 0
250 519 0
355 614 0
986 0
556 0
306 341 0
644 0
768 0
82 907 0
610 893 0
664 0
562 0
503 0
694 0
476 349 0
552 643 0
873 979 0
858 0
499 0
305 57 0
132 854 0
554 175 0
511 0
794 815 0
688 486 0
65 0
624 0
331 0
859 0
814 103 0
793 205 0
345 234 0
428 0
357 647 0
908 276 0
256 0
590 703 0
389 0
658 966 0
702 0
585 0
249 0
970 0
207 0
328 0
844 126 0
541 0
215 0
584 439 0
94 0
53 0
609 0
241 0
981 646 0
783 0
994 364 0
802 0
80 873 0
182 0
194 0
910 0
711 0
281 165 0
128 0
983 0
760 0
328 698 0
890 715 0
261 0
829 0
562 487 0
993 0
482 574 0
49 0
560 0
817 0
14 0
947 0
626 287 0
785 0
635 494 0
424 0
444 0
297 0
383 0
514 412 0
443 0
284 0
639 0
401 645 0
229 0
289 0
394 220 0
919 0
650 0
348 0
231 0
194 820 0
320 14 0
591 0
97 605 0
998 0
863 0
579 0
115 0
3 0
328 568 0
269 0
470 0
75 0
998 0
921 0
484 591 0
878 0
219 0
425 802 0
394 357 0
517 0
890 0
145 83 0
51 643 0
920 0
196 0
477 0
857 939 0
678 0
770 0
351 375 0
772 0
154 0
25 779 0
96 319 0
423 0
633 0
849 252 0
193 630 0
127 0
144 0
800 674 0
539 0
665 133 0
884 0
642 890 0
242 0
670 0
186 0
156 548 0
217 7 0
809 155 0
346 227 0
831 0
297 0
404 0
896 0
232 20 0
409 874 0
396 0
322 549 0
396 0
368 119 0
362 0
679 0
444 158 0
67 0
148 0
692 830 0
361 747 0
479 0
543 0
902 0
917 0
966 0
293 0
483 124 0
563 0
844 0
648 0
956 0
102 0
440 993 0
112 0
228 0
924 0
391 0
416 0
13 0
409 0
229 0
604 967 0
90 0
463 0
37 0
682 167 0
148 0
129 670 0
769 0
34 0
239 0
584 0
88 0
893 0
980 958 0
654 23 0
194 0
425 0
666 0
187 0
851 0
163 509 0
2 0
880 121 0
600 621 0
907 0
888 803 0
976 0
330 614 0
695 0
627 316 0
616 0
419 0
911 0
246 0
522 0
918 302 0
280 499 0
154 0
434 0
521 0
713 562 0
233 0
29 0
527 0
202 0
821 0
676 0
670 767 0
964 0
527 0
110 0
545 0
286 0
460 0
442 0
611 0
647 0
46 0
695 0
34 0
233 0
404 0
935 0
800 460 0
38 0
673 0
111 0
639 0
306 0
519 0
79 0
670 0
841 566 0
887 0
828 0
466 0
713 0
90 860 0
849 0
342 0
700 404 0
473 0
253 0
717 0
968 0
984 395 0
445 0
400 468 0
553 746 0
107 581 0
589 0
959 0
835 444 0
610 0
394 0
920 0
693 471 0
133 0
557 0
186 0
977 0
370 446 0
930 446 0
113 294 0
223 0
740 0
320 0
547 699 0
653 0
504 0
199 0
279 0
301 0
62 0
240 0
852 270 0
937 746 0
130 0
854 0
631 0
731 0
205 0
766 0
359 719 0
201 0
645 0
158 0
71 0
676 0
202 594 0
889 0
30 0
729 0
497 679 0
102 0
912 691 0
854 0
886 0
665 932 0
344 0
485 0
217 0
711 0
275 0
236 0
687 0
513 0
211 0
856 362 0
56 0
233 0
619 0
992 0
618 479 0
849 0
937 0
450 0
330 0
912 0
920 164 0
774 0
499 0
537 74 0
259 0
865 0
432 739 0
973 0
824 0
756 829 0
511 0
718 0
386 0
291 0
595 0
28 222 0
237 0
940 0
75 0
338 0
136 922 0
680 543 0
303 0
960 0
863 0
785 14 0
171 0
227 916 0
637 373 0
373 0
577 0
841 530 0
639 0
209 397 0
431 0
704 0
626 516 0
889 0
737 750 0
310 0
579 651 0
419 0
656 0
981 0
876 927 0
852 982 0
427 0
234 726 0
673 0
653 0
644 0
1 921 0
505 823 0
864 504 0
531 589 0
327 0
530 0
176 775 0
893 534 0
991 0
966 0
901 582 0
801 20 0
501 0
466 0
456 8 0
347 819 0
232 0
155 452 0
721 0
884 0
733 502 0
296 0
229 0
144 0
835 0
576 0
346 0
282 0
894 0
259 0
211 0
591 0
286 0
57 686 0
667 0
24 620 0
212 0
905 503 0
460 0
482 172 0
186 0
947 0
390 0
241 0
89 415 0
941 0
794 951 0
153 487 0
404 0
216 0
612 0
285 629 0
687 0
783 0
83 0
354 0
361 602 0
97 0
531 45 0
213 0
816 334 0
650 197 0
647 0
216 173 0
568 0
517 0
55 0
964 471 0
153 0
491 0
564 0
323 0
536 682 0
145 0
451 0
685 742 0
741 0
160 665 0
279 0
549 0
362 338 0
681 250 0
449 635 0
412 860 0
662 0
401 27 0
937 0
526 0
82 0
342 0
632 0
639 0
579 0
61 302 0
999 0
514 350 0
947 0
627 253 0
321 558 0
530 0
221 0
169 0
321 665 0
324 0
668 14 0
853 831 0
257 0
282 0
699 61 0
444 0
626 983 0
202 358 0
328 0
292 0
196 7 0
854 0
843 723 0
341 0
652 639 0
528 0
794 0
818 0
624 0
250 0
586 742 0
814 0
324 0
260 0
855 0
10 0
774 0
613 0
942 0
340 0
811 0
196 0
338 0
27 740 0
397 0
28 0
843 0
265 204 0
585 729 0
746 0
621 71 0
40 0
951 0
74 0
982 0
395 0
774 0
816 28 0
328 0
676 0
627 0
212 487 0
978 0
667 0
469 0
708 0
666 0
122 554 0
970 0
25 0
395 636 0
778 0
778 43 0
283 95 0
428 0
808 0
561 0
19 0
677 0
106 0
971 0
684 0
870 0
970 0
686 655 0
517 582 0
472 943 0
109 231 0
178 0
331 0
877 0
883 0
855 0
603 0
386 806 0
128 598 0
565 0
827 0
612 0
883 861 0
528 521 0
100 0
94 0
968 142 0
192 485 0
476 0
940 0
3 0
204 37 0
127 0
250 0
236 0
253 0
145 414 0
635 0
850 0
441 0
482 0
140 0
54 0
448 397 0
754 543 0
654 0
918 0
941 0
202 38 0
329 324 0
254 0
525 0
630 0
681 439 0
180 0
126 0
748 381 0
96 603 0
20 0
79 0
407 0
460 0
570 0
71 0
437 0
392 0
948 471 0
860 70 0
870 0
345 913 0
889 878 0
779 0
953 0
148 0
171 79 0
389 0
541 0
916 0
752 0
333 0
676 0
338 0
954 0
50 0
154 0
527 175 0
616 0
468 62 0
55 0
308 0
882 0
772 0
108 892 0
778 508 0
560 0
109 0
326 0
19 0
113 0
296 981 0
170 0
168 0
938 0
299 0
133 0
158 0
955 0
36 0
539 637 0
339 0
344 991 0
145 0
416 0
579 271 0
465 852 0
134 0
598 0
68 790 0
458 53 0
40 0
771 155 0
980 0
172 180 0
393 0
574 319 0
587 0
104 375 0
214 0
639 0
281 372 0
279 0
777 239 0
74 468 0
486 0
67 0
170 0
733 0
859 0
353 0
57 0
206 0
475 0
115 0
669 0
169 551 0
984 81 0
411 582 0
459 572 0
883 406 0
800 0
682 110 0
535 0
963 0
341 0
592 660 0
431 0
617 0
235 0
675 892 0
823 0
479 0
568 906 0
554 694 0
52 0
93 0
194 0
644 0
836 0
583 0
723 414 0
382 0
206 0
778 461 0
715 0
563 0
561 0
379 0
891 0
448 462 0
495 0
728 0
402 0
280 0
782 0
762 229 0
143 0
571 84 0
5 0
337 0
848 938 0
704 0
557 534 0
582 0
424 0
495 0
633 0
508 0
485 0
111 0
587 0
323 0
474 999 0
281 570 0
516 0
974 0
827 0
564 0
651 0
445 165 0
218 0
685 0
284 541 0
670 0
41 0
38 431 0
529 0
618 0
448 561 0
65 199 0
336 597 0
682 214 0
285 0
79 0
810 0
210 0
631 0
117 0
299 0
75 0
436 0
723 0
826 0
772 0
676 0
145 0
427 469 0
969 0
101 182 0
972 791 0
557 0
859 0
399 615 0
21 111 0
974 542 0
649 0
28 0
464 775 0
786 0
134 0
13 0
360 476 0
23 0
541 638 0
735 0
958 0
946 0
200 0
200 0
393 730 0
978 715 0
995 0
105 0
98 0
857 0
626 203 0
320 0
852 0
483 0
456 0
164 510 0
53 0
654 0
958 902 0
537 0
126 0
628 0
784 255 0
690 0
638 0
813 0
458 410 0
840 910 0
443 487 0
682 0
587 0
482 0
743 0
179 77 0
926 0
740 0
204 463 0
712 901 0
513 786 0
583 0
155 0
8 341 0
873 0
946 0
691 0
158 0
752 0
255 0
686 0
379 222 0
769 693 0
794 0
556 0
860 308 0
266 0
348 0
533 0
583 0
916 702 0
878 0
51 845 0
126 0
18 644 0
736 0
853 0
403 0
393 0
345 0
541 0
579 0
307 0
732 0
929 267 0
729 0
988 205 0
544 0
1000 205 0
642 0
345 686 0
223 0
920 0
361 0
53 0
698 467 0
998 0
107 805 0
128 231 0
209 0
629 0
671 0
927 0
776 59 0
4 0
665 0
276 293 0
904 548 0
524 861 0
868 0
128 0
939 0
66 0
123 757 0
957 0
252 0
654 0
608 942 0
636 0
67 446 0
613 0
371 0
75 581 0
733 0
972 0
594 724 0
69 982 0
237 0
438 0
312 273 0
936 413 0
403 854 0
193 0
276 0
517 0
15 0
753 566 0
281 0
157 0
88 0
451 0
394 0
786 0
939 0
594 79 0
721 900 0
123 454 0
432 914 0
561 0
680 926 0
106 556 0
822 0
640 0
809 0
921 0
499 0
160 0
946 419 0
84 0
516 0
22 0
43 524 0
921 0
465 0
400 614 0
565 0
630 695 0
683 631 0
42 575 0
256 288 0
498 395 0
805 0
930 0
434 0
988 0
986 444 0
174 0
720 135 0
650 0
689 634 0
554 0
371 0
425 775 0
884 0
794 159 0
112 0
995 0
76 0
768 122 0
975 0
180 0
472 0
124 0
646 799 0
715 0
905 83 0
683 0
668 0
743 0
502 0
111 0
298 310 0
72 0
981 0
832 0
209 0
824 0
957 0
416 745 0
215 0
119 0
737 245 0
361 0
191 0
482 0
600 756 0
789 14 0
840 97 0
105 0
150 0
619 0
416 464 0
609 701 0
193 0
320 0
509 0
738 333 0
418 0
186 755 0
608 0
752 754 0
359 0
860 573 0
871 0
255 0
810 0
630 0
895 0
55 0
137 0
89 0
444 0
387 0
395 0
603 0
217 0
605 0
862 0
324 0
265 199 0
258 215 0
135 0
25 0
487 0
669 991 0
729 0
298 0
276 0
24 0
257 0
450 319 0
449 995 0
784 0
226 0
963 270 0
265 0
115 0
642 0
625 933 0
862 919 0
973 0
842 494 0
805 957 0
200 611 0
135 0
981 0
339 644 0
873 452 0
34 0
653 7 0
936 961 0
396 0
540 0
323 0
353 0
111 0
372 511 0
656 0
980 973 0
184 0
292 0
617 20 0
166 0
792 209 0
373 0
898 0
912 453 0
58 258 0
760 0
285 511 0
910 783 0
827 0
109 0
294 0
606 863 0
722 0
773 0
578 108 0
947 452 0
959 0
277 0
685 0
515 380 0
162 0
81 0
423 0
857 0
515 0
176 382 0
611 0
750 0
502 0
603 231 0
842 0
208 0
620 277 0
626 85 0
25 0
601 834 0
88 117 0
796 934 0
776 110 0
227 884 0
167 0
440 0
874 0
783 0
941 0
495 0
310 0
812 0
972 750 0
811 0
549 0
408 0
963 0
657 890 0
812 431 0
849 555 0
510 0
225 0
49 637 0
696 0
736 688 0
338 0
615 0
906 399 0
548 87 0
924 0
337 316 0
15 0
248 0
267 253 0
986 0
497 0
242 0
945 0
575 0
602 0
797 0
144 316 0
268 0
140 0
595 907 0
343 0
986 0
318 0
883 0
179 30 0
181 878 0
478 623 0
33 0
129 818 0
96 831 0
685 0
938 0
776 0
406 0
806 0
385 0
620 508 0
868 0
6 0
296 0
954 0
435 0
423 0
934 0
632 63 0
290 836 0
592 0
198 0
762 0
112 35 0
735 0
759 0
262 0
962 238 0
706 0
141 838 0
68 0
664 0
834 932 0
628 0
560 0
788 228 0
162 0
140 0
122 0
554 0
473 0
451 0
713 70 0
867 0
224 0
8 198 0
346 0
976 222 0
154 0
733 0
516 0
376 851 0
128 783 0
675 0
844 0
178 0
187 0
626 0
816 0
782 0
947 0
300 0
613 0
709 0
776 338 0
705 0
867 0
481 686 0
346 835 0
358 0
426 452 0
61 470 0
228 236 0
970 84 0
157 934 0
35 795 0
534 0
173 0
864 938 0
902 0
123 558 0
595 0
416 0
250 0
539 0
392 0
273 441 0
408 0
359 0
95 0
660 0
616 0
300 0
326 0
667 0
574 0
257 74 0
646 702 0
206 0
528 0
201 903 0
810 0
70 0
739 894 0
762 0
478 823 0
994 0
495 0
257 0
926 198 0
702 0
464 932 0
640 0
653 0
382 0
832 0
264 678 0
949 0
808 0
439 0
771 0
947 147 0
643 0
189 0
960 0
467 0
437 0
291 0
318 0
821 0
475 0
264 0
473 0
605 439 0
459 838 0
985 885 0
26 124 0
93 0
912 0
893 0
216 659 0
565 974 0
889 709 0
928 0
24 0
150 0
944 646 0
891 0
374 0
513 0
762 782 0
102 0
884 0
564 0
839 0
603 908 0
88 695 0
298 109 0
623 0
488 0
524 415 0
681 859 0
605 0
903 0
185 377 0
435 0
324 149 0
646 0
730 0
566 0
91 0
359 0
775 0
111 0
150 0
986 0
7 0
259 0
595 0
640 890 0
655 0
258 213 0
473 0
728 715 0
2 0
296 665 0
2 0
173 695 0
641 59 0
904 951 0
700 198 0
465 0
128 53 0
510 0
427 0
799 0
306 0
488 576 0
875 549 0
325 463 0
308 0
97 0
294 0
267 438 0
681 627 0
134 814 0
377 0
88 0
539 103 0
704 0
649 0
221 0
522 0
434 388 0
107 0
983 0
212 0
342 0
774 0
722 141 0
375 0
736 77 0
835 455 0
685 0
851 0
680 661 0
484 309 0
586 35 0
32 866 0
21 0
251 0
115 167 0
540 0
312 499 0
346 0
574 439 0
472 0
58 0
111 0
716 391 0
26 0
937 165 0
437 0
993 0
379 0
995 0
682 0
761 0
966 239 0
971 0
263 0
533 0
154 621 0
82 0
381 0
94 0
613 0
192 826 0
382 222 0
442 0
685 0
812 287 0
80 493 0
482 0
397 743 0
136 569 0
703 0
346 0
864 0
710 0
184 315 0
507 54 0
946 988 0
792 0
338 69 0
59 0
358 815 0
552 893 0
848 0
632 0
376 23 0
642 0
170 570 0
279 0
520 0
972 0
537 0
779 756 0
293 0
243 0
420 0
375 0
929 0
224 70 0
224 0
703 0
412 0
281 340 0
352 529 0
657 551 0
294 0
59 294 0
419 902 0
655 0
349 0
869 0
394 0
257 231 0
95 0
377 7 0
313 83 0
628 0
210 0
838 0
496 46 0
223 0
923 0
544 0
15 0
379 13 0
788 0
281 0
248 0
208 0
690 0
609 58 0
404 0
744 0
572 0
74 245 0
425 0
699 0
118 0
208 549 0
233 876 0
571 0
744 0
896 0
364 0
471 0
309 0
773 0
915 317 0
512 158 0
366 0
335 0
789 0
949 727 0
413 0
416 0
133 0
137 710 0
665 923 0
932 0
485 0
188 0
137 863 0
194 679 0
526 0
497 228 0
408 627 0
123 0
683 0
350 0
456 0
814 0
805 0
973 0
113 0
842 0
473 292 0
745 0
377 0
514 0
134 0
971 0
923 0
34 0
897 0
594 675 0
917 983 0
880 0
554 0
189 278 0
273 0
971 821 0
452 775 0
705 0
30 0
135 0
759 0
124 0
275 151 0
749 0
334 0
968 417 0
602 287 0
321 0
883 295 0
738 0
523 115 0
201 539 0
558 0
335 0
558 502 0
162 349 0
914 0
574 0
665 0
686 0
473 122 0
748 805 0
701 127 0
26 0
717 0
700 447 0
994 867 0
220 0
305 0
545 0
345 327 0
129 0
129 974 0
792 0
391 0
687 0
882 379 0
991 0
583 0
462 479 0
422 0
358 0
977 0
144 0
526 0
718 831 0
825 0
158 0
570 0
919 191 0
310 0
458 0
807 0
978 477 0
955 0
777 0
477 0
852 0
859 0
319 0
219 0
78 0
699 0
887 543 0
775 0
58 0
772 0
988 0
344 526 0
429 0
520 850 0
542 0
177 0
949 0
694 0
138 382 0
625 0
509 0
929 0
720 0
261 0
143 0
728 521 0
461 0
250 0
927 0
875 0
200 941 0
425 441 0
146 269 0
181 0
459 0
448 261 0
367 0
355 767 0
249 783 0
265 718 0
348 7 0
986 914 0
426 0
681 0
471 0
238 511 0
712 961 0
409 0
887 0
453 357 0
274 0
939 0
276 39 0
734 0
766 0
828 0
147 0
739 436 0
171 765 0
962 0
556 526 0
998 0
281 0
899 0
885 0
854 39 0
58 0
785 0
976 0
897 711 0
721 0
876 0
256 0
417 0
150 0
196 0
207 0
280 0
705 0
640 0
567 0
140 62 0
806 0
987 0
832 0
255 0
703 919 0
555 0
501 0
802 0
946 0
948 0
154 68 0
971 0
837 0
112 0
668 0
666 0
707 0
834 266 0
12 0
316 0
322 0
324 852 0
270 0
116 0
344 0
385 0
488 431 0
354 0
467 773 0
884 0
977 0
337 314 0
598 0
727 0
853 0
466 0
928 0
379 0
576 0
828 0
892 173 0
191 0
61 0
384 0
554 0
188 957 0
603 163 0
581 0
33 930 0
245 0
664 695 0
746 0
561 0
831 0
928 0
251 365 0
610 158 0
265 428 0
673 255 0
833 0
211 0
545 0
35 423 0
662 0
10 420 0
141 0
137 0
344 0
675 0
697 0
203 332 0
152 941 0
862 190 0
112 0
493 0
533 0
829 927 0
940 0
920 226 0
523 607 0
241 439 0
158 0
532 0
746 0
843 0
355 95 0
841 62 0
466 445 0
213 0
25 499 0
480 0
661 0
193 0
201 0
499 700 0
698 0
976 463 0
434 26 0
991 0
983 0
272 0
557 0
498 0
926 0
404 871 0
301 0
627 526 0
840 539 0
384 0
174 919 0
299 0
18 580 0
216 0
48 0
592 0
774 0
350 0
68 0
415 0
612 134 0
646 0
576 381 0
144 0
228 877 0
845 0
745 743 0
647 0
608 52 0
408 0
468 0
826 0
347 715 0
685 0
181 478 0
378 0
121 5 0
889 149 0
581 0
964 0
945 0
34 980 0
185 0
436 0
652 526 0
604 0
45 782 0
597 0
453 782 0
670 0
144 74 0
144 0
781 0
62 0
894 47 0
482 0
128 639 0
608 0
862 0
505 0
569 654 0
801 626 0
814 0
878 798 0
202 515 0
224 0
650 0
272 781 0
489 0
141 686 0
876 0
610 0
51 0
881 0
792 0
419 623 0
417 269 0
166 310 0
46 0
494 0
896 0
987 0
263 0
894 0
829 0
462 0
677 0
458 91 0
206 599 0
895 0
961 653 0
864 423 0
700 0
329 0
385 0
461 847 0
384 670 0
146 0
329 0
107 751 0
130 732 0
662 0
419 0
27 0
273 0
632 0
976 122 0
9 0
566 0
979 63 0
168 327 0
74 220 0
898 546 0
151 559 0
676 0
418 0
639 0
39 0
852 573 0
401 0
886 0
609 299 0
264 0
351 0
190 0
188 0
838 0
598 0
470 0
4 0
176 0
784 0
845 494 0
649 0
939 0
386 331 0
997 0
872 0
35 339 0
948 0
674 237 0
237 0
637 0
258 0
690 316 0
49 0
721 134 0
999 0
267 0
888 0
579 0
757 6 0
648 0
689 460 0
331 0
755 301 0
267 53 0
927 0
177 0
704 0
430 0
438 0
432 326 0
859 0
892 0
487 0
724 429 0
566 0
236 45 0
896 378 0
328 0
830 0
149 0
610 0
306 70 0
197 0
331 0
273 129 0
715 0
93 0
681 0
246 0
931 0
912 0
953 0
529 59 0
574 0
194 283 0
765 0
829 0
88 705 0
795 0
856 0
105 0
643 0
970 514 0
776 357 0
147 0
434 0
974 0
961 0
457 0
196 749 0
835 0
786 604 0
464 842 0
968 0
391 0
928 0
556 999 0
301 0
367 0
132 0
967 0
770 516 0
456 0
688 0
373 926 0
649 917 0
643 0
403 164 0
334 0
286 0
648 573 0
371 0
388 0
47 0
289 142 0
172 278 0
390 0
301 0
609 0
860 0
124 0
173 0
833 229 0
856 438 0
342 0
548 0
183 0
622 0
813 0
132 0
916 0
900 0
436 975 0
816 0
457 0
217 0
660 0
553 0
19 0
378 135 0
273 509 0
70 839 0
638 743 0
736 0
143 0
958 0
487 0
112 0
149 230 0
130 853 0
709 0
997 0
724 198 0
689 570 0
241 0
980 0
886 0
92 478 0
757 0
779 205 0
321 0
9 0
189 0
628 735 0
135 0
560 297 0
419 0
109 0
528 404 0
592 538 0
853 0
563 175 0
330 0
472 0
508 0
155 0
554 0
867 156 0
747 0
33 0
532 590 0
390 919 0
96 0
462 0
821 0
519 79 0
494 951 0
833 0
755 229 0
862 0
124 0
102 0
163 236 0
712 546 0
653 0
97 564 0
461 0
249 27 0
309 759 0
608 0
998 0
680 0
658 844 0
229 0
71 0
818 642 0
189 55 0
340 0
760 0
457 763 0
916 990 0
845 0
989 0
819 0
411 188 0
726 0
317 0
926 14 0
811 0
691 399 0
362 0
75 0
984 0
503 0
561 0
681 0
950 0
620 0
586 923 0
952 0
384 811 0
149 0
922 347 0
192 933 0
252 0
216 990 0
634 0
171 0
612 0
55 0
612 366 0
104 0
871 0
547 0
605 0
695 0
514 925 0
755 180 0
873 974 0
167 0
379 405 0
164 580 0
81 0
816 391 0
143 0
509 0
944 0
485 0
896 0
981 0
753 326 0
157 0
849 154 0
203 783 0
218 757 0
694 0
65 0
968 0
464 0
839 0
828 0
398 0
732 980 0
823 0
338 0
656 556 0
13 0
799 0
283 0
106 0
843 212 0
348 175 0
975 0
361 20 0
782 0
879 0
812 0
880 149 0
259 0
551 399 0
165 0
10 727 0
752 0
971 0
396 0
394 4 0
578 0
154 0
79 0
313 0
10 0
134 0
3 0
663 183 0
757 0
283 0
757 326 0
940 0
58 0
945 799 0
960 563 0
777 0
960 840 0
378 804 0
566 0
374 0
404 0
450 0
464 0
436 0
664 754 0
97 0
570 0
550 0
344 51 0
451 228 0
602 828 0
694 0
449 290 0
317 0
730 0
618 762 0
861 0
593 0
350 0
78 0
134 0
5 0
698 131 0
995 0
952 0
417 0
996 327 0
232 72 0
437 0
901 0
722 839 0
469 0
204 215 0
217 0
480 40 0
168 942 0
101 0
217 941 0
64 251 0
957 0
219 0
732 0
354 0
225 334 0
226 0
50 475 0
156 614 0
793 762 0
856 54 0
426 0
570 810 0
649 0
304 0
500 0
101 0
783 0
255 0
65 0
20 0
713 419 0
903 0
829 445 0
685 727 0
107 0
706 726 0
157 918 0
518 0
977 0
343 0
460 0
189 0
51 0
922 0
758 0
861 0
335 0
650 0
130 0
303 423 0
642 0
816 0
554 0
506 3 0
771 916 0
117 0
642 0
296 0
260 701 0
309 0
896 5 0
192 0
599 0
640 0
327 0
780 0
903 0
354 22 0
335 0
669 0
276 0
468 885 0
312 157 0
194 0
380 0
588 166 0
773 0
830 0
61 0
380 0
695 0
11 0
387 0
216 0
640 953 0
958 0
586 0
212 0
589 0
369 0
331 907 0
554 0
92 0
970 0
592 230 0
331 147 0
855 0
92 615 0
604 0
488 0
849 0
716 0
2 0
154 36 0
295 0
521 261 0
547 0
129 0
693 0
836 0
45 0
421 0
100 0
763 0
269 959 0
708 0
569 0
169 697 0
8 999 0
468 0
111 0
744 0
74 0
889 651 0
820 0
882 0
770 0
841 826 0
537 0
635 0
283 0
388 0
331 0
983 0
373 0
813 0
493 998 0
777 0
289 0
412 0
612 0
723 0
574 0
169 0
847 0
106 0
580 247 0
803 0
38 0
284 749 0
537 660 0
744 529 0
127 0
126 0
397 0
257 0
131 0
602 0
232 95 0
401 0
72 0
16 631 0
290 0
529 63 0
95 0
734 0
76 614 0
345 685 0
49 172 0
453 0
257 0
213 981 0
876 0
613 0
562 405 0
337 0
914 0
315 0
689 565 0
800 142 0
317 174 0
65 0
793 0
732 0
17 0
171 0
593 0
897 102 0
688 793 0
319 0
24 0
628 0
530 810 0
899 413 0
129 0
208 0
33 0
880 318 0
837 607 0
482 590 0
471 0
738 0
447 0
572 806 0
23 0
173 574 0
853 381 0
239 0
423 0
72 153 0
962 0
688 603 0
456 0
725 0
952 579 0
121 22 0
259 0
226 0
876 988 0
984 387 0
322 269 0
664 77 0
20 0
930 60 0
211 0
448 0
429 0
382 0
3 271 0
453 0
849 526 0
195 0
83 0
376 0
773 0
48 614 0
215 0
197 0
787 0
296 0
145 27 0
168 79 0
537 0
618 0
825 0
54 0
610 0
544 71 0
592 0
616 62 0
173 0
337 435 0
164 0
969 0
202 275 0
113 0
232 0
889 0
857 451 0
281 374 0
378 0
346 77 0
877 0
478 0
699 893 0
457 0
525 0
873 0
934 911 0
468 813 0
970 0
353 0
308 998 0
550 0
330 0
635 0
764 0
693 663 0
889 156 0
392 707 0
865 610 0
819 0
387 238 0
688 0
72 0
956 0
558 0
679 0
848 394 0
166 0
313 0
509 0
335 0
440 0
779 0
240 207 0
840 711 0
278 39 0
135 0
28 0
6 0
785 700 0
956 797 0
957 0
768 0
565 911 0
973 0
324 0
216 0
522 546 0
172 0
836 0
50 972 0
234 0
861 854 0
217 609 0
142 0
42 0
694 575 0
433 898 0
362 0
104 475 0
814 0
130 0
117 0
497 0
97 0
472 388 0
668 694 0
209 0
375 0
684 774 0
525 0
623 551 0
642 164 0
704 0
312 842 0
979 0
506 0
264 485 0
223 0
425 903 0
617 0
40 728 0
9 615 0
3 582 0
857 550 0
11 0
926 47 0
737 975 0
613 0
691 117 0
608 59 0
392 0
321 0
249 0
702 0
338 291 0
414 0
8 0
983 0
723 900 0
176 915 0
436 588 0
339 262 0
946 0
388 0
64 229 0
888 847 0
536 217 0
837 0
56 535 0
718 0
265 819 0
33 0
884 38 0
609 0
488 0
171 0
761 631 0
708 246 0
853 0
621 934 0
33 0
310 871 0
587 0
51 939 0
63 0
396 743 0
215 0
923 422 0
475 0
392 0
926 0
897 0
552 709 0
571 0
86 0
590 0
90 0
851 508 0
205 0
265 0
953 0
916 0
891 0
265 0
565 0
44 0
922 0
57 0
31 0
261 0
531 380 0
472 0
766 0
298 779 0
906 836 0
941 0
732 0
704 0
30 0
498 0
86 0
649 879 0
76 903 0
208 0
935 0
690 260 0
467 915 0
883 395 0
32 353 0
674 0
827 0
736 0
753 0
412 0
422 63 0
318 0
347 423 0
818 511 0
238 0
369 890 0
592 934 0
401 0
342 0
751 0
152 644 0
746 0
756 0
662 0
876 837 0
956 965 0
261 0
994 0
85 0
282 886 0
290 0
946 0
785 109 0
349 0
453 0
779 319 0
228 326 0
441 538 0
995 0
956 812 0
588 0
499 0
576 0
696 758 0
713 270 0
640 649 0
209 0
993 540 0
483 0
488 64 0
926 0
527 0
38 0
261 0
985 765 0
296 0
885 0
937 122 0
726 0
248 921 0
89 0
295 0
337 0
29 0
786 980 0
104 0
523 0
841 491 0
928 0
620 92 0
373 0
250 0
34 686 0
465 501 0
243 0
158 807 0
713 0
410 0
276 0
429 0
114 567 0
611 0
457 0
669 0
236 0
775 0
864 700 0
770 0
658 0
388 0
914 939 0
876 0
74 0
253 0
121 0
522 150 0
808 0
79 0
181 0
782 0
744 0
988 213 0
410 126 0
317 0
879 0
58 395 0
913 0
534 607 0
797 0
43 0
860 0
354 0
728 0
903 0
223 0
318 358 0
987 0
47 0
73 92 0
451 0
33 421 0
179 0
660 159 0
177 940 0
585 501 0
108 204 0
890 675 0
525 0
424 0
376 71 0
464 0
20 0
124 0
788 0
451 0
519 0
858 0
145 85 0
307 723 0
475 899 0
425 0
643 0
322 799 0
110 0
119 0
696 749 0
993 0
106 973 0
233 994 0
175 0
863 0
449 117 0
418 999 0
966 0
905 0
931 0
282 711 0
722 0
564 0
433 0
592 737 0
768 366 0
276 0
843 845 0
949 0
465 157 0
49 0
217 0
744 0
182 110 0
467 0
727 0
288 0
697 0
215 0
791 0
949 0
211 0
960 0
954 0
786 0
975 0
180 0
609 802 0
769 92 0
327 0
105 0
64 0
605 0
683 310 0
114 0
419 0
596 0
958 0
166 0
381 215 0
968 335 0
85 0
944 482 0
130 0
776 0
817 0
694 383 0
879 0
836 670 0
202 884 0
163 0
795 0
857 637 0
838 0
128 0
492 0
222 0
248 519 0
37 0
753 0
49 0
543 0
728 830 0
770 0
600 0
186 132 0
271 831 0
533 0
686 0
564 0
18 0
891 0
116 943 0
572 0
173 0
797 0
58 0
443 399 0
592 0
376 0
392 10 0
409 0
265 0
94 0
755 486 0
675 0
19 0
625 223 0
397 0
242 765 0
481 0
666 885 0
375 71 0
39 0
771 0
515 455 0
57 29 0
705 951 0
958 0
747 0
182 0
372 669 0
979 0
353 925 0
979 0
800 0
956 0
130 0
20 813 0
55 0
603 0
855 0
19 318 0
449 0
301 0
871 0
611 0
972 0
8 651 0
808 0
446 807 0
833 637 0
416 0
756 0
660 0
516 0
716 0
385 0
589 0
112 0
756 0
855 0
28 0
605 0
387 261 0
338 0
967 0
303 0
292 0
481 0
476 0
568 128 0
522 0
378 0
499 0
636 0
233 0
244 0
204 0
721 0
666 0
967 0
770 0
418 0
447 0
360 0
843 0
610 661 0
99 411 0
121 355 0
568 284 0
308 357 0
236 0
139 0
558 0
168 0
803 590 0
627 0
880 598 0
13 0
178 262 0
57 122 0
707 0
788 0
996 0
505 0
330 0
73 0
264 0
820 0
312 0
33 0
345 0
11 0
768 0
258 206 0
283 446 0
881 876 0
1000 0
742 535 0
265 0
233 542 0
467 0
449 508 0
123 0
799 0
816 619 0
373 0
835 581 0
919 0
30 0
331 0
583 0
550 0
429 0
62 0
897 28 0
662 0
45 0
740 0
359 959 0
116 14 0
196 0
899 852 0
440 0
408 0
232 0
219 0
416 140 0
189 0
733 0
297 0
994 0
830 0
728 230 0
24 905 0
246 0
868 341 0
500 0
169 0
784 0
992 266 0
102 0
312 0
658 0
258 0
915 182 0
783 0
963 501 0
234 0
54 518 0
580 0
405 0
698 563 0
600 511 0
256 0
706 684 0
785 910 0
243 621 0
192 0
908 0
1000 0
915 0
145 0
781 711 0
635 510 0
130 0
55 0
988 327 0
321 23 0
172 543 0
787 0
167 0
148 823 0
664 0
709 0
304 0
736 994 0
962 0
501 0
912 481 0
680 305 0
185 0
47 0
773 0
598 191 0
570 0
761 847 0
765 526 0
294 0
154 0
299 0
918 0
655 0
429 0
471 79 0
577 0
621 0
208 135 0
243 0
845 741 0
480 469 0
89 77 0
250 0
359 0
669 0
118 0
315 0
712 479 0
585 0
272 0
127 0
632 926 0
377 0
320 726 0
259 355 0
100 964 0
80 612 0
519 0
974 0
951 0
621 542 0
799 0
65 386 0
288 521 0
264 0
823 311 0
616 715 0
174 0
249 741 0
922 0
630 0
402 0
196 0
592 618 0
64 0
433 0
419 0
763 0
314 0
563 0
801 0
625 933 0
618 0
923 0
733 0
422 0
441 0
621 191 0
320 956 0
600 0
158 0
156 0
525 246 0
751 0
241 0
431 0
429 0
352 292 0
130 0
229 0
497 0
628 0
2 0
284 0
384 524 0
997 0
630 0
412 630 0
288 615 0
935 0
993 558 0
347 0
898 620 0
484 0
320 981 0
904 852 0
711 0
916 0
160 765 0
607 0
920 0
787 0
869 703 0
290 0
711 0
508 772 0
947 0
607 0
48 415 0
403 0
277 0
159 487 0
48 0
325 0
519 0
308 69 0
224 0
689 37 0
906 0
345 809 0
873 0
725 245 0
511 0
498 0
139 604 0
385 0
570 180 0
446 0
617 0
681 0
436 0
336 0
946 0
434 0
937 885 0
800 824 0
604 0
646 55 0
916 373 0
297 0
569 394 0
741 430 0
629 838 0
468 614 0
234 0
74 0
151 0
99 0
136 48 0
946 0
781 0
522 246 0
433 894 0
694 0
526 0
387 631 0
393 455 0
273 674 0
442 0
834 0
762 386 0
600 0
926 0
233 0
433 0
310 0
204 0
682 135 0
765 0
130 0
372 837 0
314 0
315 0
219 0
260 0
763 0
123 247 0
718 0
608 199 0
439 0
21 0
88 631 0
650 0
804 0
205 0
385 348 0
915 710 0
290 0
972 0
50 483 0
353 222 0
987 0
255 0
41 0
832 717 0
103 0
267 659 0
994 79 0
438 0
999 0
66 143 0
78 0
544 745 0
50 654 0
642 306 0
428 0
528 19 0
761 236 0
625 0
18 380 0
366 0
466 245 0
634 668 0
406 0
573 0
127 0
212 0
770 971 0
644 111 0
316 0
274 0
8 66 0
236 0
792 928 0
867 0
139 260 0
279 0
317 287 0
304 0
553 0
816 702 0
324 0
25 805 0
198 0
176 378 0
14 0
794 94 0
650 0
708 0
408 0
518 0
299 0
273 0
108 0
292 0
816 351 0
356 892 0
27 493 0
166 0
503 0
412 0
333 223 0
238 975 0
830 0
526 575 0
656 0
364 412 0
409 0
298 0
392 0
374 0
922 0
425 743 0
758 759 0
776 0
479 0
741 0
258 525 0
244 0
162 116 0
64 655 0
633 77 0
492 0
975 0
881 555 0
890 0
84 0
350 0
329 662 0
405 0
594 0
122 0
59 805 0
492 0
922 174 0
434 764 0
739 215 0
614 0
462 0
942 0
42 0
120 0
68 0
19 0
931 0
728 369 0
67 0
746 0
651 0
237 606 0
561 383 0
207 0
364 0
945 0
553 0
104 0
682 0
942 0
873 802 0
817 0
616 0
575 0
612 0
696 0
951 0
202 0
854 0
710 478 0
763 871 0
624 883 0
895 0
830 0
769 522 0
51 0
170 567 0
39 0
487 0
37 742 0
276 0
889 0
752 629 0
640 727 0
275 404 0
75 0
854 0
892 838 0
652 0
912 0
291 0
704 676 0
458 0
622 0
709 0
335 0
316 0
762 0
376 0
631 0
69 0
514 0
430 503 0
800 649 0
442 0
754 0
504 0
28 0
216 656 0
560 0
960 0
745 837 0
411 0
880 0
784 143 0
979 276 0
818 0
236 0
381 0
321 907 0
536 0
208 845 0
985 0
923 0
453 0
663 0
364 0
712 0
67 0
274 834 0
768 781 0
268 0
749 0
393 0
517 0
281 391 0
500 0
425 539 0
29 279 0
312 122 0
19 0
204 0
42 0
952 283 0
982 0
362 0
906 0
218 187 0
947 588 0
292 0
224 168 0
920 0
917 0
285 0
826 0
569 0
226 0
642 0
322 0
38 0
928 0
76 0
634 0
47 0
672 0
170 0
559 0
876 44 0
372 582 0
865 0
199 0
48 108 0
194 955 0
225 0
839 0
256 0
93 0
590 0
601 0
953 0
922 0
205 0
349 0
619 0
40 0
734 0
216 0
924 0
568 0
33 0
896 57 0
475 0
439 0
560 39 0
597 0
245 0
510 0
782 0
394 0
828 695 0
951 0
57 0
619 878 0
882 883 0
297 175 0
434 0
530 0
240 0
604 271 0
769 0
344 861 0
395 868 0
752 190 0
401 0
303 0
708 405 0
294 0
618 0
819 0
637 702 0
553 455 0
679 0
694 0
703 0
872 669 0
899 951 0
916 918 0
327 0
401 826 0
958 0
347 0
776 675 0
634 343 0
220 901 0
99 0
68 0
148 0
938 55 0
606 0
432 668 0
988 0
298 0
969 742 0
658 627 0
856 0
874 0
551 175 0
18 0
618 0
394 0
72 742 0
561 763 0
542 0
299 387 0
691 0
595 157 0
49 879 0
940 798 0
829 0
224 479 0
953 989 0
323 659 0
510 0
524 437 0
906 404 0
524 0
817 0
809 835 0
826 93 0
338 867 0
642 0
996 62 0
696 322 0
571 0
837 0
841 61 0
648 0
711 0
874 0
413 0
72 272 0
288 848 0
836 0
505 671 0
182 0
215 0
244 0
1 0
440 518 0
956 0
138 0
34 0
974 0
141 0
829 0
180 0
10 0
226 0
673 0
674 0
248 420 0
941 951 0
577 678 0
886 0
89 974 0
454 0
225 9 0
422 0
765 0
744 365 0
201 21 0
116 0
375 0
789 0
701 0
714 331 0
202 882 0
10 0
164 0
185 862 0
675 197 0
974 0
82 0
129 0
636 0
968 711 0
720 18 0
226 0
774 0
512 441 0
17 0
104 0
874 0
456 0
307 557 0
342 0
132 0
465 550 0
448 0
939 0
225 0
635 214 0
205 615 0
873 0
288 0
17 0
625 0
943 0
178 0
962 613 0
918 0
315 0
360 0
938 916 0
205 0
386 420 0
180 727 0
394 941 0
957 0
930 0
598 0
613 0
376 244 0
501 0
5 462 0
459 0
100 0
22 687 0
970 0
630 391 0
261 0
991 0
422 0
993 0
479 0
143 0
842 0
110 199 0
309 0
588 0
182 0
640 0
954 955 0
938 826 0
135 0
465 0
661 734 0
189 0
667 653 0
332 798 0
951 0
378 668 0
28 0
967 0
837 0
593 0
478 0
900 0
595 997 0
265 235 0
593 214 0
348 15 0
977 92 0
649 0
149 0
124 0
792 848 0
621 0
67 812 0
43 14 0
647 0
618 0
283 0
992 0
597 95 0
805 0
926 0
471 0
162 246 0
6 0
872 0
220 0
656 875 0
898 100 0
735 0
96 916 0
947 0
655 0
367 0
796 0
229 941 0
650 69 0
968 0
11 924 0
781 551 0
248 0
279 0
810 411 0
579 0
661 0
8 0
427 0
232 0
553 679 0
662 0
620 0
314 0
225 0
756 285 0
998 0
520 0
512 0
334 0
92 718 0
468 0
320 955 0
95 0
168 460 0
313 0
816 270 0
85 0
705 801 0
896 529 0
1 386 0
594 878 0
149 0
43 837 0
972 0
462 223 0
569 927 0
995 0
156 15 0
103 0
290 0
800 0
546 0
860 0
916 0
483 0
500 0
146 0
98 834 0
447 983 0
101 0
9 0
749 510 0
478 0
987 79 0
612 0
190 0
506 0
277 0
879 0
926 0
521 477 0
850 0
689 0
697 607 0
845 174 0
545 265 0
20 0
907 139 0
597 901 0
387 0
41 314 0
224 66 0
991 0
924 0
79 0
446 0
680 0
314 0
922 0
515 0
374 0
66 0
955 0
632 0
970 0
696 924 0
246 911 0
401 901 0
622 0
509 0
199 0
96 0
456 7 0
645 0
275 0
161 0
770 510 0
825 0
51 0
908 444 0
361 390 0
640 258 0
334 0
449 655 0
773 0
728 0
609 0
341 0
115 0
977 0
618 703 0
684 0
425 0
801 994 0
973 0
867 0
99 0
348 0
754 559 0
545 0
186 0
348 0
253 0
419 31 0
328 222 0
785 0
792 0
829 110 0
613 0
182 0
225 0
972 0
606 0
133 214 0
570 357 0
881 659 0
179 0
327 0
288 0
429 447 0
742 0
347 0
118 0
186 0
842 0
465 0
324 0
896 0
508 710 0
520 68 0
933 0
763 0
195 124 0
644 0
634 350 0
700 71 0
202 0
848 0
417 365 0
202 228 0
551 0
472 0
498 0
810 0
863 0
709 431 0
8 786 0
150 0
593 0
84 0
813 110 0
211 0
951 0
772 0
752 0
352 0
25 0
598 919 0
776 0
883 507 0
184 861 0
407 0
980 0
927 0
5 0
33 212 0
226 506 0
458 0
212 0
833 571 0
633 463 0
86 0
9 923 0
917 405 0
768 0
991 0
767 0
611 0
584 0
74 0
488 812 0
132 0
5 0
546 708 0
100 0
556 0
623 0
954 0
684 463 0
98 646 0
994 103 0
825 0
570 981 0
666 0
252 0
502 0
211 902 0
289 0
581 693 0
488 37 0
96 574 0
680 0
20 0
396 981 0
828 950 0
733 0
265 0
843 0
205 0
530 540 0
677 0
37 965 0
721 0
665 0
561 498 0
852 0
966 0
359 0
463 0
278 0
334 391 0
20 0
921 0
993 447 0
971 0
568 71 0
508 0
441 0
455 0
395 0
480 950 0
881 0
914 277 0
526 0
46 0
288 0
765 0
905 181 0
434 0
344 98 0
392 364 0
312 0
972 0
673 0
623 0
178 0
217 0
784 487 0
212 471 0
522 12 0
468 878 0
828 0
110 0
997 0
910 0
176 12 0
168 0
777 0
710 0
11 61 0
714 999 0
92 0
643 147 0
891 0
183 0
133 0
475 0
786 0
689 0
145 0
710 374 0
382 0
624 153 0
683 924 0
984 0
892 733 0
848 0
407 0
490 0
9 0
347 381 0
843 0
287 0
329 0
538 423 0
953 0
810 0
930 0
818 0
930 34 0
304 0
850 191 0
446 0
384 0
33 595 0
60 0
165 0
57 0
58 573 0
578 455 0
72 778 0
680 732 0
487 0
138 885 0
76 0
691 0
184 0
458 0
419 0
929 466 0
427 0
666 0
795 414 0
815 0
625 0
699 0
964 0
436 0
707 524 0
451 0
113 894 0
607 0
714 0
409 0
504 0
90 0
754 0
517 774 0
669 0
633 0
920 872 0
613 0
315 791 0
556 0
176 0
762 0
924 279 0
292 0
639 0
112 0
210 0
968 0
697 731 0
36 0
143 0
307 0
706 813 0
789 0
480 0
152 366 0
625 250 0
686 751 0
934 470 0
428 0
337 0
293 0
541 167 0
644 0
455 0
457 619 0
584 930 0
758 0
938 558 0
208 0
993 479 0
199 0
770 0
205 0
714 0
613 0
816 0
840 0
282 411 0
713 158 0
102 566 0
259 0
992 476 0
776 0
879 0
217 0
355 0
594 0
953 442 0
141 135 0
484 719 0
865 268 0
911 0
82 0
247 0
643 567 0
138 868 0
680 0
61 0
785 0
261 0
582 0
561 282 0
841 0
932 0
864 877 0
713 481 0
458 0
473 0
232 645 0
381 0
58 108 0
987 0
764 0
297 0
687 0
911 0
613 942 0
290 0
537 343 0
352 0
181 0
138 0
547 0
748 0
763 0
470 0
880 127 0
645 0
827 0
589 0
476 127 0
889 390 0
548 0
896 860 0
10 140 0
381 0
492 0
628 0
701 0
268 0
937 667 0
304 0
318 943 0
612 0
466 0
450 895 0
89 0
640 947 0
812 0
515 0
759 0
362 556 0
37 389 0
887 0
485 0
420 0
378 802 0
297 0
220 0
626 0
790 0
634 0
196 0
170 260 0
719 0
322 0
651 0
554 0
832 0
590 0
343 0
240 742 0
179 908 0
213 0
128 676 0
784 0
218 866 0
813 0
712 770 0
894 0
832 795 0
984 0
779 0
752 472 0
799 0
498 262 0
538 0
803 892 0
392 0
19 0
39 0
505 391 0
652 870 0
774 0
586 423 0
241 0
96 110 0
70 0
195 0
139 399 0
712 705 0
682 870 0
178 316 0
66 0
799 0
160 0
976 0
51 0
425 940 0
856 524 0
99 533 0
228 470 0
801 0
221 0
952 0
750 0
497 636 0
875 0
335 0
447 0
381 0
471 0
6 671 0
198 0
358 0
947 0
746 948 0
358 0
969 252 0
648 878 0
716 0
449 143 0
707 391 0
785 0
316 0
588 0
276 0
133 0
510 303 0
69 0
926 0
213 511 0
117 0
867 732 0
202 519 0
655 0
461 0
308 0
102 0
799 0
832 43 0
722 0
538 0
925 0
695 0
723 372 0
393 0
833 630 0
294 0
376 0
808 45 0
559 0
254 0
922 0
543 0
957 0
702 0
876 503 0
327 0
611 300 0
966 0
894 0
42 117 0
359 0
570 573 0
451 0
340 0
136 808 0
534 0
610 260 0
254 0
147 0
630 199 0
108 0
808 950 0
134 326 0
901 677 0
924 718 0
328 979 0
398 0
325 0
129 0
324 268 0
427 0
265 0
369 0
892 0
481 919 0
651 349 0
301 0
753 0
914 0
118 287 0
570 580 0
54 254 0
658 0
3 0
547 780 0
323 0
216 676 0
693 0
137 0
296 0
268 822 0
470 0
382 0
800 998 0
860 0
648 0
26 0
356 149 0
492 0
67 0
566 0
7 0
78 0
479 0
915 100 0
155 0
10 454 0
139 244 0
64 483 0
515 0
683 0
486 199 0
914 731 0
545 0
713 747 0
498 0
870 679 0
896 0
590 0
892 0
91 931 0
461 0
10 756 0
965 229 0
306 957 0
163 0
647 0
620 0
786 0
934 607 0
353 217 0
211 631 0
870 0
136 0
974 0
537 0
805 0
293 0
322 779 0
426 0
483 509 0
593 0
852 0
60 0
2 0
251 919 0
377 994 0
725 0
371 0
312 0
977 122 0
738 0
515 0
805 0
989 487 0
741 0
847 0
958 0
79 0
571 0
762 0
711 0
760 0
129 0
441 0
571 0
198 655 0
226 508 0
200 839 0
96 0
427 0
307 0
857 0
622 894 0
784 214 0
526 0
293 0
722 0
256 407 0
432 202 0
219 0
802 0
766 0
286 639 0
784 708 0
472 0
785 285 0
256 991 0
891 62 0
251 0
55 0
584 0
16 219 0
763 341 0
367 0
121 0
490 0
242 659 0
253 0
521 268 0
352 695 0
104 0
754 839 0
51 0
261 86 0
107 0
931 0
831 0
688 779 0
295 0
928 0
322 0
395 0
259 0
64 821 0
936 387 0
461 70 0
292 0
702 0
268 0
329 370 0
979 0
448 0
628 0
866 966 0
896 567 0
894 655 0
842 31 0
262 0
852 439 0
182 0
806 0
471 0
695 0
932 0
990 879 0
609 0
978 494 0
556 87 0
469 343 0
310 0
761 950 0
56 109 0
942 0
683 0
204 934 0
592 453 0
585 413 0
210 686 0
693 0
486 423 0
642 42 0
117 0
907 0
833 0
945 0
878 0
11 0
785 0
311 0
564 0
880 0
683 0
146 0
704 38 0
274 0
944 0
83 0
600 951 0
896 796 0
560 167 0
161 0
123 932 0
339 0
977 0
522 0
394 0
429 0
943 0
949 0
853 0
423 943 0
58 0
535 0
209 929 0
24 0
104 258 0
272 322 0
888 0
945 0
234 0
273 439 0
939 966 0
345 524 0
640 535 0
5 998 0
306 247 0
956 0
378 0
107 0
360 282 0
440 0
677 0
693 0
948 134 0
341 0
931 0
959 0
754 980 0
534 0
478 0
160 995 0
24 0
915 0
634 0
320 0
984 0
762 0
685 0
747 0
277 0
101 0
590 0
989 230 0
840 0
797 0
500 206 0
194 0
730 534 0
60 0
695 0
200 0
361 0
533 0
7 0
698 0
831 0
323 0
209 958 0
278 655 0
957 0
610 621 0
800 733 0
294 0
939 0
535 0
877 0
874 0
1000 806 0
58 0
603 0
282 0
738 0
101 0
865 0
146 0
316 317 0
285 725 0
201 502 0
730 547 0
722 359 0
173 0
838 750 0
147 0
991 0
42 0
680 662 0
145 804 0
986 0
292 0
437 206 0
123 0
443 190 0
132 860 0
219 750 0
669 0
922 548 0
418 298 0
496 854 0
568 0
935 0
163 972 0
6 0
129 0
621 950 0
954 0
60 0
607 0
796 0
880 196 0
901 0
609 127 0
449 0
231 0
267 0
789 0
594 31 0
224 352 0
504 834 0
20 0
161 0
648 0
768 181 0
177 0
522 492 0
122 0
329 882 0
438 0
460 0
777 0
417 0
965 0
398 367 0
302 0
829 0
260 0
753 0
531 0
728 837 0
847 0
902 0
73 719 0
876 0
862 0
595 0
523 0
118 0
77 726 0
824 748 0
250 0
820 69 0
27 295 0
88 648 0
12 598 0
787 0
231 0
397 0
318 0
128 743 0
640 0
178 0
772 0
720 0
228 0
880 53 0
265 0
8 911 0
420 0
939 0
396 0
28 965 0
90 591 0
370 0
493 0
200 0
976 0
560 755 0
962 443 0
900 725 0
400 68 0
193 0
184 92 0
132 0
940 391 0
99 447 0
566 0
546 0
33 0
894 119 0
91 518 0
568 765 0
414 0
792 414 0
928 799 0
254 0
73 0
279 0
279 0
895 0
213 0
683 0
813 0
178 0
950 0
518 0
187 0
641 0
222 0
876 551 0
152 0
332 0
441 0
562 445 0
16 787 0
503 0
688 0
742 0
869 0
456 0
263 0
591 0
941 0
639 0
410 0
18 717 0
186 0
220 85 0
227 525 0
164 0
516 0
422 0
92 207 0
875 335 0
523 0
500 0
740 126 0
136 0
219 0
170 0
849 0
861 0
944 111 0
431 0
97 0
25 233 0
964 0
233 351 0
658 947 0
391 0
913 0
772 0
762 691 0
340 0
842 316 0
54 0
487 0
356 0
303 0
141 0
464 705 0
274 422 0
865 575 0
627 0
317 0
901 0
980 0
157 0
370 573 0
569 474 0
376 0
157 0
376 517 0
27 0
618 638 0
844 0
953 0
777 0
600 0
245 790 0
542 0
830 0
871 0
761 0
388 685 0
47 0
600 637 0
531 0
960 0
996 0
753 0
954 0
373 0
985 959 0
656 328 0
114 0
339 318 0
811 316 0
266 0
592 0
703 0
8 0
334 0
873 534 0
375 0
374 0
609 0
137 670 0
871 951 0
816 875 0
446 0
314 0
370 694 0
953 222 0
563 0
8 443 0
994 539 0
61 0
919 0
648 856 0
586 693 0
637 0
281 0
90 124 0
486 0
795 0
20 0
232 119 0
153 0
410 0
620 0
19 0
191 0
933 0
225 0
880 0
944 0
196 0
872 0
900 0
372 319 0
509 0
322 0
940 0
473 474 0
752 0
707 0
390 0
889 332 0
505 311 0
164 0
281 654 0
698 0
644 0
81 0
823 0
681 0
895 0
465 0
398 0
741 0
132 0
632 0
617 470 0
842 597 0
244 0
531 0
794 995 0
609 0
435 0
155 790 0
329 0
236 167 0
297 0
410 0
958 0
121 0
237 0
290 133 0
783 0
890 0
251 0
544 0
58 0
812 0
955 869 0
396 166 0
377 0
11 0
533 0
265 0
825 378 0
374 46 0
652 0
616 0
695 0
891 0
765 0
856 50 0
621 0
624 158 0
281 0
982 0
995 0
565 0
328 998 0
761 932 0
689 0
299 0
310 0
94 0
853 0
107 972 0
240 0
887 0
687 0
851 0
92 149 0
176 0
329 213 0
319 0
900 0
863 0
345 596 0
546 518 0
148 0
114 898 0
351 0
517 0
357 0
69 926 0
597 0
824 534 0
712 688 0
481 0
852 902 0
141 0
562 799 0
593 0
704 99 0
340 78 0
654 0
795 0
424 0
688 948 0
390 0
141 0
306 366 0
594 974 0
12 0
778 0
853 47 0
304 0
598 0
3 0
852 0
104 0
992 55 0
818 643 0
872 58 0
414 0
755 903 0
833 0
355 0
327 0
801 630 0
412 76 0
582 0
768 245 0
930 0
932 0
696 0
20 0
150 0
931 187 0
193 60 0
212 278 0
990 0
972 0
115 0
499 0
858 0
305 0
854 0
328 188 0
505 854 0
543 0
762 0
448 0
622 0
189 0
13 0
99 94 0
479 0
452 751 0
285 0
770 726 0
265 0
614 215 0
890 0
325 0
338 663 0
342 0
255 0
585 0
965 0
489 511 0
620 69 0
128 635 0
801 0
280 420 0
10 0
800 0
175 0
510 0
686 0
24 353 0
171 0
906 988 0
14 0
207 0
721 503 0
777 0
257 0
630 230 0
235 0
900 87 0
82 0
564 495 0
942 0
830 0
268 0
209 531 0
585 551 0
401 0
29 118 0
384 274 0
217 156 0
917 0
140 0
657 615 0
652 0
461 0
381 0
704 0
522 0
491 0
993 866 0
860 0
713 0
505 20 0
810 835 0
87 0
105 0
983 0
319 0
95 0
469 0
657 0
596 0
96 183 0
137 0
715 0
184 0
840 0
189 0
136 337 0
718 0
141 0
355 0
844 0
63 0
453 0
753 0
572 0
122 0
127 0
428 0
460 0
619 172 0
861 54 0
922 0
148 0
590 0
867 959 0
249 0
600 645 0
460 0
896 225 0
127 0
600 497 0
50 0
283 0
521 0
666 0
182 0
710 0
165 0
633 614 0
801 0
411 0
810 0
195 645 0
266 951 0
419 244 0
98 0
73 41 0
372 431 0
232 106 0
354 790 0
649 0
71 0
61 887 0
128 0
332 0
795 796 0
178 0
235 37 0
784 987 0
728 0
824 0
884 0
87 0
740 0
210 0
760 51 0
776 0
139 0
505 0
32 262 0
399 0
536 0
552 953 0
692 0
940 0
709 0
91 0
218 0
719 0
731 0
320 0
165 822 0
876 0
949 230 0
542 735 0
676 182 0
165 0
164 0
233 0
862 0
221 181 0
452 0
16 575 0
625 0
104 0
99 262 0
729 0
307 0
680 0
772 0
824 0
283 0
944 0
27 492 0
369 220 0
490 0
702 0
693 0
591 0
893 0
568 0
908 0
145 0
690 659 0
811 695 0
946 343 0
664 0
860 0
302 983 0
948 247 0
524 669 0
395 0
935 0
117 0
914 0
513 306 0
765 0
729 0
361 0
584 0
801 0
762 0
246 0
647 0
393 877 0
353 934 0
13 0
271 0
678 0
410 183 0
373 0
493 0
955 556 0
333 0
25 0
994 790 0
20 158 0
247 0
704 0
16 317 0
329 508 0
64 823 0
566 879 0
165 0
936 649 0
155 0
706 0
755 0
656 465 0
595 548 0
741 829 0
79 0
469 0
645 0
786 0
574 0
712 483 0
241 42 0
471 0
88 0
918 0
670 230 0
578 647 0
840 548 0
464 921 0
194 410 0
380 981 0
1 260 0
541 878 0
739 238 0
328 31 0
912 0
850 69 0
222 0
520 707 0
32 0
4 0
125 0
125 0
330 0
884 0
667 0
345 883 0
908 0
433 0
82 0
983 0
354 0
795 0
669 0
505 198 0
373 0
146 0
770 934 0
75 0
760 0
155 653 0
455 0
694 78 0
173 0
597 0
915 0
795 0
225 0
697 0
304 0
660 0
531 0
893 0
55 0
608 386 0
397 0
173 0
172 0
92 0
716 0
936 0
924 0
785 418 0
729 0
908 0
745 0
427 0
665 0
197 0
402 0
688 0
652 0
213 0
152 238 0
340 0
976 652 0
300 0
181 407 0
839 0
778 0
585 965 0
424 489 0
668 0
621 0
296 854 0
138 0
431 0
818 0
113 506 0
653 0
349 0
933 0
361 629 0
392 0
237 774 0
124 894 0
126 0
417 0
675 0
93 879 0
155 708 0
736 522 0
679 0
541 950 0
589 0
880 828 0
303 0
544 345 0
175 0
776 0
349 0
731 0
97 749 0
101 0
635 462 0
897 0
560 774 0
195 0
698 0
761 879 0
125 0
1000 76 0
240 11 0
75 686 0
189 0
930 875 0
572 0
305 0
809 143 0
478 479 0
335 0
528 59 0
523 0
268 0
464 602 0
332 0
973 0
186 166 0
426 743 0
713 0
398 0
721 0
62 574 0
997 0
458 0
394 0
735 0
523 0
782 0
618 260 0
531 430 0
309 0
126 0
193 0
538 135 0
395 0
979 0
260 215 0
395 382 0
643 0
139 13 0
626 0
939 0
299 227 0
595 0
49 0
530 0
178 900 0
921 286 0
898 0
282 190 0
578 0
875 371 0
160 0
291 540 0
730 0
351 0
96 0
6 0
749 0
30 0
577 0
159 0
164 447 0
902 502 0
68 406 0
275 796 0
569 0
570 0
825 306 0
484 996 0
827 0
671 0
695 0
944 0
729 597 0
360 618 0
349 0
316 255 0
830 0
235 0
442 463 0
256 390 0
516 862 0
224 427 0
908 245 0
233 0
849 877 0
712 589 0
808 0
341 0
729 291 0
578 923 0
742 0
864 0
898 403 0
970 0
214 0
597 0
769 0
62 0
441 0
40 98 0
331 979 0
515 325 0
225 0
237 471 0
440 709 0
922 0
48 181 0
376 0
105 0
692 295 0
195 173 0
806 0
585 0
164 855 0
887 0
215 0
26 0
258 0
131 0
445 0
316 0
762 0
89 0
112 641 0
281 966 0
324 0
59 125 0
588 0
440 0
602 0
578 0
184 764 0
634 0
728 0
250 0
143 0
202 0
332 0
179 0
385 0
33 0
475 79 0
364 0
666 983 0
715 0
493 799 0
206 0
270 0
420 0
688 0
463 0
557 0
635 943 0
285 0
649 0
304 0
426 0
416 0
647 0
205 0
543 0
187 0
762 259 0
928 997 0
443 94 0
563 0
339 0
104 0
81 932 0
826 0
442 0
292 0
140 350 0
815 0
930 0
706 371 0
114 0
684 0
268 0
759 0
308 0
606 0
411 718 0
198 0
148 0
746 118 0
701 0
143 0
626 935 0
432 99 0
394 0
431 0
828 0
557 0
681 0
279 0
601 0
369 955 0
107 0
206 0
764 0
395 219 0
242 0
551 0
893 0
250 0
474 52 0
97 0
498 180 0
123 0
539 838 0
524 0
720 0
760 0
255 0
650 557 0
660 0
841 0
467 0
227 0
816 183 0
122 0
417 0
108 0
430 0
838 686 0
718 0
202 349 0
478 798 0
388 0
808 414 0
98 995 0
879 0
408 982 0
718 0
614 0
429 0
634 0
459 0
815 0
825 132 0
85 0
434 826 0
379 0
577 740 0
508 0
602 0
749 0
53 0
69 14 0
522 0
846 0
615 0
114 0
264 0
416 0
835 631 0
825 23 0
833 931 0
216 717 0
141 0
15 55 0
951 0
937 0
792 0
40 0
46 0
4 0
800 587 0
131 0
589 470 0
762 0
492 550 0
706 0
485 133 0
593 738 0
249 0
71 0
553 114 0
648 0
912 35 0
660 958 0
688 0
193 0
642 791 0
123 391 0
409 813 0
38 0
841 0
151 0
184 0
522 53 0
680 45 0
763 342 0
56 461 0
931 0
132 463 0
131 0
364 0
137 989 0
532 268 0
122 0
591 0
194 0
380 0
948 0
61 0
429 391 0
736 303 0
154 0
698 0
448 0
205 173 0
118 0
649 985 0
765 0
35 0
386 0
692 270 0
594 0
453 30 0
38 0
234 0
648 497 0
768 462 0
650 0
288 0
331 0
762 963 0
226 198 0
456 0
54 895 0
455 671 0
517 806 0
706 0
712 362 0
166 0
816 484 0
415 0
781 0
499 0
180 0
556 885 0
136 0
258 0
411 0
686 262 0
506 327 0
266 0
450 996 0
205 0
512 0
332 351 0
59 3 0
983 0
2 412 0
160 907 0
72 0
544 0
277 0
784 0
741 0
40 0
578 0
483 0
199 0
917 0
450 732 0
951 0
845 0
531 0
35 0
242 0
872 56 0
696 0
974 0
516 0
442 0
524 0
895 0
499 21 0
413 102 0
882 60 0
145 0
591 0
227 0
17 0
218 635 0
824 0
630 911 0
153 0
146 0
442 975 0
258 0
947 0
292 0
512 0
888 0
401 182 0
667 0
976 0
600 0
887 0
92 0
890 575 0
82 694 0
504 0
611 0
409 0
958 0
732 813 0
988 276 0
861 0
670 0
505 774 0
305 0
28 0
121 102 0
95 0
347 0
541 0
821 0
927 119 0
325 0
211 0
951 0
656 0
146 734 0
376 0
847 0
770 0
460 0
281 974 0
496 0
686 0
78 815 0
582 302 0
859 445 0
885 614 0
110 0
412 0
956 0
878 246 0
336 0
295 0
28 0
560 0
800 0
750 0
966 0
850 0
651 639 0
589 0
318 439 0
289 150 0
990 0
615 0
672 0
244 0
295 0
808 0
57 365 0
680 0
472 0
726 0
578 979 0
301 0
372 822 0
815 0
848 0
686 0
561 0
424 0
356 663 0
67 979 0
581 0
997 0
722 0
710 0
811 0
312 316 0
94 983 0
580 0
341 0
943 0
888 0
749 0
524 0
848 609 0
833 0
941 0
65 0
721 0
995 998 0
448 0
227 118 0
269 0
475 0
326 14 0
118 0
706 0
684 0
754 20 0
168 787 0
536 0
972 0
856 0
819 0
93 0
181 0
883 0
689 558 0
502 0
42 787 0
211 671 0
103 0
644 0
576 94 0
481 797 0
874 132 0
474 0
144 152 0
900 0
514 0
981 0
483 389 0
351 0
128 0
968 0
837 0
314 0
463 0
945 0
961 0
169 0
323 214 0
267 543 0
380 0
455 0
816 792 0
563 582 0
385 5 0
261 0
619 0
873 415 0
340 0
17 347 0
689 844 0
792 0
491 0
350 0
938 0
181 0
497 62 0
349 0
465 0
702 0
957 0
774 0
122 0
156 0
237 0
337 0
737 0
239 0
205 0
571 0
422 0
566 0
328 218 0
203 0
104 0
406 0
512 548 0
499 0
182 0
426 0
338 0
964 0
528 0
911 0
402 0
884 580 0
524 0
857 34 0
850 0
335 0
2 0
870 0
458 122 0
433 300 0
203 0
224 0
143 0
23 0
144 99 0
153 586 0
123 670 0
516 135 0
386 895 0
755 0
917 0
865 0
242 0
892 0
97 0
519 0
610 27 0
549 0
499 982 0
460 0
529 698 0
649 0
516 0
731 0
978 0
302 975 0
935 95 0
791 863 0
453 0
304 0
960 0
401 405 0
708 0
650 0
421 0
265 0
461 55 0
371 981 0
483 324 0
476 0
277 0
299 491 0
154 0
209 505 0
772 0
594 0
11 0
133 0
222 0
882 972 0
194 0
400 0
840 147 0
656 909 0
968 752 0
48 0
858 842 0
696 910 0
640 799 0
902 0
573 0
732 0
457 0
940 0
937 727 0
569 0
487 0
422 0
712 0
4 0
68 61 0
517 0
196 0
319 0
130 0
724 0
513 259 0
316 0
477 0
313 932 0
473 607 0
767 0
325 0
939 0
555 0
36 0
651 159 0
835 0
128 0
626 116 0
402 0
636 0
765 0
221 0
638 0
537 0
577 358 0
934 0
355 0
592 0
323 0
105 4 0
107 679 0
514 51 0
443 0
271 0
168 750 0
70 0
634 988 0
477 0
244 662 0
627 0
323 0
337 0
338 0
945 0
903 0
50 11 0
489 855 0
239 0
398 0
248 476 0
637 0
824 0
90 0
360 0
987 0
617 0
779 0
990 950 0
21 0
307 0
123 0
740 0
845 0
516 0
102 910 0
808 80 0
705 0
905 947 0
618 0
677 189 0
864 0
359 0
564 973 0
728 361 0
108 0
908 942 0
10 0
948 95 0
852 0
143 0
633 37 0
581 0
998 0
451 0
407 0
426 846 0
395 213 0
63 0
584 881 0
251 0
673 0
670 0
914 279 0
557 0
85 0
587 189 0
765 303 0
818 454 0
12 0
322 0
310 0
683 0
46 0
899 0
510 0
17 0
969 0
810 0
777 0
842 0
437 0
720 430 0
56 0
845 0
176 732 0
827 0
929 239 0
895 0
459 0
392 653 0
293 0
224 0
681 0
241 0
418 0
249 259 0
528 900 0
502 0
794 671 0
146 0
393 0
97 0
572 271 0
977 0
407 0
752 0
480 27 0
752 824 0
632 0
802 0
798 0
617 0
547 564 0
28 0
187 196 0
417 807 0
720 0
11 0
613 0
26 0
872 0
467 614 0
21 0
891 0
474 0
690 125 0
89 735 0
848 0
106 0
35 396 0
257 685 0
814 0
676 389 0
356 447 0
528 522 0
85 0
816 0
657 0
328 704 0
27 0
36 0
821 0
18 702 0
87 0
592 850 0
187 524 0
107 141 0
777 0
398 0
243 269 0
412 0
717 0
249 0
566 0
239 0
368 796 0
345 204 0
916 0
25 0
448 843 0
365 0
254 0
335 0
90 799 0
91 701 0
697 39 0
154 535 0
619 852 0
65 0
757 0
575 0
734 0
67 343 0
27 0
409 319 0
640 541 0
965 0
140 4 0
947 716 0
583 0
507 0
116 0
531 0
113 0
39 0
995 0
551 0
337 311 0
900 0
108 0
551 0
117 270 0
567 991 0
977 0
201 0
100 0
896 41 0
698 36 0
202 0
849 0
400 0
739 716 0
542 0
240 0
785 502 0
674 730 0
789 0
483 0
157 894 0
313 377 0
136 866 0
302 502 0
305 215 0
723 325 0
75 0
900 0
873 986 0
720 59 0
689 0
228 0
155 143 0
184 0
796 0
728 310 0
855 0
158 0
193 638 0
920 925 0
82 0
147 998 0
261 0
968 388 0
471 319 0
887 0
409 14 0
601 948 0
576 0
758 0
116 565 0
445 0
725 0
525 0
1 700 0
824 119 0
711 0
204 0
76 0
921 750 0
734 0
760 0
46 0
64 0
3 515 0
978 429 0
190 0
171 644 0
362 285 0
354 0
716 719 0
390 0
541 0
411 924 0
832 84 0
732 357 0
488 0
281 902 0
17 442 0
390 0
640 0
683 0
569 404 0
417 241 0
541 711 0
729 0
725 0
676 0
500 111 0
524 0
541 0
552 0
889 420 0
306 0
557 455 0
629 0
441 0
54 0
632 825 0
298 0
164 0
895 0
673 0
337 452 0
570 0
862 47 0
360 0
116 229 0
105 0
914 0
534 0
986 0
45 694 0
261 231 0
843 0
585 0
437 863 0
91 0
317 0
531 805 0
361 0
299 799 0
906 494 0
968 421 0
698 0
81 0
109 0
532 510 0
843 0
127 0
696 966 0
300 0
519 0
2 479 0
990 0
53 0
693 958 0
389 0
227 166 0
705 0
761 0
314 0
902 0
953 0
513 850 0
721 0
989 0
711 0
602 0
827 0
587 574 0
332 853 0
40 434 0
7 0
897 454 0
912 0
4 0
285 0
81 356 0
913 234 0
785 0
79 0
725 0
280 431 0
757 38 0
711 0
613 0
256 0
625 342 0
318 0
433 0
713 0
56 351 0
138 0
354 0
260 836 0
587 895 0
174 0
757 0
385 701 0
124 0
110 0
908 0
478 0
985 0
849 0
504 0
819 0
361 0
144 276 0
581 38 0
144 0
402 0
96 639 0
585 0
392 0
89 146 0
773 0
492 551 0
786 0
916 53 0
800 299 0
817 860 0
331 0
542 0
21 0
745 955 0
874 371 0
784 0
154 0
608 82 0
361 703 0
271 0
296 0
804 133 0
986 942 0
424 339 0
498 0
723 414 0
736 69 0
282 79 0
994 0
561 578 0
314 0
289 932 0
340 0
136 0
773 215 0
484 0
8 0
330 0
81 0
265 0
381 0
290 0
426 0
144 0
144 0
968 233 0
952 0
672 527 0
283 0
231 0
637 0
356 0
236 0
508 0
445 0
909 0
479 0
875 0
861 0
216 654 0
41 258 0
938 0
705 0
946 310 0
535 0
968 0
538 0
544 0
444 0
253 0
619 0
646 0
706 211 0
727 0
741 0
837 0
568 0
782 0
392 434 0
573 0
503 0
336 474 0
605 0
411 839 0
904 425 0
522 478 0
119 0
321 529 0
886 0
173 0
813 0
402 581 0
962 0
272 759 0
248 0
85 0
901 0
148 0
837 0
875 0
8 0
794 0
885 0
447 0
313 0
404 0
210 182 0
408 661 0
869 0
745 299 0
576 57 0
237 0
770 0
88 348 0
527 0
607 0
917 766 0
723 13 0
276 0
840 0
945 55 0
671 0
326 0
367 0
968 0
694 0
66 0
97 0
208 908 0
528 749 0
308 0
240 464 0
387 0
588 0
128 0
323 631 0
25 0
630 0
522 0
400 716 0
459 85 0
383 0
129 233 0
97 0
992 0
170 378 0
705 755 0
111 0
207 0
92 0
33 0
485 0
195 966 0
691 0
436 0
849 0
566 0
11 0
879 0
48 383 0
904 0
728 0
242 0
265 0
931 0
781 0
904 776 0
152 0
749 701 0
520 0
113 0
617 51 0
944 569 0
483 0
468 0
793 75 0
257 685 0
60 0
658 0
829 0
124 0
70 0
476 117 0
15 0
920 0
637 0
279 0
434 0
436 647 0
35 0
71 0
681 0
165 0
392 0
818 0
260 0
367 0
552 0
323 0
557 958 0
143 0
524 0
273 505 0
454 0
678 0
449 689 0
863 0
397 0
995 0
550 0
297 0
890 0
894 0
827 437 0
677 0
132 308 0
721 0
320 0
192 0
150 0
212 0
662 0
81 599 0
145 0
306 0
688 648 0
390 0
45 0
268 0
649 341 0
74 0
47 0
179 0
169 452 0
212 124 0
601 0
678 0
393 0
868 0
922 596 0
644 0
406 0
777 187 0
227 0
883 0
87 0
661 0
486 255 0
263 0
249 161 0
820 836 0
834 0
193 43 0
772 0
477 0
736 542 0
705 0
488 463 0
35 174 0
369 475 0
626 556 0
467 0
596 469 0
923 915 0
493 390 0
833 0
520 0
40 292 0
624 653 0
350 0
440 0
9 0
207 0
245 0
544 282 0
872 310 0
717 0
879 0
640 0
75 0
566 0
971 462 0
818 501 0
328 0
897 0
53 0
147 0
388 0
929 0
344 0
751 0
399 0
637 0
353 812 0
666 0
81 0
77 0
120 0
123 0
497 183 0
294 247 0
71 0
194 621 0
672 659 0
23 0
614 0
74 0
80 0
657 0
86 0
937 878 0
569 230 0
560 0
749 294 0
517 310 0
433 0
987 0
55 343 0
640 0
158 0
120 797 0
906 453 0
636 183 0
264 60 0
505 0
658 540 0
498 997 0
530 0
379 61 0
138 951 0
236 0
688 775 0
262 0
86 0
326 463 0
578 0
856 194 0
418 0
863 0
173 0
218 308 0
390 0
740 374 0
360 13 0
156 0
376 966 0
492 223 0
437 0
836 0
161 61 0
624 0
503 0
855 0
743 0
233 0
270 0
191 0
771 0
561 469 0
445 0
985 842 0
105 0
701 0
442 476 0
761 87 0
797 0
636 0
952 769 0
264 0
384 0
922 0
713 0
579 959 0
866 0
219 100 0
146 0
942 0
130 0
297 0
418 10 0
937 206 0
166 774 0
98 421 0
580 0
705 2 0
723 0
43 0
726 0
382 0
968 874 0
684 0
626 829 0
11 0
43 789 0
74 662 0
821 0
1000 887 0
610 534 0
565 0
507 963 0
29 0
745 0
199 0
698 0
56 0
389 0
571 0
932 0
297 0
366 0
226 0
360 291 0
125 622 0
116 14 0
51 0
899 0
891 844 0
857 9 0
782 679 0
794 0
254 0
973 127 0
372 0
673 0
982 0
156 0
297 138 0
852 405 0
974 0
767 0
908 0
440 73 0
767 0
357 0
170 0
597 0
625 241 0
621 0
429 0
217 0
913 0
666 106 0
634 0
548 870 0
790 0
129 670 0
156 0
349 389 0
624 0
362 0
381 0
233 898 0
236 0
191 0
527 0
758 0
572 0
339 0
160 0
432 188 0
119 0
564 0
390 0
752 866 0
365 0
441 0
844 0
458 0
533 0
472 0
656 661 0
470 223 0
69 583 0
672 0
548 0
922 0
920 654 0
119 879 0
703 0
898 0
11 0
911 0
317 0
857 0
497 0
325 0
393 0
27 758 0
698 0
897 462 0
863 0
453 0
961 194 0
145 0
220 0
763 0
833 711 0
641 0
566 0
287 0
454 0
357 0
609 0
994 94 0
303 0
71 0
389 0
692 0
741 0
738 771 0
706 0
505 0
389 0
241 699 0
67 0
497 196 0
627 0
964 198 0
75 0
483 388 0
609 76 0
819 0
338 0
154 0
732 0
146 547 0
88 0
568 0
810 691 0
246 0
998 0
956 269 0
908 278 0
154 0
114 0
200 358 0
302 486 0
402 685 0
355 0
595 0
691 0
951 0
155 532 0
825 0
132 454 0
846 0
820 0
824 0
375 0
252 0
498 0
172 5 0
601 0
97 285 0
671 0
123 876 0
993 749 0
75 0
751 0
16 572 0
507 207 0
228 0
579 333 0
947 0
14 0
404 0
401 364 0
462 0
571 0
297 549 0
956 693 0
750 0
990 0
757 437 0
338 597 0
233 667 0
496 219 0
658 0
104 446 0
191 0
371 0
41 0
270 0
777 0
282 0
405 0
467 0
839 0
326 0
810 134 0
8 814 0
615 0
576 624 0
957 0
962 0
763 0
975 0
839 0
651 0
772 974 0
616 615 0
985 0
149 862 0
638 0
649 0
130 0
60 0
461 0
851 0
335 0
598 0
888 0
384 580 0
977 0
951 0
256 183 0
263 0
1 444 0
757 0
57 0
88 0
720 467 0
945 0
534 0
795 0
63 0
654 0
131 766 0
380 678 0
280 0
870 0
81 843 0
699 0
658 0
642 0
937 0
401 0
152 2 0
651 0
808 0
211 61 0
469 0
554 323 0
538 0
171 0
407 0
236 0
992 0
137 823 0
941 631 0
237 0
435 0
338 0
82 751 0
676 0
667 0
124 0
848 0
367 0
974 0
754 877 0
449 442 0
907 0
596 0
783 0
41 603 0
832 0
289 335 0
715 663 0
714 349 0
989 0
340 0
446 0
916 895 0
648 547 0
641 0
811 875 0
529 0
983 0
636 893 0
307 0
179 247 0
842 647 0
122 190 0
595 893 0
365 0
300 0
564 0
956 0
731 0
995 0
579 476 0
556 0
657 0
225 830 0
592 0
603 0
631 0
855 0
159 0
996 0
881 0
280 0
474 199 0
204 0
856 0
811 0
937 0
832 65 0
819 0
91 0
765 0
438 0
290 0
539 0
317 0
436 0
535 703 0
965 0
455 0
369 0
120 0
128 889 0
645 342 0
777 690 0
202 0
436 0
472 0
448 0
580 0
569 0
322 0
149 0
961 434 0
866 0
183 0
193 0
477 0
315 687 0
971 38 0
742 0
283 51 0
961 0
34 412 0
772 0
696 469 0
265 0
754 0
730 686 0
208 0
78 0
414 0
800 152 0
834 0
112 0
262 855 0
680 0
943 0
4 0
120 0
489 0
758 0
293 463 0
474 0
534 0
33 0
609 0
964 813 0
568 83 0
35 894 0
868 7 0
359 0
276 0
568 2 0
603 0
748 239 0
177 746 0
284 437 0
566 0
957 0
446 0
456 567 0
281 567 0
650 166 0
796 0
946 0
452 941 0
689 0
722 661 0
220 0
454 0
395 0
577 0
922 875 0
541 0
945 980 0
609 164 0
744 0
123 949 0
131 0
984 0
155 0
560 910 0
609 0
943 495 0
386 883 0
811 0
139 455 0
160 0
456 0
566 0
752 191 0
807 0
265 670 0
496 205 0
286 0
216 394 0
114 0
296 618 0
590 0
750 0
928 481 0
624 0
283 0
734 0
105 0
899 493 0
205 0
804 0
261 0
297 527 0
433 692 0
333 0
130 0
105 492 0
615 0
573 0
67 222 0
104 95 0
313 0
842 519 0
463 0
323 638 0
594 772 0
220 0
881 0
862 0
619 758 0
136 0
776 0
633 717 0
541 0
679 0
80 0
31 0
264 0
279 0
502 0
618 405 0
140 0
153 0
127 0
384 0
652 0
243 159 0
538 103 0
237 0
850 0
859 415 0
490 0
609 74 0
350 0
393 0
114 453 0
803 0
343 0
805 0
857 0
778 207 0
865 927 0
874 0
523 0
330 246 0
468 0
50 103 0
203 822 0
624 27 0
392 0
222 0
898 0
926 0
609 382 0
894 0
271 0
177 636 0
67 0
498 476 0
147 341 0
125 0
154 0
584 0
702 207 0
865 0
248 0
378 0
522 0
58 0
206 0
983 0
559 0
334 0
572 111 0
771 0
552 324 0
517 0
610 0
595 0
978 0
905 0
673 987 0
858 0
675 212 0
220 0
40 0
533 0
669 0
170 0
320 6 0
773 0
610 900 0
686 0
57 413 0
841 0
869 0
604 807 0
34 0
256 147 0
980 0
237 0
833 0
896 831 0
269 0
872 7 0
183 0
19 0
145 0
683 0
59 0
781 0
284 0
833 343 0
369 999 0
842 0
119 0
428 0
365 0
77 0
769 0
598 0
424 0
924 0
443 0
565 0
72 0
247 0
497 0
538 927 0
469 0
27 0
171 541 0
802 311 0
235 0
146 0
499 327 0
729 459 0
525 0
174 0
547 0
159 0
415 0
205 0
597 0
479 0
885 0
903 0
512 0
236 0
811 0
317 0
96 98 0
429 0
292 0
206 150 0
844 0
468 85 0
432 447 0
518 0
291 0
724 0
749 0
880 963 0
547 678 0
520 0
169 0
979 0
385 0
36 0
523 0
958 0
558 0
840 405 0
808 602 0
992 877 0
375 0
67 782 0
743 0
864 0
322 503 0
270 0
588 0
878 727 0
216 741 0
128 0
82 68 0
685 0
816 799 0
658 0
124 636 0
437 831 0
707 0
739 0
771 132 0
727 0
110 0
494 0
778 0
115 0
626 0
125 511 0
753 815 0
759 0
877 901 0
531 0
370 0
147 79 0
49 0
240 0
713 220 0
908 757 0
905 0
872 0
848 0
173 0
906 0
743 0
384 0
410 915 0
276 0
437 0
533 0
949 0
573 0
645 0
649 0
680 0
360 0
917 0
72 0
416 223 0
290 557 0
150 0
746 0
806 422 0
93 0
289 0
496 485 0
658 172 0
157 0
771 0
102 0
897 0
587 0
473 467 0
519 0
905 305 0
487 0
977 513 0
822 831 0
445 0
505 0
824 0
761 493 0
8 0
980 0
761 0
76 0
221 0
767 0
271 175 0
160 324 0
781 0
986 855 0
713 452 0
580 5 0
942 0
858 981 0
920 0
532 693 0
624 0
908 644 0
830 0
113 0
163 0
476 12 0
591 0
860 0
10 0
70 494 0
815 0
37 0
407 0
418 0
168 0
529 0
867 0
786 0
376 0
162 0
403 0
800 0
762 0
834 135 0
333 0
121 0
712 0
229 0
248 441 0
710 0
898 0
554 0
555 0
885 0
696 0
256 909 0
165 0
371 573 0
594 0
445 0
936 0
184 0
538 0
457 742 0
665 0
297 0
140 77 0
385 860 0
938 100 0
778 820 0
5 0
827 323 0
361 991 0
172 0
906 703 0
88 0
418 882 0
517 0
128 0
916 0
748 983 0
654 0
107 0
463 0
665 0
151 0
701 614 0
426 747 0
613 0
253 0
392 0
889 0
528 456 0
673 53 0
104 295 0
964 852 0
767 0
754 0
602 479 0
814 351 0
294 0
981 319 0
380 759 0
248 566 0
851 0
785 623 0
563 0
892 7 0
993 0
47 0
943 0
740 55 0
136 0
419 0
141 534 0
530 141 0
342 767 0
462 0
202 527 0
832 925 0
84 0
411 0
54 71 0
188 831 0
449 0
536 0
72 124 0
522 788 0
526 0
670 0
376 949 0
40 0
20 399 0
243 0
738 0
399 0
969 746 0
40 0
211 0
128 0
901 911 0
835 0
426 979 0
147 933 0
778 845 0
137 0
715 124 0
245 0
157 0
448 382 0
257 109 0
261 0
336 134 0
554 863 0
712 0
853 199 0
542 0
828 0
119 0
972 0
730 677 0
649 351 0
453 0
902 734 0
1 0
368 0
505 0
776 817 0
770 0
295 0
611 0
869 0
444 0
849 15 0
299 0
566 0
148 0
577 381 0
345 0
161 0
813 0
956 0
96 323 0
581 0
202 0
310 431 0
523 0
184 0
746 0
912 0
102 0
357 0
612 0
820 0
530 0
723 470 0
194 0
394 0
674 0
831 0
346 0
80 429 0
567 0
761 0
660 0
833 0
777 0
73 187 0
286 551 0
53 0
129 0
337 510 0
969 495 0
554 0
843 0
372 0
293 447 0
548 0
729 254 0
753 102 0
801 0
746 76 0
619 0
792 951 0
226 0
713 333 0
856 52 0
773 254 0
548 470 0
258 0
12 0
166 750 0
912 0
65 0
661 0
944 318 0
195 566 0
700 0
970 677 0
904 530 0
404 0
561 965 0
217 691 0
214 758 0
729 330 0
513 0
931 221 0
114 0
50 0
577 0
162 0
822 0
217 0
409 0
782 0
838 0
65 0
276 0
15 0
108 412 0
888 973 0
300 398 0
264 11 0
617 855 0
510 0
848 0
412 694 0
587 0
613 998 0
980 0
929 0
602 0
895 0
784 299 0
608 785 0
770 0
553 693 0
833 108 0
662 0
578 0
463 0
785 0
551 0
703 0
93 0
275 0
168 149 0
834 0
128 0
531 12 0
111 903 0
281 436 0
87 0
38 0
324 0
761 74 0
616 491 0
881 947 0
158 0
628 0
602 0
25 639 0
810 646 0
375 0
100 0
737 972 0
122 0
712 189 0
168 0
836 182 0
881 661 0
371 246 0
441 659 0
773 0
866 845 0
297 0
155 0
712 0
985 0
11 0
151 0
739 652 0
231 0
192 0
83 0
841 63 0
777 0
747 925 0
960 730 0
123 0
860 206 0
528 0
540 0
920 847 0
607 0
489 0
264 367 0
943 0
26 533 0
431 0
197 0
516 310 0
33 119 0
842 0
977 642 0
624 0
355 0
852 0
802 0
882 526 0
772 654 0
559 0
656 446 0
488 188 0
57 0
527 0
590 0
691 813 0
156 0
298 0
541 0
538 863 0
352 0
777 0
974 0
774 0
855 0
813 430 0
419 0
829 0
986 804 0
129 145 0
393 882 0
504 664 0
548 0
360 263 0
953 0
278 0
13 126 0
660 350 0
723 0
988 0
953 405 0
240 245 0
342 0
960 29 0
667 0
184 0
874 0
961 335 0
561 638 0
227 927 0
996 0
166 271 0
834 0
882 0
261 318 0
759 0
660 0
712 199 0
404 0
238 0
225 0
691 756 0
247 0
673 0
245 0
398 710 0
262 0
192 0
89 0
841 803 0
268 567 0
128 430 0
754 0
593 791 0
951 0
146 0
885 0
396 719 0
221 0
889 0
753 0
222 103 0
278 607 0
771 0
270 0
674 0
61 0
757 0
687 0
716 0
500 0
661 0
334 0
14 751 0
422 0
58 691 0
657 0
623 0
17 434 0
686 0
250 0
952 0
960 0
548 590 0
287 0
177 0
775 0
954 0
835 459 0
56 400 0
606 0
733 0
937 0
943 0
321 20 0
505 35 0
231 0
883 0
305 0
130 430 0
59 397 0
759 0
417 0
42 0
412 0
85 0
28 0
88 0
54 0
225 0
736 0
354 0
219 100 0
810 877 0
402 359 0
560 0
656 473 0
459 750 0
19 0
500 0
625 411 0
100 678 0
231 0
800 0
964 0
257 0
370 684 0
526 0
142 0
841 20 0
593 0
963 862 0
965 919 0
137 0
849 0
785 0
220 0
908 0
888 0
779 487 0
251 0
926 0
880 439 0
417 735 0
276 0
123 0
545 313 0
879 0
812 0
234 0
526 0
780 0
720 3 0
152 507 0
122 0
89 0
247 0
966 0
150 0
227 351 0
631 0
780 0
364 0
809 899 0
29 0
778 974 0
984 542 0
125 0
587 627 0
970 732 0
93 0
323 0
11 0
938 717 0
266 604 0
60 0
885 469 0
456 0
750 0
553 389 0
770 0
180 0
661 0
331 0
272 0
234 0
626 549 0
788 0
752 0
749 606 0
578 935 0
784 0
506 0
953 0
698 318 0
743 0
60 0
59 0
155 0
827 0
64 6 0
946 518 0
601 0
846 0
428 0
458 0
549 711 0
662 0
108 774 0
303 0
648 0
799 0
491 172 0
264 0
861 781 0
817 0
56 998 0
870 0
325 0
263 0
203 0
99 0
820 0
338 731 0
57 0
12 0
921 319 0
553 0
620 0
402 0
405 0
816 0
554 0
186 718 0
305 0
848 108 0
816 348 0
298 0
457 471 0
441 0
973 0
450 0
802 947 0
340 0
824 0
113 578 0
231 0
683 759 0
887 0
22 0
65 347 0
298 812 0
307 0
356 0
432 341 0
341 246 0
883 155 0
715 564 0
645 0
129 498 0
668 0
440 0
674 380 0
905 0
544 368 0
291 0
160 0
420 0
668 0
852 0
928 0
266 0
36 0
231 0
661 0
739 462 0
821 0
16 662 0
237 965 0
170 741 0
348 0
802 742 0
939 0
651 0
187 0
874 550 0
988 101 0
328 270 0
63 0
199 0
665 918 0
425 708 0
422 0
957 159 0
784 0
285 0
821 0
451 0
169 781 0
386 0
761 614 0
619 487 0
86 0
745 0
183 0
793 546 0
592 0
138 814 0
162 0
69 0
100 0
106 621 0
195 0
995 0
122 370 0
447 0
158 0
830 0
340 0
155 935 0
507 0
219 0
680 834 0
699 0
14 0
496 0
371 0
955 0
252 0
938 0
213 0
352 0
699 871 0
380 0
128 723 0
739 0
61 0
9 355 0
507 0
585 826 0
793 281 0
216 234 0
500 695 0
851 0
65 0
990 0
803 0
72 0
706 653 0
536 172 0
668 0
423 0
954 0
723 0
889 0
593 0
814 0
944 0
362 0
870 839 0
924 0
406 495 0
858 0
544 276 0
61 127 0
179 0
865 0
438 0
251 0
396 0
930 0
598 0
506 358 0
421 0
680 0
479 0
942 0
793 0
84 0
864 0
977 0
67 334 0
646 0
740 15 0
47 0
500 0
700 0
601 0
696 0
253 774 0
842 0
369 913 0
1000 0
784 242 0
873 954 0
333 303 0
725 0
45 0
610 957 0
641 0
865 735 0
936 434 0
21 662 0
132 0
790 0
813 0
837 895 0
256 0
59 484 0
144 0
209 0
251 0
361 235 0
396 93 0
848 0
257 0
118 0
589 0
545 0
658 122 0
614 942 0
936 17 0
784 655 0
693 0
684 0
240 110 0
897 0
619 940 0
574 0
937 691 0
644 0
412 0
162 0
705 774 0
882 0
401 444 0
16 429 0
387 0
409 0
607 0
318 0
976 130 0
273 0
984 689 0
505 0
148 0
813 199 0
708 621 0
177 468 0
447 0
47 0
184 505 0
915 676 0
80 0
655 0
663 0
900 0
386 887 0
548 0
689 162 0
12 223 0
81 0
180 0
467 917 0
431 0
615 0
818 46 0
972 503 0
324 0
918 263 0
690 490 0
147 0
449 0
398 0
208 0
994 111 0
194 0
974 0
525 437 0
805 0
750 0
209 34 0
713 0
939 0
398 0
883 0
699 0
344 131 0
279 0
577 129 0
576 0
456 811 0
875 94 0
722 0
236 0
384 0
857 0
834 0
60 0
381 0
324 0
697 676 0
480 893 0
178 0
793 0
254 0
32 254 0
403 0
600 0
213 0
490 763 0
57 55 0
863 0
221 0
677 0
434 284 0
474 356 0
482 0
925 942 0
57 724 0
444 119 0
408 0
988 0
922 0
822 0
146 983 0
559 0
343 0
808 0
372 0
793 84 0
657 191 0
849 565 0
184 0
199 0
905 670 0
900 95 0
555 0
488 0
985 0
760 754 0
448 299 0
875 0
957 0
205 551 0
996 0
874 0
401 0
742 0
974 0
241 0
313 684 0
271 0
136 0
328 0
823 0
555 0
234 0
359 0
892 0
891 709 0
86 790 0
261 0
932 663 0
106 61 0
842 836 0
434 274 0
866 0
183 0
624 14 0
740 0
592 73 0
756 0
469 0
594 0
532 77 0
89 11 0
420 0
673 0
620 0
50 319 0
309 0
472 0
478 0
36 0
414 0
960 485 0
939 0
665 633 0
682 198 0
800 273 0
481 410 0
154 0
728 0
208 0
667 0
368 0
838 0
311 0
686 0
890 919 0
953 0
79 0
55 0
300 862 0
921 0
434 891 0
863 0
702 0
95 0
295 0
263 0
209 0
303 0
569 214 0
557 0
9 0
361 0
139 452 0
881 0
275 731 0
70 0
48 0
895 0
763 0
84 836 0
68 118 0
722 757 0
595 783 0
732 0
940 0
22 0
795 0
654 0
365 0
894 0
659 983 0
142 0
538 0
767 0
78 0
221 0
918 0
621 0
835 0
684 0
564 0
746 469 0
877 637 0
137 550 0
592 0
579 0
532 0
938 533 0
137 306 0
921 0
349 670 0
403 510 0
989 838 0
8 478 0
960 0
599 0
891 0
70 0
878 0
342 0
265 781 0
450 47 0
737 187 0
434 0
75 0
648 0
636 540 0
739 0
452 5 0
480 0
906 0
840 302 0
380 0
934 247 0
692 0
485 0
864 0
36 0
189 0
316 0
987 303 0
55 0
345 782 0
37 150 0
214 615 0
806 0
810 883 0
411 0
411 395 0
785 0
394 676 0
237 0
637 0
183 0
826 0
982 0
400 393 0
709 0
840 885 0
384 211 0
923 0
796 0
546 966 0
170 0
264 0
248 0
580 0
26 786 0
635 0
915 0
688 0
496 786 0
420 0
943 0
457 0
285 0
673 204 0
654 0
792 966 0
44 62 0
327 0
620 0
62 0
310 0
68 0
876 0
81 499 0
616 435 0
252 0
549 0
197 0
5 0
563 620 0
923 0
912 0
621 157 0
600 952 0
208 973 0
106 884 0
306 180 0
97 0
292 0
439 0
34 0
923 668 0
400 0
954 0
596 0
63 0
462 0
207 0
411 0
449 0
242 0
243 0
448 693 0
257 0
117 751 0
441 975 0
783 0
576 0
265 161 0
597 0
228 0
961 538 0
607 0
305 0
804 0
530 0
464 0
770 812 0
244 0
146 911 0
689 0
282 0
186 0
504 0
732 0
424 0
395 444 0
224 580 0
961 0
656 441 0
676 0
723 0
991 0
192 168 0
591 0
989 0
307 0
399 0
665 0
433 92 0
84 0
518 0
699 748 0
827 0
772 0
190 0
170 0
698 0
453 0
460 0
618 245 0
48 904 0
396 13 0
107 0
210 938 0
734 0
285 918 0
836 0
299 631 0
714 771 0
299 628 0
26 0
808 341 0
812 895 0
584 0
492 0
378 653 0
750 0
307 332 0
717 0
552 53 0
597 358 0
554 0
332 0
625 0
889 0
974 0
718 0
113 60 0
433 771 0
678 54 0
500 0
996 781 0
971 0
907 894 0
453 0
101 0
616 18 0
716 0
618 11 0
923 0
105 0
105 0
238 0
350 0
684 719 0
672 155 0
352 0
198 0
545 385 0
745 0
866 0
25 979 0
994 0
183 0
48 0
49 0
743 0
121 844 0
2 0
502 0
332 0
247 0
280 0
857 511 0
712 0
912 0
291 0
2 348 0
960 0
542 0
412 0
73 0
794 148 0
130 0
796 0
499 820 0
567 0
696 0
364 0
656 555 0
445 0
625 70 0
511 0
171 983 0
253 0
996 0
263 0
738 0
243 0
21 0
226 0
601 198 0
475 509 0
378 0
157 0
192 395 0
784 412 0
320 0
317 638 0
344 0
10 0
596 838 0
198 0
974 0
832 468 0
872 0
823 0
138 869 0
784 5 0
698 0
499 0
967 0
562 0
406 847 0
160 0
453 0
595 0
352 329 0
658 772 0
295 0
24 252 0
365 0
201 0
936 538 0
875 0
940 677 0
986 0
47 0
32 0
142 0
390 0
674 0
825 0
335 0
466 356 0
994 0
341 0
665 0
2 0
857 62 0
845 0
859 588 0
982 0
682 412 0
336 0
600 0
866 525 0
638 0
515 0
779 357 0
606 0
94 0
874 0
13 0
972 0
870 0
886 0
129 0
673 0
904 0
971 0
849 0
392 0
662 0
217 276 0
632 0
728 0
195 0
807 0
168 0
357 0
672 0
384 0
523 806 0
113 0
163 0
201 711 0
988 0
767 0
625 0
514 0
436 0
910 0
163 0
570 0
534 239 0
506 307 0
525 0
321 749 0
33 0
152 0
857 0
814 0
129 0
505 230 0
856 691 0
792 0
325 0
249 0
404 356 0
592 161 0
965 0
563 0
765 0
412 0
685 0
465 669 0
119 0
521 0
267 499 0
184 0
291 0
62 0
289 0
353 667 0
404 0
246 0
720 0
552 0
889 0
983 0
920 831 0
387 0
142 959 0
626 187 0
700 0
649 308 0
128 85 0
485 0
972 0
385 6 0
345 0
694 551 0
99 0
200 0
657 0
776 0
938 0
315 0
272 193 0
806 0
261 0
992 0
870 0
317 0
644 0
497 0
744 5 0
255 0
734 0
251 0
367 0
604 0
845 639 0
347 403 0
655 0
780 614 0
967 0
606 0
616 541 0
377 0
665 854 0
154 492 0
979 0
145 323 0
779 365 0
844 0
713 0
694 0
17 0
301 0
638 0
300 0
754 467 0
112 181 0
983 0
612 0
132 0
577 782 0
632 758 0
433 0
320 891 0
957 0
888 683 0
138 0
162 0
724 726 0
994 0
477 0
5 0
183 0
460 0
437 0
780 527 0
729 0
44 0
57 450 0
162 0
222 0
118 0
765 189 0
52 574 0
96 109 0
441 533 0
707 0
317 30 0
379 0
802 0
2 0
549 0
224 409 0
130 482 0
868 790 0
761 481 0
356 22 0
854 0
271 0
905 0
224 104 0
166 0
434 0
154 0
419 503 0
391 0
285 0
722 0
698 351 0
546 0
909 0
370 476 0
125 0
826 0
13 0
703 0
153 0
757 943 0
68 0
110 0
915 927 0
211 0
728 425 0
939 0
793 0
472 0
810 0
714 637 0
892 0
840 776 0
552 951 0
424 725 0
267 0
519 0
616 0
920 0
864 318 0
65 0
232 481 0
945 914 0
103 0
412 0
415 0
576 0
332 0
811 0
459 0
174 0
580 0
711 0
56 558 0
224 0
60 678 0
774 0
834 573 0
275 437 0
987 0
388 0
266 756 0
48 800 0
555 431 0
462 0
104 0
58 0
506 0
96 856 0
730 414 0
204 0
202 538 0
644 0
489 0
950 0
589 62 0
700 0
173 0
928 246 0
692 0
315 638 0
834 0
400 0
741 0
188 13 0
155 845 0
582 0
724 814 0
290 0
954 939 0
228 0
289 0
226 0
156 0
200 255 0
408 387 0
931 0
361 0
668 0
446 0
128 0
456 0
999 0
538 0
791 0
88 432 0
24 842 0
547 813 0
675 0
156 0
256 0
894 0
765 573 0
553 0
64 0
634 0
996 0
49 0
750 0
91 23 0
904 0
169 0
898 0
538 643 0
783 0
273 731 0
973 0
97 0
135 0
269 0
969 0
474 0
748 0
498 59 0
977 881 0
396 604 0
523 0
907 0
165 310 0
812 0
25 0
220 0
262 0
153 0
791 0
595 931 0
474 159 0
528 0
355 0
426 157 0
131 0
2 0
82 0
590 0
807 0
394 0
244 455 0
895 0
826 0
697 0
176 6 0
300 0
585 478 0
84 0
483 0
29 134 0
833 0
688 53 0
326 0
52 311 0
382 0
995 0
28 0
227 398 0
232 196 0
848 957 0
82 0
1000 0
190 0
342 0
848 22 0
684 0
891 0
792 0
210 595 0
416 0
435 0
806 0
495 0
797 0
45 0
533 0
357 0
169 987 0
208 0
57 0
292 0
932 503 0
798 0
12 831 0
724 0
122 0
852 0
198 838 0
617 0
540 0
433 486 0
428 0
872 0
37 926 0
685 0
501 0
346 0
835 0
787 0
120 409 0
824 0
874 239 0
728 0
706 746 0
201 188 0
740 0
168 133 0
975 0
591 0
929 543 0
124 0
823 0
90 555 0
57 746 0
923 0
401 581 0
73 0
556 0
906 0
49 0
383 0
571 151 0
579 582 0
660 0
51 0
312 199 0
771 0
898 836 0
560 451 0
715 0
780 525 0
720 966 0
415 0
410 335 0
338 396 0
147 790 0
401 227 0
423 0
745 803 0
773 0
128 0
445 686 0
149 0
369 0
402 211 0
892 0
267 295 0
58 101 0
771 0
399 0
704 444 0
894 0
605 0
745 0
148 621 0
278 0
355 588 0
291 0
756 0
806 0
266 0
660 0
790 0
566 0
305 0
626 0
193 362 0
204 0
665 0
177 441 0
755 0
156 0
928 125 0
236 0
331 0
352 313 0
882 0
446 734 0
392 0
281 0
781 966 0
96 689 0
518 0
384 0
586 47 0
760 0
528 0
751 0
653 0
960 295 0
588 0
399 0
447 0
144 0
221 399 0
813 0
929 0
427 700 0
532 0
929 0
540 0
428 0
886 238 0
39 0
287 87 0
950 0
891 0
605 0
661 0
115 0
394 0
627 0
704 385 0
248 0
236 759 0
286 0
758 0
162 0
387 853 0
460 0
830 0
528 847 0
443 757 0
647 0
425 0
816 0
141 0
16 335 0
941 0
193 0
863 0
876 0
242 0
161 0
255 0
552 0
453 0
401 0
854 0
68 0
222 0
51 871 0
782 0
845 0
892 695 0
483 0
369 869 0
560 701 0
145 886 0
796 998 0
140 0
17 606 0
225 0
150 0
547 0
928 627 0
83 844 0
436 0
909 134 0
507 0
289 0
154 0
172 0
303 0
105 0
624 893 0
93 0
362 324 0
274 0
22 0
927 0
543 0
834 0
645 0
635 791 0
520 345 0
740 0
601 0
588 111 0
184 291 0
107 477 0
289 0
255 0
589 0
583 0
178 0
489 141 0
902 0
168 660 0
720 0
645 502 0
58 0
997 733 0
562 0
193 0
946 659 0
199 0
601 652 0
128 0
65 719 0
281 259 0
749 0
688 0
341 0
529 428 0
265 0
677 445 0
49 0
746 27 0
924 0
672 0
499 0
36 0
216 898 0
38 0
477 0
417 756 0
43 0
986 831 0
341 158 0
162 0
233 859 0
159 0
104 0
925 0
850 0
684 0
334 0
619 0
4 0
515 0
621 0
318 0
390 0
109 0
909 0
567 0
930 0
946 0
606 0
427 0
978 0
860 0
553 0
854 0
275 0
611 659 0
67 619 0
340 207 0
353 75 0
303 0
513 0
677 758 0
180 0
917 0
776 990 0
329 431 0
527 0
102 0
555 0
322 0
532 933 0
88 0
741 87 0
379 0
819 0
420 0
851 773 0
84 0
997 0
482 0
169 607 0
968 0
805 0
126 918 0
791 0
96 0
89 0
438 0
820 0
680 0
556 0
979 69 0
766 0
349 895 0
142 703 0
809 572 0
342 0
235 0
395 0
529 0
338 572 0
354 0
761 0
562 388 0
699 0
644 0
825 0
538 0
681 139 0
64 0
238 0
923 0
737 0
101 0
544 825 0
320 113 0
132 0
160 0
588 0
782 0
32 538 0
721 0
596 0
982 0
827 0
110 375 0
40 0
557 0
164 0
593 0
426 106 0
166 0
829 0
461 0
771 0
236 0
701 0
384 365 0
62 0
605 22 0
368 231 0
423 7 0
632 399 0
762 365 0
128 627 0
265 0
931 0
305 0
769 0
18 0
122 0
946 0
112 0
280 0
840 0
339 239 0
712 0
113 37 0
530 0
815 0
81 0
78 0
567 0
350 0
164 0
313 0
360 0
850 0
689 0
529 0
967 0
590 0
978 0
494 0
276 0
469 0
196 277 0
648 0
816 64 0
57 700 0
843 0
922 0
825 0
442 711 0
632 53 0
27 0
899 485 0
576 399 0
159 0
341 983 0
558 0
582 0
658 875 0
432 239 0
579 861 0
358 759 0
451 0
521 735 0
677 0
373 0
270 0
964 0
298 868 0
77 0
132 196 0
192 513 0
187 165 0
909 159 0
431 0
47 0
592 721 0
16 0
258 0
72 564 0
387 0
375 0
687 0
747 0
148 670 0
864 0
649 318 0
440 602 0
828 0
88 503 0
621 0
306 0
246 0
199 0
428 0
84 0
987 766 0
665 0
585 0
881 86 0
712 0
827 0
488 0
584 0
325 0
549 0
448 751 0
993 658 0
395 0
120 514 0
79 0
913 623 0
678 831 0
967 0
580 518 0
976 0
966 519 0
264 0
971 271 0
332 0
515 0
992 0
589 0
568 0
747 189 0
993 859 0
942 0
98 212 0
734 943 0
691 0
328 458 0
572 0
196 134 0
175 0
97 572 0
760 289 0
431 0
200 98 0
506 436 0
672 0
579 0
35 0
499 0
443 0
773 0
772 206 0
315 0
134 0
536 0
344 223 0
917 0
913 0
280 211 0
207 0
422 0
106 188 0
727 0
545 549 0
351 0
55 0
549 0
962 0
91 230 0
150 0
517 0
928 0
198 0
336 618 0
472 868 0
814 0
154 197 0
724 847 0
628 0
973 93 0
875 699 0
389 0
879 0
907 918 0
994 431 0
415 0
810 0
881 402 0
770 487 0
563 0
200 0
484 0
784 357 0
731 491 0
741 0
439 0
337 0
343 0
64 449 0
156 0
105 0
735 0
516 301 0
711 0
551 383 0
436 429 0
358 0
209 0
251 0
769 918 0
227 0
255 0
486 0
134 0
396 0
170 0
982 423 0
180 0
935 0
221 0
792 70 0
368 792 0
596 0
364 0
505 0
696 211 0
401 0
60 0
452 0
232 0
608 0
270 0
78 566 0
292 0
844 0
1000 0
694 0
23 0
627 595 0
165 0
659 0
878 0
353 0
456 0
62 575 0
810 395 0
779 0
264 0
880 795 0
494 0
760 0
873 222 0
127 0
375 0
99 693 0
477 255 0
884 0
202 630 0
652 0
701 0
832 971 0
335 0
525 0
740 0
428 0
408 0
839 0
170 0
484 0
100 0
569 0
266 227 0
25 372 0
165 0
86 0
380 0
171 651 0
620 0
416 383 0
413 166 0
138 532 0
234 0
748 0
476 652 0
413 0
257 0
554 0
135 0
580 0
814 0
43 0
606 0
520 193 0
444 0
628 0
417 0
876 0
62 998 0
398 887 0
852 0
160 697 0
745 774 0
779 0
697 759 0
39 0
828 0
290 751 0
235 444 0
231 0
795 931 0
139 845 0
982 0
698 90 0
795 0
285 0
594 999 0
58 346 0
716 0
814 0
152 0
825 731 0
405 0
425 597 0
267 0
158 0
913 0
587 0
360 0
550 0
483 316 0
205 207 0
660 0
501 0
373 0
527 0
972 0
266 0
392 493 0
463 759 0
530 0
805 0
473 0
148 0
28 0
140 0
468 0
505 239 0
825 0
71 0
221 0
112 861 0
71 0
409 0
617 0
159 0
86 0
210 949 0
612 0
650 342 0
523 0
843 0
982 0
467 628 0
881 0
131 0
608 734 0
384 346 0
480 723 0
892 748 0
605 638 0
695 159 0
173 0
908 0
42 0
691 732 0
149 0
567 0
472 804 0
213 0
555 0
344 286 0
250 0
945 143 0
526 0
130 635 0
489 523 0
818 0
226 738 0
561 343 0
64 0
664 0
816 0
408 139 0
328 0
272 848 0
271 0
338 327 0
935 0
189 0
218 578 0
905 18 0
999 0
770 0
100 0
303 0
520 0
43 0
286 0
489 0
875 747 0
831 0
955 406 0
823 0
977 0
696 0
410 652 0
153 0
451 55 0
362 331 0
597 0
952 625 0
37 0
158 0
698 308 0
865 0
307 0
913 766 0
301 278 0
108 0
852 0
463 0
779 508 0
314 0
661 0
42 623 0
902 0
158 0
457 0
539 452 0
957 0
164 0
940 0
479 0
230 0
496 0
169 417 0
854 0
731 79 0
741 599 0
755 812 0
588 0
673 847 0
711 0
825 930 0
28 0
72 0
971 443 0
493 639 0
146 0
112 621 0
867 0
962 0
490 949 0
382 0
398 0
726 0
822 0
745 461 0
848 159 0
686 855 0
993 0
458 0
272 4 0
682 0
305 458 0
653 0
617 0
477 0
599 0
166 0
675 767 0
153 0
869 749 0
557 534 0
668 0
139 0
768 231 0
408 725 0
911 0
451 0
272 0
718 895 0
337 870 0
65 221 0
572 413 0
245 405 0
764 0
941 0
261 0
33 0
49 668 0
20 0
730 0
511 0
477 0
269 535 0
592 0
882 0
932 0
641 0
286 0
554 0
565 0
16 898 0
495 0
468 0
675 0
504 843 0
230 0
579 0
645 0
265 0
101 87 0
161 0
15 0
30 199 0
539 629 0
700 247 0
715 0
875 181 0
324 390 0
635 0
315 655 0
553 0
752 0
796 422 0
272 0
51 0
629 0
490 0
521 0
26 31 0
730 0
398 0
679 0
450 0
789 0
107 991 0
544 372 0
526 0
680 0
333 0
476 0
203 0
920 215 0
682 878 0
953 0
637 0
698 0
393 598 0
872 0
60 0
38 886 0
652 0
384 0
59 93 0
552 656 0
482 534 0
223 0
578 725 0
328 929 0
616 411 0
30 0
543 0
606 0
541 0
550 0
130 0
776 559 0
987 0
618 355 0
935 0
401 898 0
130 615 0
660 0
197 0
133 0
243 0
446 0
6 0
657 0
872 788 0
851 661 0
165 183 0
575 0
683 765 0
793 186 0
953 70 0
89 0
506 996 0
65 638 0
723 0
977 0
488 78 0
273 979 0
426 803 0
102 0
531 885 0
624 958 0
442 0
343 0
751 0
138 350 0
801 199 0
929 0
671 0
673 0
397 279 0
648 67 0
976 0
249 702 0
700 0
600 0
650 0
835 0
32 961 0
872 0
957 0
682 706 0
233 394 0
132 0
937 0
193 0
960 178 0
198 807 0
909 0
195 0
6 0
871 0
440 0
607 639 0
498 35 0
787 0
968 0
682 0
627 0
634 0
626 0
307 0
640 0
289 0
273 783 0
977 0
583 0
567 199 0
120 0
735 0
678 0
862 0
996 0
317 0
667 0
753 0
799 0
689 0
870 0
14 567 0
396 0
914 0
727 0
352 0
40 0
872 0
99 0
992 149 0
899 476 0
176 0
256 383 0
509 0
213 0
249 183 0
152 0
913 0
958 0
286 0
460 0
29 0
130 0
277 950 0
83 404 0
299 0
262 0
885 0
937 0
965 0
595 846 0
36 0
778 0
31 0
109 0
679 0
569 655 0
754 0
842 0
313 0
847 0
52 767 0
848 222 0
187 588 0
859 0
501 0
673 767 0
881 999 0
712 0
832 825 0
257 933 0
481 0
817 0
560 0
451 86 0
1 862 0
631 0
426 90 0
958 0
34 326 0
754 0
488 313 0
461 0
993 0
887 0
904 0
344 308 0
58 0
374 319 0
466 0
764 439 0
761 29 0
21 0
904 286 0
599 0
340 0
712 0
58 0
715 0
649 0
659 462 0
632 915 0
424 0
218 726 0
567 575 0
659 0
130 0
65 0
546 37 0
502 0
76 0
945 0
957 0
546 0
227 0
514 0
622 0
471 287 0
195 0
644 0
795 574 0
671 839 0
207 0
706 0
269 279 0
851 0
27 0
509 0
108 183 0
874 575 0
201 197 0
666 0
450 37 0
304 0
949 0
733 878 0
445 0
496 0
969 884 0
857 0
781 0
878 0
535 0
821 0
977 0
368 0
292 0
905 0
925 0
282 0
904 692 0
224 0
522 839 0
634 0
452 0
457 469 0
770 0
872 0
198 0
133 118 0
421 0
28 0
64 771 0
40 743 0
664 666 0
915 332 0
274 0
421 0
560 0
446 0
166 175 0
775 0
811 0
358 0
383 0
978 0
952 406 0
835 956 0
518 367 0
744 557 0
619 51 0
324 0
570 806 0
855 0
739 0
390 0
842 668 0
320 0
636 54 0
189 0
346 0
447 759 0
775 0
207 0
910 607 0
34 0
133 0
321 0
815 0
817 0
277 0
272 0
961 0
178 0
33 0
739 948 0
904 0
859 679 0
725 0
107 471 0
769 0
6 0
280 846 0
766 0
24 266 0
242 989 0
74 979 0
480 0
20 0
96 186 0
63 0
980 22 0
401 0
992 0
380 607 0
420 997 0
470 0
842 0
747 0
657 367 0
139 0
236 0
404 0
716 0
805 0
176 0
460 0
810 0
324 0
501 0
472 327 0
206 0
853 0
26 21 0
285 0
794 0
774 0
450 526 0
837 47 0
566 0
997 0
648 0
175 0
489 0
161 0
794 886 0
211 911 0
920 0
93 799 0
349 0
31 0
233 0
593 0
908 0
892 623 0
248 63 0
48 738 0
560 0
200 0
73 666 0
792 0
198 0
389 0
208 0
755 0
559 0
407 0
850 509 0
162 187 0
503 0
569 588 0
29 0
407 0
691 0
53 0
451 0
946 0
275 559 0
205 0
585 506 0
16 215 0
571 0
712 0
41 0
104 881 0
696 0
138 0
83 0
202 0
440 0
644 447 0
624 54 0
595 0
181 0
521 0
925 0
458 890 0
488 0
812 0
599 0
885 0
217 0
200 840 0
600 241 0
727 0
434 0
986 0
298 0
383 0
559 0
66 165 0
717 0
662 999 0
203 508 0
660 54 0
345 438 0
820 0
250 902 0
859 939 0
13 0
596 0
904 0
232 478 0
642 0
967 0
790 0
677 0
252 726 0
783 0
652 0
746 0
705 0
487 0
470 0
846 0
620 0
730 493 0
236 0
253 0
239 0
773 78 0
242 0
193 0
27 0
206 0
174 0
727 0
220 0
394 532 0
913 0
592 498 0
688 0
410 117 0
988 0
433 981 0
65 556 0
313 0
610 813 0
440 135 0
347 0
380 0
705 477 0
666 0
74 0
822 0
505 19 0
943 0
32 491 0
665 0
48 0
564 0
805 0
237 950 0
306 0
760 0
666 973 0
83 787 0
133 759 0
712 223 0
377 611 0
979 0
580 287 0
813 0
497 0
928 0
870 270 0
228 0
929 671 0
353 0
785 722 0
118 0
402 0
984 0
998 0
177 0
180 606 0
31 0
240 45 0
152 867 0
337 0
700 0
997 711 0
29 0
67 899 0
176 527 0
324 0
206 0
372 0
279 0
702 767 0
763 0
638 343 0
419 0
299 203 0
33 0
842 347 0
864 861 0
394 0
586 0
913 774 0
830 0
801 119 0
143 0
865 0
111 0
265 75 0
575 0
337 0
24 876 0
35 837 0
689 169 0
42 0
152 0
746 261 0
753 0
481 0
202 0
511 0
617 299 0
936 450 0
526 0
10 0
66 0
849 0
522 0
127 0
335 0
88 0
948 935 0
76 695 0
512 414 0
842 0
186 0
703 0
878 0
956 0
15 0
455 0
569 0
737 658 0
461 0
466 714 0
203 0
997 663 0
299 0
36 0
672 130 0
257 0
307 0
783 799 0
623 0
965 0
252 0
242 0
297 890 0
271 0
953 0
211 0
198 0
555 0
968 0
772 0
330 0
69 0
400 250 0
537 0
944 627 0
174 0
250 245 0
728 0
653 0
116 0
683 0
862 0
82 123 0
365 0
329 421 0
8 0
352 836 0
185 508 0
822 0
579 447 0
622 0
202 0
438 0
702 0
529 933 0
31 0
600 265 0
44 0
546 0
884 918 0
361 0
491 0
691 900 0
849 206 0
249 0
984 596 0
75 0
849 0
373 0
16 167 0
511 0
207 0
598 0
713 290 0
894 0
910 0
366 0
331 0
598 0
1000 0
183 119 0
59 0
745 0
495 0
478 0
570 908 0
427 0
848 0
805 0
911 0
624 671 0
279 0
980 0
705 214 0
114 0
265 516 0
276 397 0
769 260 0
765 0
618 0
357 0
46 0
555 223 0
838 0
916 0
225 50 0
91 0
986 804 0
304 769 0
876 0
787 0
58 498 0
906 0
769 0
850 827 0
348 485 0
602 213 0
947 0
243 0
713 0
430 0
741 0
1 539 0
497 29 0
728 0
590 0
216 893 0
176 0
987 0
524 727 0
515 0
618 0
3 0
592 0
880 0
997 0
125 0
715 0
255 0
667 231 0
885 590 0
697 843 0
565 0
121 0
337 229 0
731 0
133 0
904 252 0
574 0
689 0
377 665 0
900 0
765 0
821 495 0
917 0
921 0
894 591 0
951 0
966 0
802 114 0
952 140 0
491 0
113 0
661 0
944 0
818 206 0
492 0
843 0
455 0
176 971 0
547 0
116 573 0
896 367 0
650 854 0
376 902 0
432 0
716 0
826 0
609 0
563 0
878 0
147 822 0
376 75 0
63 391 0
281 117 0
339 0
560 0
731 509 0
370 315 0
878 0
291 0
179 243 0
969 0
776 940 0
183 0
311 0
567 0
515 0
824 432 0
185 0
130 0
399 0
691 0
780 0
407 0
466 917 0
655 0
928 0
256 680 0
152 636 0
571 83 0
123 651 0
618 0
870 0
928 0
178 0
298 0
388 0
873 382 0
912 385 0
825 779 0
77 0
554 0
916 0
620 0
108 0
762 660 0
352 0
727 255 0
539 0
938 439 0
218 0
942 0
813 0
872 0
570 0
257 229 0
74 683 0
678 0
700 591 0
539 0
215 0
578 0
804 191 0
423 0
143 0
624 722 0
480 0
172 0
831 0
496 819 0
571 0
328 0
361 0
816 185 0
824 771 0
387 0
437 941 0
940 724 0
620 0
325 0
510 159 0
208 994 0
643 0
387 0
573 0
482 0
993 0
538 0
29 847 0
924 0
892 0
368 426 0
441 289 0
818 0
782 0
935 0
639 0
379 149 0
582 0
145 0
883 0
713 0
80 985 0
385 0
154 0
728 0
515 0
162 0
641 0
794 0
840 0
966 0
740 0
663 207 0
322 0
547 0
524 0
744 58 0
457 0
954 0
953 939 0
787 0
29 0
1000 0
731 0
998 0
460 0
664 0
824 831 0
499 0
530 252 0
141 0
739 76 0
289 0
99 0
434 124 0
224 66 0
77 255 0
256 310 0
274 869 0
321 545 0
260 749 0
761 0
70 0
824 0
75 0
800 0
991 0
457 0
447 0
908 0
677 0
726 0
862 999 0
27 0
203 0
240 201 0
210 123 0
971 199 0
796 565 0
67 0
183 0
856 0
99 343 0
569 483 0
23 0
54 0
143 0
243 710 0
361 31 0
373 335 0
302 0
728 0
240 309 0
505 501 0
199 0
69 0
862 0
340 0
642 739 0
612 910 0
864 0
241 748 0
177 615 0
798 0
656 0
851 140 0
920 0
217 0
727 0
707 0
829 0
811 342 0
823 0
872 989 0
481 0
773 0
316 0
22 0
978 0
6 0
794 268 0
76 0
302 0
413 0
499 0
424 0
699 0
81 833 0
440 0
465 895 0
579 951 0
849 0
480 109 0
76 0
802 0
902 607 0
265 0
135 0
762 0
122 0
941 0
767 0
18 683 0
972 206 0
412 469 0
686 0
920 0
115 60 0
787 0
860 0
947 294 0
3 0
549 0
215 0
896 0
510 0
245 503 0
775 0
399 0
550 0
304 758 0
9 943 0
767 0
360 0
928 0
174 0
880 0
818 109 0
148 487 0
533 0
61 0
496 0
126 0
544 348 0
219 0
579 0
930 0
187 0
187 196 0
737 0
642 0
916 0
814 0
245 0
867 0
39 0
167 0
428 0
420 357 0
977 127 0
252 0
72 603 0
286 0
736 720 0
771 103 0
328 933 0
956 431 0
594 287 0
154 0
819 0
729 335 0
907 0
318 0
962 0
397 583 0
97 702 0
39 0
160 593 0
722 0
179 0
96 0
53 0
979 0
663 0
119 0
914 514 0
42 0
697 743 0
444 812 0
587 0
765 511 0
558 0
702 0
971 0
597 878 0
64 0
896 95 0
724 549 0
840 69 0
35 0
592 0
947 0
107 0
866 437 0
834 22 0
279 0
302 0
632 35 0
656 0
256 263 0
572 0
337 362 0
371 979 0
416 0
974 0
895 0
915 0
381 0
61 0
885 0
297 571 0
978 76 0
5 269 0
649 0
958 0
217 0
938 0
843 0
405 0
784 0
76 0
269 0
770 695 0
120 700 0
663 0
876 0
82 0
345 0
354 23 0
860 111 0
863 855 0
793 0
365 0
808 909 0
714 0
593 0
408 0
357 223 0
605 0
45 0
582 0
927 0
681 0
262 0
849 706 0
326 0
284 0
619 437 0
587 775 0
650 197 0
601 0
718 0
635 0
931 895 0
800 0
274 0
841 0
542 0
683 0
924 0
795 431 0
437 14 0
824 0
835 0
483 0
357 167 0
269 47 0
252 333 0
468 0
576 0
993 0
572 0
236 0
146 0
468 0
546 0
752 698 0
696 0
465 0
984 0
957 0
494 0
209 0
866 379 0
781 0
704 577 0
189 630 0
133 0
511 0
825 475 0
976 0
565 0
155 0
908 847 0
257 0
800 0
341 927 0
865 10 0
893 0
548 0
153 0
948 223 0
984 0
705 0
230 0
670 0
318 0
92 0
26 131 0
113 0
185 0
274 0
585 0
111 0
743 0
105 0
278 0
729 52 0
435 0
752 0
169 177 0
644 0
892 0
680 55 0
774 0
518 0
648 777 0
536 763 0
365 0
47 0
157 0
216 0
733 0
30 0
651 0
72 0
120 0
687 0
364 0
449 0
600 915 0
602 573 0
336 239 0
995 469 0
514 411 0
759 0
123 0
12 893 0
102 0
945 0
847 0
906 719 0
939 0
492 0
488 956 0
372 151 0
4 0
816 0
477 0
496 111 0
915 12 0
277 0
780 0
514 0
517 0
270 0
674 0
106 0
249 946 0
63 0
536 0
156 0
250 0
503 0
446 0
571 75 0
264 894 0
18 0
319 0
35 228 0
459 39 0
583 0
648 343 0
805 0
342 0
544 140 0
974 0
965 0
882 0
925 0
603 0
896 0
695 0
152 0
383 0
857 185 0
491 0
778 0
656 638 0
434 0
900 150 0
621 0
610 5 0
694 0
639 0
448 735 0
680 469 0
758 0
806 0
134 0
343 0
808 0
644 0
473 0
986 0
219 0
208 86 0
254 0
170 0
13 0
798 119 0
378 0
252 0
601 449 0
425 190 0
69 0
554 717 0
763 0
986 643 0
298 76 0
892 645 0
602 110 0
544 809 0
980 0
457 662 0
992 913 0
794 0
698 420 0
37 0
342 0
954 0
923 0
46 0
144 924 0
147 0
532 62 0
587 0
581 319 0
552 0
498 444 0
431 0
51 174 0
269 0
226 0
714 0
895 0
74 166 0
205 0
282 0
144 367 0
371 0
200 0
727 0
998 0
632 526 0
655 0
527 0
720 0
36 0
861 0
644 0
971 726 0
303 0
594 0
500 0
482 148 0
352 847 0
986 0
625 509 0
60 0
662 0
365 0
505 0
491 0
646 0
224 0
777 0
798 0
682 0
927 431 0
325 0
964 0
563 0
895 0
925 935 0
364 0
877 0
673 0
438 0
828 0
272 0
677 0
730 0
436 0
793 0
152 438 0
706 0
894 0
510 0
475 0
611 463 0
228 151 0
634 999 0
587 0
232 0
892 0
75 0
583 0
576 21 0
210 0
178 0
433 868 0
773 0
15 711 0
561 546 0
293 502 0
42 0
460 0
711 0
1000 0
166 0
200 959 0
247 0
241 397 0
147 686 0
610 518 0
278 0
523 0
488 0
714 762 0
265 0
572 0
481 757 0
608 981 0
104 0
498 0
844 0
458 542 0
423 0
705 0
711 0
124 0
767 0
697 100 0
344 0
649 0
201 883 0
597 0
38 0
619 0
821 0
686 0
532 0
330 642 0
304 599 0
40 733 0
410 0
89 0
162 180 0
917 0
773 0
518 0
491 0
436 789 0
562 0
978 547 0
81 0
490 0
281 522 0
251 0
554 243 0
594 0
637 0
482 0
494 0
924 0
986 0
622 0
256 867 0
927 0
474 303 0
335 0
903 0
72 141 0
193 787 0
805 23 0
618 0
53 0
274 0
769 0
114 0
62 0
475 0
546 0
368 947 0
812 813 0
736 0
263 0
496 932 0
95 0
500 0
728 0
465 47 0
839 0
202 0
767 0
858 61 0
258 812 0
946 0
172 0
824 0
211 0
817 0
530 0
794 0
8 28 0
687 0
820 0
812 0
518 0
682 0
985 0
880 33 0
873 78 0
189 910 0
499 461 0
791 0
909 0
968 134 0
32 918 0
203 103 0
404 0
212 0
44 0
730 0
424 587 0
9 541 0
416 0
739 0
884 607 0
467 549 0
678 0
332 0
469 0
634 5 0
71 0
938 787 0
930 0
938 155 0
681 854 0
513 0
731 0
509 0
922 0
229 0
944 53 0
653 0
488 0
927 0
753 0
47 0
273 0
224 0
273 723 0
528 0
430 0
396 0
615 0
702 0
270 0
423 0
584 864 0
88 0
746 0
266 0
176 0
209 446 0
628 829 0
763 55 0
522 0
788 326 0
279 0
800 101 0
605 0
829 0
508 5 0
496 569 0
27 0
698 0
101 165 0
3 0
382 0
498 0
2 0
860 0
199 0
531 140 0
167 47 0
765 0
16 0
396 0
155 261 0
44 167 0
845 0
125 886 0
5 0
72 0
277 0
120 687 0
66 0
276 0
524 78 0
564 0
302 0
131 0
267 0
424 0
650 695 0
843 0
551 0
734 0
554 519 0
714 0
901 0
764 485 0
581 0
996 0
355 813 0
23 0
587 0
1000 0
737 0
922 453 0
848 0
568 0
441 518 0
436 0
71 0
992 918 0
105 927 0
996 407 0
777 642 0
166 0
45 198 0
291 0
903 415 0
975 0
357 503 0
653 0
393 0
283 0
218 292 0
713 0
479 0
233 0
314 285 0
145 0
265 0
396 0
794 100 0
513 102 0
261 0
701 0
284 877 0
122 973 0
328 36 0
335 0
275 0
850 0
280 715 0
980 0
688 0
792 397 0
229 0
153 527 0
95 0
793 247 0
37 0
451 0
554 691 0
967 0
895 0
787 236 0
72 827 0
904 0
483 982 0
977 461 0
370 526 0
512 0
355 742 0
325 758 0
774 119 0
290 446 0
499 0
833 781 0
635 0
440 0
571 0
256 0
705 790 0
765 0
942 0
459 759 0
765 0
683 0
551 0
215 0
824 0
471 0
977 925 0
640 76 0
216 433 0
638 0
970 259 0
482 0
248 905 0
385 0
612 743 0
244 0
652 0
872 515 0
505 0
970 475 0
16 387 0
169 0
984 992 0
211 695 0
33 0
63 0
141 255 0
390 0
122 439 0
714 750 0
397 0
808 40 0
357 0
656 0
648 319 0
115 0
133 0
265 0
477 0
228 0
545 734 0
32 0
679 0
720 0
733 0
482 271 0
196 0
611 772 0
361 702 0
794 0
582 0
41 0
115 0
210 315 0
201 445 0
552 382 0
778 0
695 0
429 0
906 707 0
84 0
522 366 0
632 0
678 0
750 0
162 0
627 604 0
446 0
660 0
817 53 0
476 190 0
654 0
899 0
864 0
802 0
562 0
121 890 0
961 18 0
681 183 0
752 965 0
170 22 0
136 189 0
750 0
11 541 0
929 131 0
459 0
498 0
3 702 0
488 0
503 0
65 0
965 462 0
480 0
735 0
378 0
145 0
870 0
169 0
511 279 0
838 0
193 0
361 387 0
153 0
158 0
726 943 0
934 0
541 0
993 0
473 818 0
113 214 0
593 84 0
763 0
794 0
141 0
446 0
711 0
698 0
173 0
322 0
610 283 0
506 0
544 7 0
459 0
282 0
216 620 0
67 0
759 0
911 0
888 247 0
848 0
803 190 0
498 0
181 703 0
211 0
136 0
585 556 0
357 0
61 854 0
224 0
16 0
306 564 0
196 0
784 0
21 0
41 807 0
992 0
842 362 0
247 0
742 0
59 0
90 0
298 507 0
939 243 0
680 0
435 0
744 0
910 0
7 0
729 0
628 397 0
37 0
514 0
170 0
339 327 0
966 0
98 0
322 0
916 527 0
841 0
967 975 0
962 166 0
2 522 0
772 6 0
389 342 0
858 0
104 0
293 0
668 0
716 877 0
358 0
113 0
755 0
408 0
681 582 0
898 0
525 0
377 0
627 0
532 926 0
402 0
552 0
954 151 0
559 0
323 0
914 0
924 0
171 966 0
306 0
406 0
655 0
705 0
12 0
356 0
255 0
101 0
756 0
919 0
370 0
573 413 0
165 0
699 892 0
865 0
419 0
680 0
653 0
913 0
912 0
746 0
96 0
710 0
922 0
353 223 0
206 0
957 0
677 0
371 0
31 0
806 0
992 977 0
207 0
777 0
611 0
454 342 0
690 0
848 899 0
439 0
233 0
832 763 0
26 87 0
322 0
943 0
35 679 0
972 533 0
382 975 0
841 0
861 0
207 0
28 0
786 910 0
632 939 0
797 0
618 676 0
54 0
523 783 0
731 0
372 844 0
278 0
350 0
775 0
459 943 0
947 877 0
689 950 0
634 91 0
285 638 0
302 0
889 0
475 860 0
584 985 0
69 0
530 0
45 0
933 0
387 412 0
418 343 0
296 161 0
578 0
641 0
500 0
178 0
905 519 0
2 782 0
438 0
504 20 0
148 0
472 0
816 78 0
90 0
104 0
911 0
741 0
909 0
60 0
888 0
771 0
373 831 0
207 0
725 598 0
243 205 0
554 707 0
976 0
832 960 0
942 0
937 207 0
680 0
240 0
788 183 0
286 263 0
567 0
867 0
752 0
91 87 0
794 0
458 0
660 0
762 0
840 470 0
374 0
820 78 0
897 0
324 821 0
153 0
420 949 0
983 0
789 0
304 0
14 0
810 110 0
509 0
318 0
403 807 0
10 0
248 0
512 0
412 485 0
11 0
524 0
745 0
832 497 0
538 315 0
766 0
648 0
257 0
939 0
250 0
825 210 0
802 0
984 0
407 0
956 0
51 0
223 0
211 830 0
87 0
138 0
319 0
499 0
297 0
186 0
18 37 0
601 0
386 0
635 0
814 0
46 0
154 999 0
476 0
257 0
967 0
843 0
254 0
614 758 0
113 0
775 0
529 309 0
570 43 0
397 0
965 0
438 0
450 693 0
382 0
776 588 0
750 0
270 0
869 0
593 0
374 0
626 893 0
385 74 0
736 0
289 0
769 0
829 0
708 0
825 0
668 0
644 951 0
412 0
576 0
238 0
452 556 0
474 811 0
226 594 0
762 0
396 0
906 0
675 0
63 0
354 0
437 0
205 0
762 998 0
51 667 0
419 0
559 919 0
469 0
914 0
527 0
602 0
550 0
787 389 0
442 0
53 214 0
391 0
628 0
891 532 0
439 0
311 0
505 0
869 0
490 0
128 852 0
87 0
574 583 0
724 0
849 639 0
735 0
97 226 0
888 0
916 0
232 0
668 318 0
459 452 0
17 0
589 0
881 734 0
110 0
919 0
504 222 0
944 688 0
203 0
188 0
226 0
332 238 0
221 0
567 0
726 0
805 751 0
354 389 0
66 311 0
93 0
382 0
601 995 0
296 861 0
750 0
374 150 0
981 0
418 108 0
423 0
623 0
79 0
520 0
5 646 0
48 0
240 0
328 0
724 0
130 0
178 0
639 0
866 964 0
280 0
133 0
506 662 0
718 0
444 0
697 0
18 0
756 286 0
10 0
329 0
394 0
32 0
45 0
285 0
833 0
401 0
994 943 0
942 0
946 855 0
636 0
753 981 0
625 893 0
218 347 0
629 655 0
974 927 0
458 0
707 0
684 12 0
471 0
731 0
856 642 0
861 0
744 0
716 0
853 0
498 0
287 0
611 0
336 553 0
570 60 0
923 0
223 0
386 0
601 0
746 0
957 374 0
382 0
329 605 0
354 0
8 0
962 0
435 478 0
466 0
430 0
339 0
880 0
42 0
746 741 0
585 0
721 0
923 422 0
783 0
63 0
450 0
759 0
753 443 0
626 591 0
343 0
915 475 0
833 0
92 0
331 0
80 63 0
625 0
870 0
92 0
5 0
39 0
711 0
464 179 0
117 0
348 0
552 0
619 0
401 0
817 662 0
900 0
165 0
627 0
365 0
158 0
568 287 0
153 0
240 815 0
326 982 0
441 855 0
264 348 0
253 0
98 0
932 0
809 0
420 0
888 0
778 0
616 487 0
152 399 0
413 0
601 858 0
331 0
24 0
495 0
137 0
222 158 0
405 0
783 0
630 0
730 412 0
335 0
355 0
391 0
311 0
294 31 0
525 847 0
571 0
921 0
899 326 0
756 0
122 12 0
142 0
607 0
631 0
827 571 0
864 0
521 0
899 212 0
416 0
135 0
377 508 0
552 0
771 0
976 0
249 58 0
954 0
234 4 0
638 0
675 0
283 0
633 0
424 0
434 0
770 0
709 0
938 187 0
626 126 0
338 373 0
851 83 0
819 326 0
60 0
216 751 0
928 288 0
502 0
314 155 0
132 750 0
713 777 0
534 0
378 0
525 0
411 519 0
922 741 0
344 499 0
874 0
513 0
369 19 0
211 0
515 0
529 0
272 0
718 0
880 829 0
221 0
926 0
27 0
187 0
588 0
255 0
128 0
153 0
215 0
607 0
264 0
899 0
512 0
98 828 0
452 0
883 0
942 775 0
394 0
236 0
70 0
288 0
936 578 0
320 30 0
446 0
322 636 0
668 0
499 887 0
713 0
298 0
468 0
878 0
741 0
520 277 0
231 0
466 0
573 471 0
861 0
336 0
876 533 0
992 746 0
602 791 0
299 0
63 0
587 287 0
545 0
465 0
533 0
122 0
865 0
164 756 0
495 287 0
780 0
601 0
27 0
74 0
834 0
331 550 0
292 93 0
880 265 0
152 0
844 0
121 174 0
995 0
845 0
665 50 0
329 316 0
559 0
964 47 0
946 0
537 0
240 0
914 495 0
313 242 0
69 0
75 55 0
361 474 0
52 0
816 0
248 0
63 0
100 0
181 0
924 0
801 253 0
569 0
891 20 0
675 260 0
18 0
720 0
62 0
64 0
394 0
142 0
65 578 0
544 0
257 0
980 0
639 0
528 0
792 0
616 0
643 804 0
992 952 0
445 174 0
69 0
484 381 0
80 182 0
846 0
865 590 0
265 596 0
373 0
357 0
53 0
649 0
710 0
486 0
107 0
743 0
162 99 0
972 0
910 0
644 639 0
362 0
267 0
281 0
906 421 0
409 0
424 171 0
773 0
794 0
842 212 0
849 715 0
118 0
342 0
604 0
867 187 0
118 0
86 679 0
66 134 0
95 0
563 644 0
838 0
442 738 0
368 428 0
870 0
266 0
640 718 0
863 0
314 0
623 0
756 0
129 14 0
670 0
769 0
171 0
272 0
156 0
11 0
657 0
32 190 0
282 0
275 0
985 0
41 0
517 0
58 0
748 0
925 0
506 0
601 61 0
172 0
388 222 0
427 0
868 0
299 0
128 190 0
156 0
393 0
528 0
624 0
880 752 0
570 319 0
268 469 0
995 109 0
476 103 0
953 0
410 0
277 0
659 0
764 0
366 815 0
329 0
958 0
646 0
472 0
602 965 0
65 0
107 309 0
986 0
963 0
306 43 0
803 0
18 0
617 0
207 0
781 206 0
100 613 0
201 0
780 0
426 554 0
428 29 0
333 0
694 0
202 0
439 0
486 0
824 246 0
514 0
224 0
282 35 0
67 0
512 795 0
171 446 0
503 0
612 0
475 0
668 0
571 804 0
174 0
910 0
807 0
142 0
666 483 0
205 182 0
124 30 0
555 0
954 0
196 541 0
100 0
562 0
836 0
989 0
370 0
787 0
533 653 0
459 0
884 0
246 0
364 317 0
716 470 0
71 0
35 244 0
280 298 0
542 399 0
119 0
208 0
151 0
912 0
344 97 0
287 807 0
744 0
433 940 0
102 0
769 0
276 0
964 0
162 0
133 0
779 0
724 0
163 0
687 0
348 0
478 135 0
229 0
745 0
306 0
742 0
569 898 0
739 0
554 869 0
249 0
987 0
564 53 0
108 0
254 0
538 0
355 0
161 59 0
74 0
297 229 0
875 0
118 0
328 0
810 764 0
243 0
396 0
817 0
769 0
641 958 0
538 0
348 781 0
394 0
893 0
798 0
711 0
188 0
74 747 0
410 0
427 691 0
449 0
863 0
642 0
417 0
953 0
95 0
79 0
970 572 0
374 903 0
522 547 0
100 0
249 729 0
444 0
64 556 0
784 0
425 0
290 780 0
584 982 0
297 0
829 535 0
382 0
327 0
867 927 0
696 925 0
627 663 0
238 0
283 0
798 0
821 0
937 0
821 0
613 750 0
945 0
679 0
946 0
386 0
161 0
910 0
426 0
391 0
524 0
444 0
52 0
744 0
357 997 0
175 0
240 834 0
353 150 0
700 0
395 0
906 0
110 0
171 0
258 468 0
390 0
689 0
215 0
333 0
541 0
30 0
108 404 0
731 0
794 0
118 0
940 0
997 0
632 828 0
516 0
824 0
658 0
654 0
773 0
966 767 0
81 780 0
903 0
275 0
645 0
921 995 0
88 768 0
505 100 0
530 0
998 0
627 260 0
966 0
473 0
170 0
288 987 0
489 151 0
825 0
92 29 0
324 0
77 0
357 319 0
58 0
306 22 0
232 662 0
399 0
347 0
405 838 0
191 0
29 0
316 77 0
678 0
555 235 0
16 0
904 788 0
901 0
637 0
292 0
798 0
968 0
837 0
579 0
698 667 0
912 0
427 0
663 0
244 0
687 0
243 0
861 0
968 0
392 847 0
405 0
713 170 0
153 0
146 0
976 0
332 0
753 74 0
342 0
384 0
542 663 0
328 551 0
199 0
498 0
880 0
35 119 0
383 0
842 0
958 0
988 0
895 0
200 499 0
9 0
930 591 0
24 513 0
600 36 0
33 0
893 854 0
409 0
453 0
871 0
36 0
480 388 0
753 269 0
827 0
636 103 0
98 0
325 101 0
349 701 0
313 0
737 0
829 0
139 285 0
243 622 0
514 351 0
394 0
870 0
418 0
666 0
707 0
815 0
1 913 0
548 0
952 240 0
662 0
357 0
213 0
187 0
971 0
437 0
469 0
536 0
968 674 0
451 358 0
556 0
426 0
546 651 0
542 0
224 472 0
299 0
484 0
436 166 0
884 0
485 0
838 0
832 660 0
445 0
382 0
493 0
356 0
972 0
641 0
59 0
512 0
753 822 0
15 0
897 777 0
893 0
415 0
268 183 0
520 0
136 0
138 0
802 0
850 314 0
836 0
674 439 0
931 0
512 699 0
848 0
168 0
849 0
618 0
658 878 0
469 0
368 0
663 0
208 0
823 0
265 0
295 0
452 652 0
345 0
595 644 0
41 0
601 510 0
486 0
130 0
383 0
991 0
292 0
758 0
248 732 0
728 0
402 207 0
283 0
468 0
603 0
422 0
872 501 0
250 821 0
596 70 0
799 0
341 78 0
686 0
639 231 0
797 0
584 95 0
398 23 0
574 0
610 627 0
490 530 0
433 0
579 739 0
803 0
12 0
20 0
117 0
805 0
435 918 0
473 0
273 775 0
749 0
207 0
645 430 0
566 175 0
507 748 0
742 0
317 0
978 555 0
36 0
140 679 0
808 769 0
787 0
717 447 0
413 0
551 0
80 0
979 0
57 0
366 0
547 0
476 0
867 691 0
864 0
405 0
931 0
512 479 0
216 0
776 0
442 0
895 0
824 0
648 0
461 0
534 0
403 0
293 0
905 0
411 0
551 0
844 0
335 0
145 682 0
498 0
456 250 0
448 987 0
119 0
956 0
115 0
930 0
257 917 0
549 0
488 0
440 0
221 0
282 0
401 0
355 0
479 0
25 13 0
793 281 0
633 0
727 0
875 823 0
960 65 0
112 0
455 0
338 0
874 0
421 0
540 0
170 0
359 0
720 0
640 174 0
501 598 0
757 0
607 0
483 0
273 0
404 0
557 0
712 0
918 0
587 0
253 0
456 403 0
218 0
8 255 0
390 0
37 0
945 0
945 0
146 0
503 0
690 0
370 860 0
293 199 0
917 0
182 0
808 0
52 245 0
269 87 0
173 0
279 0
617 654 0
513 0
862 0
231 0
956 0
444 0
810 603 0
699 0
980 813 0
934 0
881 836 0
526 0
429 149 0
359 0
975 0
888 431 0
947 0
88 484 0
669 0
657 0
529 0
226 0
631 0
4 0
564 0
174 0
776 0
431 0
889 0
44 0
940 0
640 724 0
139 662 0
880 471 0
661 685 0
932 0
857 0
252 415 0
650 0
43 0
87 0
473 0
238 0
187 84 0
251 0
243 724 0
540 103 0
649 439 0
187 179 0
871 0
688 0
128 565 0
452 0
297 255 0
590 0
650 0
296 378 0
262 0
383 0
360 0
697 0
376 0
737 0
473 0
681 0
54 0
835 0
627 683 0
317 0
10 467 0
547 0
823 0
144 0
349 62 0
633 426 0
103 0
522 0
693 0
109 0
896 610 0
878 398 0
686 0
904 290 0
439 0
309 0
577 0
422 0
662 30 0
600 125 0
893 0
882 0
211 0
530 747 0
264 0
718 0
253 0
149 0
732 540 0
968 549 0
23 0
576 372 0
705 907 0
539 0
651 0
698 0
898 0
719 0
398 0
804 0
333 0
57 0
156 0
219 0
785 0
499 0
844 0
605 271 0
300 743 0
819 891 0
85 0
488 554 0
636 0
135 0
248 52 0
146 0
21 0
272 37 0
816 0
819 988 0
72 0
208 0
903 0
543 0
536 0
575 0
879 0
697 0
465 0
156 0
108 0
970 0
79 0
229 0
538 0
257 0
652 0
285 0
91 0
35 0
448 436 0
907 0
676 0
976 862 0
302 0
217 244 0
307 0
349 0
170 0
329 0
117 0
81 0
157 398 0
210 0
14 7 0
716 0
734 0
707 0
519 0
737 0
115 127 0
386 340 0
724 0
257 534 0
321 21 0
151 0
23 0
500 0
625 7 0
285 0
585 154 0
438 0
23 0
470 0
736 0
336 23 0
835 0
316 446 0
893 0
1000 0
488 0
357 527 0
89 0
698 0
916 534 0
501 79 0
134 0
777 0
290 0
992 414 0
746 0
24 0
772 0
671 0
891 0
92 0
604 0
848 0
522 0
922 0
473 0
290 0
906 0
89 0
205 206 0
260 0
751 0
691 516 0
320 0
94 0
110 0
566 0
128 0
153 803 0
122 326 0
852 0
117 0
329 0
618 367 0
864 904 0
847 0
281 452 0
482 0
831 0
532 0
723 0
965 167 0
680 453 0
835 0
383 0
740 0
319 0
898 620 0
712 717 0
453 0
898 0
835 0
131 0
746 916 0
216 0
561 202 0
600 0
66 734 0
186 0
495 0
180 903 0
514 0
457 620 0
174 951 0
592 0
84 678 0
182 0
483 0
313 687 0
338 659 0
691 924 0
337 203 0
35 0
27 527 0
185 0
995 0
743 0
487 0
797 0
610 0
496 0
525 933 0
226 92 0
939 0
118 0
593 0
286 0
382 0
707 207 0
975 0
243 0
829 0
146 907 0
760 709 0
553 0
705 410 0
142 0
522 819 0
303 0
10 676 0
368 62 0
456 669 0
536 0
648 0
597 638 0
379 0
395 15 0
411 0
66 0
602 74 0
231 0
105 0
254 0
570 782 0
390 0
979 807 0
392 915 0
87 0
662 0
538 0
713 0
664 0
377 0
260 0
808 769 0
536 0
986 0
613 0
87 0
149 0
215 0
160 0
60 53 0
970 902 0
840 0
239 0
368 0
585 0
609 0
424 825 0
889 132 0
644 0
66 339 0
361 0
767 0
144 150 0
303 0
192 0
889 381 0
505 782 0
511 0
366 0
495 0
791 0
358 0
753 724 0
870 575 0
808 493 0
237 918 0
998 215 0
960 873 0
967 735 0
621 981 0
496 820 0
522 479 0
778 0
272 251 0
784 702 0
735 0
584 0
65 0
850 0
772 0
641 499 0
420 950 0
611 0
355 0
600 39 0
856 987 0
419 324 0
47 0
146 0
942 0
43 0
816 0
418 0
167 0
722 0
664 83 0
425 523 0
93 0
938 437 0
263 0
590 0
541 901 0
297 531 0
96 0
67 483 0
948 0
818 0
463 0
377 0
331 0
759 0
127 0
735 0
827 5 0
586 639 0
602 0
573 0
993 0
111 0
351 0
22 0
713 0
158 0
56 0
984 42 0
480 0
254 0
721 0
83 0
373 0
456 415 0
559 0
189 526 0
986 370 0
639 0
378 500 0
86 0
395 0
584 405 0
703 0
232 863 0
625 506 0
251 0
867 0
470 135 0
402 0
624 904 0
886 0
719 0
900 0
713 140 0
933 839 0
384 0
689 0
933 0
666 863 0
644 0
67 0
319 0
122 0
518 0
99 931 0
889 0
490 451 0
198 0
401 458 0
574 0
64 0
539 814 0
983 0
393 811 0
740 492 0
388 0
427 195 0
529 3 0
120 0
204 677 0
97 0
671 567 0
433 0
694 526 0
952 555 0
385 0
163 0
273 0
332 797 0
563 0
128 0
293 0
579 667 0
773 0
528 0
499 0
796 0
519 0
230 0
784 0
759 0
340 0
27 845 0
802 155 0
597 0
176 47 0
830 0
164 0
44 0
158 0
936 225 0
921 0
592 530 0
133 94 0
482 359 0
848 0
282 0
731 0
399 111 0
385 0
31 0
928 155 0
148 0
843 0
462 0
137 0
454 0
8 584 0
243 541 0
738 0
525 0
436 0
597 0
926 0
995 0
912 0
662 119 0
557 0
351 0
923 0
154 0
898 0
701 0
692 0
651 0
888 123 0
982 0
991 0
379 0
581 582 0
5 6 0
817 476 0
541 0
112 0
625 0
837 590 0
652 0
74 0
333 510 0
608 628 0
898 295 0
377 219 0
755 0
263 0
809 0
331 230 0
667 70 0
205 0
338 903 0
47 0
542 0
40 0
708 0
828 669 0
605 0
712 164 0
905 0
42 0
236 37 0
681 0
118 0
88 0
428 877 0
876 0
833 0
321 0
952 203 0
353 0
120 0
216 0
712 0
578 870 0
860 222 0
322 164 0
205 0
345 91 0
647 0
528 84 0
466 950 0
353 0
383 0
101 0
848 0
739 916 0
791 0
170 0
976 65 0
464 288 0
743 0
503 0
984 0
499 0
295 0
647 0
32 0
545 343 0
381 166 0
188 0
717 0
513 957 0
307 766 0
609 0
359 0
580 726 0
207 0
628 0
833 351 0
992 0
996 0
286 0
770 0
60 173 0
688 0
323 684 0
627 676 0
657 370 0
609 0
730 0
102 0
579 0
940 0
100 0
729 0
516 0
657 311 0
30 0
258 717 0
977 237 0
402 660 0
928 0
904 60 0
474 106 0
975 0
465 68 0
221 0
90 0
586 695 0
732 0
45 0
332 0
676 0
189 0
50 0
392 370 0
789 0
856 317 0
531 0
21 0
2 0
228 422 0
765 0
8 0
601 301 0
474 931 0
203 0
379 47 0
128 0
570 341 0
213 38 0
438 0
333 0
376 875 0
705 0
833 187 0
972 0
648 282 0
254 0
598 0
58 0
190 967 0
545 748 0
133 614 0
395 0
705 0
481 13 0
813 0
942 0
658 883 0
858 0
865 627 0
165 149 0
182 0
152 968 0
304 0
492 93 0
874 718 0
461 119 0
798 0
161 0
416 0
400 645 0
878 0
528 0
114 724 0
350 0
160 713 0
930 0
35 901 0
154 630 0
493 0
291 0
41 0
909 0
847 0
799 0
523 0
248 0
211 0
500 229 0
485 614 0
114 660 0
597 0
586 631 0
490 0
206 0
419 0
446 0
536 0
397 0
304 879 0
177 0
202 0
888 341 0
19 0
699 580 0
781 37 0
603 0
511 0
903 0
945 717 0
910 0
444 654 0
861 247 0
890 0
137 0
236 0
274 0
770 0
802 0
955 131 0
253 855 0
796 0
937 0
872 0
912 0
506 0
854 0
769 0
734 0
335 0
70 0
745 973 0
485 0
695 367 0
916 0
962 453 0
37 0
794 0
418 0
233 0
616 915 0
581 0
776 902 0
387 406 0
89 563 0
322 0
573 0
169 0
725 0
104 43 0
891 0
637 0
972 0
559 0
550 0
197 0
614 0
392 968 0
872 0
620 0
795 886 0
918 0
902 0
752 0
221 799 0
957 0
885 0
566 0
444 0
423 0
754 0
605 735 0
553 0
120 0
953 0
40 92 0
985 0
834 0
316 0
748 0
979 694 0
313 0
49 743 0
936 0
220 941 0
440 0
972 0
172 0
965 0
215 0
857 219 0
544 0
902 0
49 0
914 0
90 812 0
326 0
145 0
66 0
427 150 0
202 0
750 0
428 0
554 948 0
105 0
981 0
369 0
733 0
703 0
714 0
654 0
401 26 0
712 0
508 0
186 0
681 0
138 0
331 636 0
888 0
177 485 0
65 0
89 0
458 0
740 0
216 0
282 267 0
657 0
148 966 0
335 0
680 0
140 0
763 0
595 0
420 0
626 427 0
320 538 0
537 0
136 618 0
867 0
227 0
712 993 0
187 0
314 0
728 0
74 0
330 431 0
162 0
590 0
890 0
933 0
590 0
857 315 0
44 0
102 0
72 972 0
586 927 0
208 0
165 0
11 278 0
70 190 0
175 0
241 0
877 0
564 661 0
920 318 0
176 627 0
64 341 0
842 610 0
464 324 0
284 0
784 0
27 438 0
928 704 0
728 116 0
140 653 0
977 0
602 67 0
606 0
897 742 0
772 0
73 0
986 0
701 0
762 838 0
586 0
324 0
443 0
609 994 0
607 0
91 0
769 0
972 0
345 0
807 0
152 0
866 0
464 721 0
326 0
578 996 0
914 995 0
750 0
33 0
381 487 0
571 0
917 0
865 946 0
208 0
242 0
832 565 0
326 0
588 0
408 0
180 743 0
597 0
958 0
236 0
284 0
957 374 0
752 830 0
455 0
818 0
640 0
429 0
932 0
904 913 0
197 0
154 0
208 830 0
457 855 0
434 556 0
842 525 0
563 431 0
694 735 0
179 0
292 0
477 0
632 0
666 0
193 0
730 0
724 0
710 0
240 823 0
576 51 0
446 0
22 0
490 0
971 311 0
723 0
533 0
901 0
816 0
146 644 0
877 0
31 0
749 0
361 0
647 0
183 0
750 815 0
453 0
770 0
981 998 0
288 0
980 0
872 0
947 0
131 102 0
492 149 0
258 0
746 636 0
895 0
9 0
133 0
322 599 0
723 335 0
656 145 0
910 191 0
851 263 0
771 0
838 0
670 0
896 0
257 76 0
974 0
378 0
216 186 0
236 0
761 0
5 0
851 868 0
710 0
328 666 0
213 0
204 0
588 0
878 0
207 0
636 0
932 0
13 0
101 0
800 0
633 566 0
589 0
808 537 0
833 79 0
810 253 0
756 0
267 0
989 509 0
201 0
288 402 0
779 0
545 0
157 0
567 0
141 607 0
970 0
882 0
196 0
687 0
915 0
42 0
146 974 0
955 871 0
569 0
211 0
263 0
821 0
492 0
176 0
852 0
783 0
298 0
996 0
684 0
931 622 0
704 0
681 0
655 0
578 0
893 767 0
809 0
66 0
115 0
150 0
856 0
411 0
795 551 0
331 0
580 0
430 335 0
857 0
153 182 0
746 853 0
972 653 0
504 0
150 0
166 0
70 0
502 0
681 0
75 0
613 0
139 502 0
884 0
666 899 0
380 0
651 0
469 0
730 0
458 0
782 0
157 0
518 0
224 569 0
26 0
23 0
437 398 0
225 0
448 0
151 0
956 0
398 0
474 263 0
19 0
313 6 0
970 0
856 0
137 251 0
272 428 0
213 0
131 414 0
473 0
67 0
566 0
321 0
566 0
834 0
456 0
188 0
739 0
503 0
680 418 0
122 0
44 0
845 0
611 972 0
192 0
528 341 0
919 0
620 0
674 0
233 0
657 382 0
58 0
828 0
237 533 0
497 255 0
106 0
514 389 0
566 0
51 60 0
635 0
858 0
974 0
9 0
739 0
422 0
861 0
652 0
355 0
525 0
617 115 0
845 0
923 0
899 854 0
283 0
832 0
416 0
664 789 0
917 0
101 0
531 0
673 61 0
526 0
127 0
949 0
970 0
721 0
976 0
313 0
893 0
917 0
425 0
837 909 0
826 14 0
273 827 0
398 0
85 87 0
760 0
537 0
642 0
421 95 0
625 671 0
810 0
148 589 0
153 0
981 0
604 0
140 0
440 0
492 525 0
912 0
314 0
658 0
116 0
850 0
893 294 0
804 0
189 0
856 476 0
31 0
698 980 0
528 127 0
81 915 0
657 0
664 0
80 280 0
489 916 0
144 0
445 0
761 342 0
81 857 0
142 102 0
570 0
989 367 0
657 933 0
169 0
354 0
893 0
765 911 0
349 61 0
624 0
989 0
932 0
274 0
441 0
747 0
360 0
5 0
372 0
847 775 0
128 348 0
185 0
356 950 0
485 0
723 997 0
221 0
306 405 0
422 0
790 0
726 975 0
384 455 0
436 0
789 0
24 628 0
760 942 0
38 0
715 0
810 0
794 0
425 0
300 0
661 0
693 0
475 911 0
912 197 0
66 502 0
494 0
486 0
242 279 0
433 0
137 0
122 0
292 0
632 0
908 0
185 0
477 0
292 0
392 0
213 0
171 0
833 785 0
900 501 0
226 567 0
230 0
332 589 0
745 626 0
812 0
752 842 0
48 0
429 0
198 519 0
31 0
993 0
304 0
855 0
886 0
228 0
147 0
268 927 0
633 243 0
282 28 0
579 0
146 390 0
565 0
561 0
771 0
228 62 0
817 207 0
345 386 0
219 340 0
11 669 0
144 195 0
140 303 0
289 228 0
149 0
697 0
355 171 0
437 0
867 0
394 778 0
907 899 0
113 438 0
51 0
264 0
763 0
628 0
32 402 0
612 0
681 0
641 611 0
321 0
581 0
411 0
274 0
465 0
504 306 0
568 0
792 0
174 0
986 0
963 0
482 0
692 0
721 566 0
146 844 0
744 249 0
514 260 0
576 0
39 0
162 0
888 41 0
800 931 0
205 253 0
882 987 0
237 0
387 148 0
970 991 0
811 0
120 763 0
717 0
389 0
754 0
167 0
681 499 0
284 0
938 251 0
490 467 0
143 0
67 0
238 0
262 0
385 292 0
516 0
209 693 0
600 0
470 0
307 0
699 205 0
311 0
867 219 0
736 0
90 0
667 0
841 0
627 0
937 0
987 0
43 0
537 279 0
24 452 0
515 687 0
751 0
421 0
17 747 0
328 0
619 292 0
802 0
714 571 0
164 455 0
640 0
189 166 0
683 711 0
597 0
889 500 0
561 0
644 0
857 57 0
152 0
624 0
247 0
438 0
801 0
334 0
537 375 0
787 0
621 0
275 0
658 0
702 0
184 844 0
843 166 0
940 0
14 887 0
907 0
571 0
890 0
700 246 0
812 0
279 0
184 382 0
253 0
128 416 0
591 0
784 39 0
923 0
799 0
726 0
960 0
651 0
532 0
911 0
570 102 0
745 0
553 445 0
900 815 0
150 998 0
197 0
693 831 0
859 438 0
82 0
881 781 0
275 0
273 919 0
353 0
880 456 0
4 0
260 0
180 0
912 800 0
735 0
129 0
876 0
672 0
585 0
815 0
729 0
45 0
429 0
199 0
682 0
888 0
938 0
370 389 0
504 423 0
91 69 0
259 4 0
312 547 0
712 615 0
968 0
914 0
3 0
312 965 0
917 0
94 0
537 0
720 181 0
972 0
218 723 0
409 0
579 221 0
59 0
16 504 0
598 0
576 399 0
969 0
225 989 0
361 0
270 0
20 0
940 0
424 930 0
752 921 0
521 11 0
45 503 0
204 981 0
615 903 0
744 0
298 0
259 0
432 69 0
157 262 0
701 263 0
753 412 0
289 0
37 0
932 397 0
375 0
172 886 0
292 0
439 0
451 876 0
252 0
95 0
352 409 0
72 841 0
858 0
658 0
270 0
691 532 0
249 53 0
692 0
179 0
10 0
73 0
670 0
917 0
724 0
370 900 0
575 0
961 37 0
811 0
377 530 0
706 541 0
490 0
501 0
656 0
820 302 0
199 0
953 0
918 0
330 845 0
510 0
707 966 0
240 0
206 0
860 62 0
974 0
120 0
837 0
713 0
211 0
933 0
750 0
487 0
163 483 0
972 852 0
699 0
932 0
72 608 0
99 0
98 93 0
798 0
642 355 0
462 0
115 845 0
165 0
179 0
558 0
576 0
473 140 0
806 0
240 0
880 394 0
772 0
796 0
802 0
879 0
881 0
213 135 0
687 0
955 0
439 0
205 0
248 88 0
758 0
835 0
879 0
328 0
43 118 0
893 0
373 695 0
555 782 0
195 0
53 431 0
168 0
141 0
144 0
41 507 0
851 0
162 900 0
48 166 0
112 412 0
828 0
203 652 0
746 54 0
225 0
548 0
353 0
345 36 0
915 620 0
375 0
314 0
387 118 0
853 719 0
120 0
136 0
607 0
36 0
877 0
818 0
329 0
533 0
197 0
782 0
624 156 0
694 0
476 414 0
19 0
832 0
528 0
62 0
820 0
410 0
378 0
35 957 0
395 797 0
536 0
714 0
5 0
897 0
4 0
483 293 0
552 885 0
766 486 0
507 0
188 0
840 710 0
706 738 0
455 0
217 0
176 135 0
139 0
805 0
916 0
447 151 0
88 0
1000 183 0
434 0
157 0
875 0
431 0
946 0
208 0
933 0
12 365 0
619 773 0
944 0
228 54 0
181 262 0
340 0
155 732 0
885 982 0
775 0
635 0
259 109 0
49 0
720 0
432 433 0
795 843 0
353 0
869 0
548 996 0
355 0
132 0
247 0
933 0
43 0
371 766 0
202 0
42 10 0
81 0
965 0
864 0
469 0
672 0
980 68 0
633 0
185 113 0
661 0
59 0
263 887 0
869 0
258 0
817 0
33 0
59 251 0
645 423 0
628 0
915 836 0
660 0
54 0
326 0
213 0
224 0
46 510 0
272 90 0
440 0
948 0
63 0
579 0
995 501 0
599 0
807 0
687 0
422 0
660 0
113 0
576 207 0
311 0
389 447 0
389 0
296 0
875 484 0
737 474 0
769 0
640 0
479 0
803 0
939 0
953 0
53 0
332 0
986 62 0
667 510 0
3 0
456 0
887 0
185 0
581 0
50 748 0
532 0
526 0
784 0
370 519 0
399 0
701 0
997 255 0
928 956 0
414 0
787 0
187 0
502 191 0
715 0
516 125 0
11 0
628 743 0
992 0
251 0
593 0
556 263 0
82 0
649 90 0
291 860 0
200 62 0
76 0
593 861 0
51 999 0
273 243 0
855 0
232 0
734 0
853 0
436 0
224 0
116 0
393 219 0
268 0
792 11 0
996 741 0
475 0
38 0
670 0
880 0
713 605 0
301 470 0
451 159 0
395 0
388 0
576 973 0
480 644 0
47 0
961 237 0
942 0
812 0
268 0
419 0
429 0
183 0
141 189 0
675 349 0
124 0
500 207 0
475 0
244 0
60 0
58 276 0
681 0
178 0
522 586 0
647 0
755 427 0
662 0
402 0
2 430 0
179 0
194 749 0
288 722 0
981 0
882 0
592 0
231 0
165 334 0
378 116 0
682 834 0
897 0
440 132 0
816 0
631 0
777 461 0
312 0
842 885 0
697 0
409 0
760 0
561 220 0
611 0
414 0
738 687 0
375 0
417 0
232 444 0
99 813 0
303 0
749 430 0
848 872 0
881 791 0
587 0
119 0
835 0
865 0
183 0
73 0
820 270 0
256 0
368 0
388 0
60 0
270 0
973 0
832 347 0
228 0
999 0
968 0
459 39 0
195 0
729 939 0
147 0
912 0
606 0
321 383 0
505 0
217 898 0
312 0
119 0
621 0
833 387 0
593 0
938 0
283 0
963 0
400 690 0
887 39 0
708 0
657 206 0
533 0
16 877 0
980 0
218 0
748 0
475 0
552 0
10 0
60 461 0
556 0
698 0
632 0
912 0
924 357 0
502 0
733 0
172 0
450 390 0
572 246 0
664 138 0
293 79 0
254 0
130 0
783 0
828 0
35 0
495 0
448 0
568 0
601 575 0
620 0
808 577 0
42 0
479 0
298 0
883 395 0
864 0
762 0
768 0
788 0
314 0
256 877 0
720 549 0
129 532 0
464 0
655 0
559 0
388 0
913 0
197 919 0
936 438 0
489 46 0
764 0
787 996 0
182 0
675 0
305 0
734 0
940 455 0
915 870 0
709 0
672 820 0
705 0
194 0
267 0
393 211 0
497 0
565 0
121 101 0
537 0
457 0
16 0
291 0
959 0
606 0
268 0
296 6 0
832 49 0
208 0
54 0
298 501 0
716 0
721 212 0
305 498 0
373 365 0
331 350 0
468 501 0
919 0
73 41 0
997 0
108 0
880 113 0
353 0
481 351 0
192 301 0
467 317 0
195 0
101 63 0
855 0
452 125 0
928 392 0
188 838 0
352 0
411 285 0
577 221 0
786 0
685 0
649 698 0
921 650 0
380 887 0
672 0
775 0
505 861 0
462 0
468 0
572 0
105 167 0
741 0
223 0
690 0
444 79 0
657 0
661 0
414 0
512 0
347 3 0
167 0
668 0
822 0
453 742 0
897 180 0
327 0
381 0
976 0
318 0
942 0
464 0
173 0
475 685 0
627 0
398 143 0
64 0
786 0
179 0
496 0
696 145 0
699 7 0
65 0
857 761 0
488 166 0
458 219 0
868 0
880 618 0
958 0
121 0
552 573 0
305 0
14 0
528 0
762 0
341 0
620 0
867 0
105 0
105 771 0
1000 0
460 285 0
339 0
744 391 0
77 0
483 0
468 0
988 0
347 639 0
194 0
373 0
942 0
282 0
928 0
786 404 0
100 0
11 0
559 0
945 0
760 151 0
747 0
317 0
577 0
508 189 0
820 0
141 0
600 0
3 0
802 187 0
965 0
38 0
103 0
900 0
276 0
467 0
905 0
428 0
249 0
195 309 0
482 0
136 987 0
132 653 0
403 0
264 436 0
36 0
806 0
566 0
673 71 0
978 196 0
477 0
640 731 0
626 0
86 222 0
123 61 0
234 0
320 0
603 0
953 356 0
560 20 0
796 0
748 159 0
732 0
572 821 0
291 0
297 828 0
904 341 0
441 0
87 0
398 0
373 0
626 0
496 0
841 441 0
330 847 0
891 102 0
116 0
156 0
725 0
324 919 0
597 0
984 0
884 525 0
866 516 0
522 861 0
261 975 0
510 0
160 0
692 0
790 0
853 214 0
280 0
916 733 0
809 0
91 0
194 0
339 990 0
409 198 0
772 0
561 100 0
270 0
956 23 0
678 286 0
920 0
487 0
389 0
131 0
961 994 0
971 500 0
287 0
635 0
717 0
112 0
81 0
735 0
147 20 0
177 860 0
538 0
511 0
124 0
201 0
919 0
143 0
75 0
732 0
191 0
406 0
454 782 0
863 0
4 0
980 4 0
167 0
641 716 0
125 0
739 0
290 0
770 380 0
768 304 0
224 921 0
123 0
464 918 0
706 0
493 0
57 378 0
237 0
619 0
417 0
883 627 0
924 0
592 597 0
108 0
800 0
756 46 0
513 0
57 0
717 310 0
216 0
91 0
944 0
949 0
245 0
383 0
787 0
821 0
1 0
71 0
625 529 0
535 695 0
492 0
230 0
760 742 0
605 719 0
609 0
186 0
882 116 0
604 0
232 0
826 0
451 0
440 104 0
53 221 0
453 0
204 0
35 0
612 205 0
248 655 0
437 0
67 0
98 0
957 151 0
976 822 0
828 990 0
369 335 0
532 0
410 0
981 0
93 0
201 548 0
944 0
570 180 0
390 295 0
743 0
27 0
541 47 0
523 644 0
553 855 0
992 932 0
561 175 0
895 135 0
137 0
961 549 0
731 0
733 0
868 0
149 0
157 743 0
409 541 0
758 0
439 0
530 859 0
198 0
688 0
681 449 0
723 0
163 0
664 0
235 0
366 0
387 343 0
177 0
427 0
306 0
94 0
364 0
209 0
21 181 0
641 0
122 749 0
437 0
727 0
516 0
594 0
10 452 0
954 116 0
823 0
421 0
769 442 0
790 0
4 0
552 0
281 898 0
310 0
529 0
254 0
698 0
306 0
903 0
845 0
495 0
164 573 0
25 438 0
66 0
712 283 0
690 0
232 0
857 0
704 0
183 0
154 739 0
749 549 0
372 0
946 535 0
143 0
584 850 0
24 0
500 917 0
678 0
959 0
743 0
100 0
411 300 0
502 575 0
978 365 0
304 0
842 0
961 0
217 764 0
325 0
126 0
553 34 0
736 0
721 383 0
66 582 0
493 0
823 0
583 0
801 183 0
310 0
432 0
258 0
856 0
707 0
642 99 0
344 234 0
43 215 0
217 0
835 0
834 0
35 0
768 738 0
419 0
890 0
374 0
859 0
844 0
803 516 0
103 0
609 294 0
587 0
339 598 0
679 0
111 0
853 0
967 0
723 0
251 0
366 0
711 0
948 0
898 0
957 302 0
740 326 0
664 57 0
863 0
148 0
977 580 0
174 0
284 748 0
773 0
477 0
642 0
711 0
748 693 0
364 0
527 0
771 0
762 759 0
542 0
341 0
857 186 0
946 0
893 983 0
487 0
623 0
448 955 0
527 39 0
623 0
768 0
166 0
948 245 0
419 0
778 0
255 0
637 0
65 819 0
954 0
889 370 0
418 0
225 0
829 0
469 0
93 0
338 0
472 590 0
803 734 0
138 0
873 146 0
301 0
775 0
917 0
207 0
776 0
916 0
686 0
675 0
714 279 0
18 0
44 0
59 0
933 790 0
342 0
251 542 0
719 0
858 438 0
649 498 0
104 127 0
496 0
666 0
41 0
91 805 0
809 0
520 388 0
137 274 0
560 0
306 0
497 0
630 807 0
217 0
40 0
556 0
13 0
378 0
301 0
900 21 0
340 383 0
366 0
95 0
906 0
63 0
82 0
598 0
266 773 0
19 0
341 0
636 0
81 0
909 0
523 0
273 718 0
199 0
922 947 0
862 0
483 55 0
675 0
561 0
852 0
633 545 0
49 287 0
953 533 0
620 0
423 0
285 0
12 0
595 996 0
11 943 0
622 0
64 0
812 0
492 0
54 430 0
540 47 0
507 0
399 0
270 0
32 0
150 0
514 0
510 783 0
598 830 0
818 0
202 0
96 260 0
682 0
382 0
225 0
737 0
477 0
886 238 0
940 591 0
388 0
617 697 0
179 471 0
575 0
113 0
696 0
598 0
776 750 0
571 582 0
406 0
848 0
619 599 0
700 0
754 0
929 0
497 0
932 20 0
395 0
470 0
26 0
975 0
61 0
472 0
700 318 0
480 817 0
740 885 0
344 0
724 0
649 684 0
565 0
517 399 0
828 0
561 414 0
145 0
640 177 0
157 0
810 869 0
393 0
903 0
633 381 0
867 0
194 299 0
558 0
265 0
486 0
608 0
228 397 0
998 0
907 422 0
974 0
887 0
124 0
42 0
498 876 0
101 309 0
833 291 0
864 0
461 903 0
979 0
817 499 0
822 0
601 295 0
416 0
734 0
197 239 0
179 645 0
997 0
502 0
153 0
920 133 0
958 71 0
532 0
85 287 0
654 0
705 415 0
265 629 0
385 0
721 227 0
481 0
262 0
783 0
211 0
352 0
760 889 0
177 0
16 0
186 493 0
10 0
590 0
349 0
82 86 0
166 0
370 0
192 0
741 0
970 0
56 0
436 0
401 563 0
906 70 0
421 0
597 0
666 378 0
506 0
65 0
414 0
602 835 0
848 403 0
424 825 0
712 925 0
506 0
652 716 0
936 433 0
872 0
66 0
723 0
461 0
22 0
801 0
720 819 0
456 0
909 0
114 0
809 0
183 0
118 0
166 0
308 878 0
792 970 0
768 0
75 0
179 335 0
770 0
555 0
51 323 0
208 255 0
73 114 0
108 109 0
628 518 0
688 632 0
872 0
471 0
760 229 0
746 0
497 0
411 0
2 0
832 0
740 0
897 20 0
560 423 0
858 596 0
716 789 0
333 470 0
544 474 0
13 254 0
3 0
57 885 0
134 0
804 0
844 0
28 0
482 0
267 622 0
587 0
695 0
561 0
272 0
379 0
333 77 0
662 270 0
877 0
544 945 0
379 0
99 0
891 0
244 0
835 990 0
866 0
110 0
121 0
849 868 0
260 0
124 0
353 526 0
129 0
25 0
697 867 0
912 0
285 382 0
858 3 0
351 0
48 0
182 0
482 180 0
720 0
128 805 0
19 261 0
153 0
628 0
348 0
827 0
271 0
848 0
241 685 0
758 0
601 0
949 0
568 74 0
572 701 0
618 845 0
733 0
324 0
583 0
600 0
937 0
981 398 0
722 0
27 565 0
392 625 0
181 0
613 894 0
15 0
572 0
932 0
165 0
335 0
680 858 0
922 0
425 0
392 503 0
611 894 0
937 0
346 662 0
687 0
436 0
801 0
999 0
986 0
259 0
517 0
882 0
665 835 0
292 0
75 0
966 0
720 0
402 0
417 0
765 0
664 323 0
642 141 0
54 0
825 0
261 0
595 0
615 0
111 0
612 0
577 0
97 0
97 0
453 0
780 0
584 0
385 0
379 0
451 327 0
906 0
274 0
174 0
491 508 0
802 0
733 0
319 0
771 0
519 0
829 0
242 0
803 126 0
600 858 0
96 0
680 673 0
869 0
656 385 0
121 247 0
111 0
552 540 0
663 0
526 0
890 0
791 0
323 982 0
174 0
174 295 0
269 0
527 0
65 0
753 611 0
186 53 0
96 457 0
915 950 0
217 421 0
779 0
616 364 0
312 0
549 0
404 0
686 0
901 0
610 0
68 0
441 135 0
605 0
969 945 0
449 0
768 0
114 86 0
329 0
447 0
341 0
920 0
569 0
551 0
343 0
905 0
805 0
804 0
977 0
31 0
906 805 0
390 0
401 671 0
356 503 0
109 0
480 0
707 0
212 0
31 887 0
146 0
761 327 0
737 406 0
840 207 0
925 0
432 0
852 0
864 680 0
950 0
718 87 0
147 0
450 0
923 533 0
39 0
182 0
335 0
860 0
857 0
394 0
933 887 0
511 0
756 221 0
102 0
486 0
676 0
617 283 0
767 0
389 0
300 0
334 0
915 12 0
493 0
70 294 0
592 813 0
549 0
181 719 0
509 0
485 0
809 0
369 0
218 541 0
999 0
699 692 0
659 230 0
692 0
512 831 0
610 0
698 477 0
800 0
586 810 0
32 712 0
154 0
603 0
999 0
744 0
770 0
982 0
848 945 0
908 0
619 20 0
753 0
308 502 0
242 0
76 0
86 0
9 0
59 0
644 758 0
906 39 0
828 0
7 0
440 455 0
387 0
51 0
1 789 0
814 0
221 0
477 0
136 716 0
20 0
217 0
570 0
918 0
695 0
403 0
187 0
989 0
201 10 0
616 0
591 0
209 0
722 903 0
622 0
25 931 0
553 338 0
988 0
288 157 0
156 0
368 0
876 0
698 787 0
48 613 0
297 0
142 0
97 804 0
907 0
856 191 0
397 0
964 0
185 275 0
985 0
852 0
734 0
617 0
967 0
56 0
14 0
796 0
457 708 0
491 0
952 753 0
161 0
849 0
735 0
35 0
517 0
331 0
638 0
183 0
527 0
593 0
931 0
218 0
851 557 0
93 0
608 0
469 0
892 477 0
137 0
258 0
949 0
492 0
484 13 0
453 0
574 0
984 396 0
266 0
457 0
29 0
576 0
946 0
271 0
128 0
143 0
385 0
112 105 0
730 346 0
717 0
274 0
83 598 0
788 0
992 0
497 0
696 959 0
991 0
830 0
456 0
956 814 0
219 0
722 0
209 710 0
79 0
876 495 0
878 0
67 964 0
449 945 0
462 0
852 0
288 825 0
713 611 0
256 0
884 0
572 0
839 0
322 0
73 758 0
742 0
378 0
680 860 0
40 845 0
597 518 0
152 0
140 814 0
493 0
801 623 0
5 766 0
509 0
480 0
123 0
388 0
450 0
49 147 0
985 0
887 0
196 0
476 0
724 0
253 0
792 0
788 318 0
587 0
828 0
412 805 0
456 841 0
541 533 0
985 0
401 94 0
138 765 0
432 0
142 0
213 0
390 0
557 0
453 0
988 29 0
613 0
291 219 0
915 479 0
258 0
34 0
243 799 0
64 0
216 59 0
960 782 0
396 0
60 7 0
546 322 0
250 875 0
460 0
575 0
699 0
467 0
361 0
726 0
133 0
440 0
873 0
308 910 0
659 695 0
726 0
452 0
65 0
537 0
808 5 0
420 0
903 0
866 874 0
164 0
252 181 0
792 869 0
327 0
42 0
387 0
74 198 0
301 0
136 0
399 0
828 0
156 0
684 0
541 0
77 0
35 0
902 982 0
481 803 0
474 419 0
666 0
714 0
770 0
812 93 0
505 0
392 0
92 0
589 0
85 0
54 0
16 711 0
693 0
129 646 0
465 0
53 0
831 0
833 0
277 0
525 0
195 0
307 822 0
665 0
97 0
575 0
223 0
976 666 0
102 0
773 0
415 0
206 0
906 0
690 382 0
793 959 0
726 830 0
956 0
337 153 0
339 631 0
185 572 0
706 973 0
163 252 0
117 47 0
345 0
453 806 0
699 0
18 644 0
624 415 0
73 917 0
202 214 0
49 0
786 0
114 0
239 0
512 0
677 0
442 637 0
26 101 0
621 0
880 0
3 0
466 0
989 0
398 63 0
485 462 0
804 852 0
164 0
747 0
412 887 0
885 926 0
935 0
562 132 0
541 0
840 902 0
481 0
391 0
158 0
751 0
578 966 0
410 0
488 0
468 324 0
435 0
118 0
786 884 0
80 0
410 0
438 190 0
60 846 0
247 0
317 453 0
124 0
928 448 0
925 0
68 581 0
657 791 0
134 0
464 0
602 0
240 339 0
73 875 0
871 0
859 63 0
475 399 0
402 0
997 645 0
680 635 0
901 0
941 0
905 865 0
212 727 0
560 618 0
59 0
765 30 0
405 0
360 0
626 351 0
336 0
51 0
33 892 0
304 0
554 0
34 0
296 0
900 0
966 0
486 0
370 0
509 917 0
202 0
368 0
971 100 0
488 0
633 245 0
569 0
773 0
166 0
610 379 0
939 0
232 660 0
344 0
570 0
785 0
958 0
78 0
792 0
10 0
677 0
316 0
141 0
586 751 0
889 0
900 0
428 0
699 0
524 485 0
97 0
862 0
515 0
282 0
681 310 0
257 610 0
577 0
264 124 0
875 0
856 661 0
814 0
940 0
593 180 0
884 852 0
148 0
892 0
762 643 0
443 0
269 0
446 951 0
912 0
357 430 0
569 516 0
535 0
801 0
922 860 0
36 0
305 0
558 0
144 974 0
898 0
26 203 0
611 551 0
456 0
987 0
964 0
57 0
144 0
680 973 0
697 678 0
362 499 0
84 685 0
51 0
336 416 0
75 0
240 367 0
582 0
147 0
103 0
147 0
350 0
386 925 0
342 0
517 357 0
514 0
380 0
408 0
600 752 0
79 0
75 583 0
180 0
485 0
361 62 0
43 0
939 863 0
440 525 0
863 0
794 535 0
938 869 0
302 0
497 339 0
47 0
193 0
752 0
875 0
369 0
139 0
632 310 0
231 0
617 0
136 0
279 0
410 0
472 0
661 0
552 663 0
320 297 0
646 455 0
28 0
231 0
220 0
165 0
884 0
267 805 0
300 0
820 0
837 0
678 0
405 886 0
297 0
945 0
243 605 0
172 0
778 0
36 0
910 0
160 0
256 554 0
788 135 0
697 829 0
403 852 0
828 0
133 0
217 995 0
124 0
258 0
258 835 0
395 541 0
282 0
987 0
345 0
916 0
868 0
9 0
922 499 0
728 346 0
120 0
752 0
515 383 0
703 0
892 974 0
67 133 0
805 0
805 0
947 580 0
843 0
14 486 0
323 0
429 0
673 550 0
423 0
996 228 0
120 413 0
573 0
596 0
491 0
512 0
472 452 0
425 452 0
677 0
625 223 0
672 0
43 268 0
225 0
421 0
925 0
200 0
520 262 0
58 0
917 0
343 0
440 0
822 0
613 0
270 0
87 0
184 122 0
891 0
260 0
216 263 0
940 0
514 0
844 0
932 0
628 0
436 38 0
540 0
701 767 0
473 276 0
186 0
609 767 0
977 0
162 0
290 2 0
173 951 0
810 155 0
312 863 0
700 476 0
495 0
438 959 0
180 974 0
995 182 0
594 678 0
997 285 0
537 0
383 0
618 790 0
71 0
265 0
833 306 0
905 0
684 0
699 0
634 388 0
479 0
775 0
24 714 0
514 0
107 0
465 687 0
542 0
387 0
425 0
393 492 0
625 0
441 310 0
719 0
803 0
378 0
608 0
949 0
61 0
173 391 0
982 0
673 0
306 603 0
333 831 0
771 134 0
92 0
201 868 0
956 0
813 0
825 547 0
544 882 0
878 0
46 55 0
108 764 0
562 244 0
210 0
43 0
17 0
171 436 0
833 177 0
964 0
113 0
57 36 0
846 0
543 0
770 0
529 340 0
286 0
11 0
614 0
737 0
98 958 0
227 53 0
55 0
78 479 0
191 0
949 0
532 0
768 0
158 0
769 483 0
387 0
584 751 0
505 0
230 0
136 0
702 0
543 0
156 0
325 0
796 0
497 0
133 0
849 650 0
106 0
813 478 0
820 0
707 0
499 0
258 0
625 171 0
456 0
859 110 0
627 0
698 4 0
551 0
488 0
122 0
594 84 0
489 0
568 562 0
451 0
21 822 0
890 0
836 0
929 420 0
685 0
72 0
1 0
801 967 0
1000 627 0
385 0
681 317 0
490 0
349 0
133 0
444 149 0
894 0
236 0
24 921 0
836 0
955 0
624 0
526 0
893 0
692 924 0
23 0
501 0
582 0
233 0
275 0
100 255 0
970 799 0
700 599 0
339 0
86 0
223 0
387 101 0
210 0
412 0
388 999 0
20 670 0
220 0
960 0
515 0
696 0
956 590 0
775 0
246 0
665 0
662 0
763 204 0
88 0
25 0
931 0
152 673 0
562 508 0
990 278 0
825 0
182 0
64 624 0
614 0
626 4 0
645 0
60 671 0
665 0
536 910 0
184 453 0
739 0
6 0
237 0
49 115 0
508 0
410 191 0
434 0
17 381 0
868 0
474 0
314 61 0
116 0
234 405 0
826 0
394 0
590 0
584 0
347 0
568 323 0
480 0
611 0
904 554 0
833 0
203 0
291 699 0
475 476 0
648 4 0
875 0
29 0
579 0
692 0
220 653 0
142 999 0
896 442 0
50 102 0
44 263 0
417 0
615 0
441 0
833 0
449 446 0
800 0
854 0
568 307 0
23 0
304 436 0
217 0
168 0
367 0
75 0
636 0
352 451 0
56 0
633 939 0
713 0
101 118 0
771 124 0
749 197 0
211 0
883 0
46 0
361 611 0
115 0
383 0
825 0
444 0
201 125 0
156 540 0
180 311 0
891 39 0
135 479 0
307 0
536 897 0
595 0
977 713 0
405 774 0
765 0
379 0
483 908 0
202 0
931 139 0
726 0
315 0
345 0
495 0
10 831 0
531 0
729 0
376 0
34 399 0
12 556 0
970 0
701 0
682 199 0
426 135 0
3 0
360 809 0
590 0
267 0
141 0
855 0
191 0
78 0
474 0
709 0
161 0
586 0
738 0
691 0
960 151 0
65 0
931 0
370 0
874 0
907 0
390 0
745 0
235 0
179 0
282 0
597 0
364 0
650 0
266 807 0
184 21 0
820 0
569 858 0
352 967 0
74 108 0
95 255 0
831 0
193 596 0
978 0
544 0
868 0
274 811 0
654 0
817 0
13 0
833 787 0
949 0
959 295 0
33 0
667 582 0
2 135 0
933 0
626 0
809 823 0
877 0
975 0
874 0
368 441 0
674 261 0
135 0
921 245 0
925 0
566 0
962 247 0
357 958 0
402 31 0
784 991 0
168 457 0
1000 478 0
902 0
466 0
970 741 0
23 0
7 0
147 0
658 0
773 0
594 0
536 0
661 0
422 0
304 170 0
958 0
832 0
694 0
136 11 0
407 0
942 0
930 0
16 723 0
809 699 0
824 0
988 0
131 0
297 0
196 0
270 0
15 0
50 0
358 367 0
617 0
908 0
321 0
215 0
816 961 0
55 0
682 526 0
349 0
817 0
653 0
58 47 0
704 681 0
702 0
583 0
548 0
561 0
240 0
374 0
11 0
22 0
433 0
681 0
608 0
693 0
227 564 0
745 986 0
264 15 0
310 727 0
291 606 0
616 0
212 0
111 0
708 0
51 0
910 631 0
867 30 0
706 524 0
454 0
330 0
546 0
477 0
896 185 0
900 0
373 0
285 654 0
844 0
258 394 0
890 0
644 0
760 0
375 0
205 0
31 0
779 0
296 248 0
757 246 0
455 0
501 46 0
65 0
849 0
537 659 0
66 0
232 295 0
358 0
982 0
793 0
84 0
876 0
305 0
234 0
339 683 0
536 506 0
894 678 0
162 0
948 791 0
536 0
918 0
955 0
33 0
167 0
903 0
683 703 0
815 0
809 0
273 0
146 0
546 0
964 895 0
562 309 0
678 606 0
421 0
659 0
430 38 0
125 605 0
953 355 0
115 427 0
292 815 0
314 0
800 831 0
488 884 0
63 0
786 172 0
185 0
425 190 0
541 0
698 100 0
408 237 0
152 0
385 0
603 0
50 18 0
981 0
796 0
526 0
444 0
192 640 0
8 822 0
508 0
580 0
173 0
88 374 0
331 0
341 0
17 884 0
737 0
128 0
287 0
665 0
119 0
180 0
474 0
973 0
86 0
928 0
842 0
450 0
443 0
805 0
215 0
578 0
289 0
889 0
611 605 0
176 0
300 0
44 717 0
538 0
463 0
522 847 0
874 0
96 899 0
637 277 0
527 0
148 0
329 211 0
277 0
324 0
195 636 0
384 478 0
409 0
73 0
453 0
355 0
884 0
933 423 0
171 0
941 0
122 676 0
727 0
936 146 0
628 0
618 875 0
746 278 0
145 138 0
495 0
796 0
459 0
99 0
347 0
576 354 0
360 180 0
396 0
289 507 0
862 0
749 783 0
992 573 0
123 134 0
905 298 0
559 0
766 71 0
86 0
500 222 0
754 0
27 734 0
765 0
12 0
489 0
218 0
935 0
666 370 0
49 831 0
323 0
4 0
376 456 0
711 0
696 794 0
456 0
859 701 0
577 125 0
136 663 0
489 314 0
189 0
427 0
481 0
807 0
413 462 0
936 0
33 866 0
810 0
487 0
333 0
956 0
865 309 0
41 134 0
641 0
602 0
662 0
467 437 0
987 68 0
514 0
180 0
133 0
519 0
264 262 0
25 0
726 0
820 268 0
434 0
672 120 0
425 0
37 0
497 0
653 855 0
36 0
278 0
33 0
242 0
537 0
646 518 0
246 -1001 0
-638 -1001 0
-246 638 1001 0
448 -1002 0
449 -1002 0
-448 -449 1002 0
792 -1003 0
314 -1003 0
-792 -314 1003 0
582 -1004 0
-781 -1004 0
-582 781 1004 0
-661 -1005 0
90 -1005 0
661 -90 1005 0
723 -1006 0
-942 -1006 0
-723 942 1006 0
263 -1007 0
359 -1007 0
-263 -359 1007 0
391 -1008 0
-283 -1008 0
-391 283 1008 0
559 -1009 0
-972 -1009 0
-559 972 1009 0
790 -1010 0
-180 -1010 0
-790 180 1010 0
-728 -1011 0
701 -1011 0
728 -701 1011 0
567 -1012 0
-878 -1012 0
-567 878 1012 0
382 -1013 0
653 -1013 0
-382 -653 1013 0
936 -1014 0
-497 -1014 0
-936 497 1014 0
773 -1015 0
666 -1015 0
-773 -666 1015 0
674 -1016 0
41 -1016 0
-674 -41 1016 0
174 -1017 0
617 -1017 0
-174 -617 1017 0
537 -1018 0
-543 -1018 0
-537 543 1018 0
492 -1019 0
769 -1019 0
-492 -769 1019 0
-699 -1020 0
794 -1020 0
699 -794 1020 0
934 -1021 0
21 -1021 0
-934 -21 1021 0
176 -1022 0
-930 -1022 0
-176 930 1022 0
-248 -1023 0
131 -1023 0
248 -131 1023 0
-596 -1024 0
858 -1024 0
596 -858 1024 0
973 -1025 0
733 -1025 0
-973 -733 1025 0
390 -1026 0
349 -1026 0
-390 -349 1026 0
272 -1027 0
-34 -1027 0
-272 34 1027 0
882 -1028 0
266 -1028 0
-882 -266 1028 0
540 -1029 0
369 -1029 0
-540 -369 1029 0
204 -1030 0
931 -1030 0
-204 -931 1030 0
584 -1031 0
-147 -1031 0
-584 147 1031 0
128 -1032 0
-203 -1032 0
-128 203 1032 0
350 -1033 0
-461 -1033 0
-350 461 1033 0
-212 -1034 0
371 -1034 0
212 -371 1034 0
-921 -1035 0
726 -1035 0
921 -726 1035 0
340 -1036 0
898 -1036 0
-340 -898 1036 0
350 -1037 0
-628 -1037 0
-350 628 1037 0
621 -1038 0
-950 -1038 0
-621 950 1038 0
-587 -1039 0
154 -1039 0
587 -154 1039 0
924 -1040 0
-935 -1040 0
-924 935 1040 0
584 -1041 0
54 -1041 0
-584 -54 1041 0
-837 -1042 0
26 -1042 0
837 -26 1042 0
77 -1043 0
218 -1043 0
-77 -218 1043 0
484 -1044 0
850 -1044 0
-484 -850 1044 0
62 -1045 0
-909 -1045 0
-62 909 1045 0
380 -1046 0
740 -1046 0
-380 -740 1046 0
336 -1047 0
-421 -1047 0
-336 421 1047 0
604 -1048 0
524 -1048 0
-604 -524 1048 0
712 -1049 0
194 -1049 0
-712 -194 1049 0
-777 -1050 0
341 -1050 0
777 -341 1050 0
104 -1051 0
-874 -1051 0
-104 874 1051 0
934 -1052 0
-127 -1052 0
-934 127 1052 0
223 -1053 0
-156 -1053 0
-223 156 1053 0
416 -1054 0
981 -1054 0
-416 -981 1054 0
839 -1055 0
-602 -1055 0
-839 602 1055 0
410 -1056 0
65 -1056 0
-410 -65 1056 0
-344 -1057 0
594 -1057 0
344 -594 1057 0
-850 -1058 0
757 -1058 0
850 -757 1058 0
520 -1059 0
-940 -1059 0
-520 940 1059 0
164 -1060 0
137 -1060 0
-164 -137 1060 0
958 -1061 0
-2 -1061 0
-958 2 1061 0
111 -1062 0
-954 -1062 0
-111 954 1062 0
980 -1063 0
905 -1063 0
-980 -905 1063 0
456 -1064 0
-377 -1064 0
-456 377 1064 0
596 -1065 0
313 -1065 0
-596 -313 1065 0
-376 -1066 0
436 -1066 0
376 -436 1066 0
662 -1067 0
-523 -1067 0
-662 523 1067 0
306 -1068 0
898 -1068 0
-306 -898 1068 0
790 -1069 0
-60 -1069 0
-790 60 1069 0
764 -1070 0
922 -1070 0
-764 -922 1070 0
27 -1071 0
410 -1071 0
-27 -410 1071 0
-42 -1072 0
338 -1072 0
42 -338 1072 0
619 -1073 0
-79 -1073 0
-619 79 1073 0
583 -1074 0
523 -1074 0
-583 -523 1074 0
931 -1075 0
-207 -1075 0
-931 207 1075 0
536 -1076 0
-249 -1076 0
-536 249 1076 0
-200 -1077 0
561 -1077 0
200 -561 1077 0
508 -1078 0
-309 -1078 0
-508 309 1078 0
415 -1079 0
211 -1079 0
-415 -211 1079 0
712 -1080 0
-8 -1080 0
-712 8 1080 0
-985 -1081 0
628 -1081 0
985 -628 1081 0
34 -1082 0
-855 -1082 0
-34 855 1082 0
83 -1083 0
234 -1083 0
-83 -234 1083 0
542 -1084 0
-150 -1084 0
-542 150 1084 0
-122 -1085 0
481 -1085 0
122 -481 1085 0
872 -1086 0
-82 -1086 0
-872 82 1086 0
478 -1087 0
-300 -1087 0
-478 300 1087 0
838 -1088 0
338 -1088 0
-838 -338 1088 0
184 -1089 0
-689 -1089 0
-184 689 1089 0
958 -1090 0
-846 -1090 0
-958 846 1090 0
884 -1091 0
-622 -1091 0
-884 622 1091 0
-322 -1092 0
169 -1092 0
322 -169 1092 0
944 -1093 0
315 -1093 0
-944 -315 1093 0
-592 -1094 0
713 -1094 0
592 -713 1094 0
632 -1095 0
-412 -1095 0
-632 412 1095 0
24 -1096 0
250 -1096 0
-24 -250 1096 0
430 -1097 0
436 -1097 0
-430 -436 1097 0
-18 -1098 0
898 -1098 0
18 -898 1098 0
332 -1099 0
193 -1099 0
-332 -193 1099 0
19 -1100 0
994 -1100 0
-19 -994 1100 0
-731 -1101 0
620 -1101 0
731 -620 1101 0
682 -1102 0
-839 -1102 0
-682 839 1102 0
-688 -1103 0
712 -1103 0
688 -712 1103 0
947 -1104 0
658 -1104 0
-947 -658 1104 0
-160 -1105 0
938 -1105 0
160 -938 1105 0
184 -1106 0
-246 -1106 0
-184 246 1106 0
616 -1107 0
770 -1107 0
-616 -770 1107 0
-522 -1108 0
515 -1108 0
522 -515 1108 0
-971 -1109 0
660 -1109 0
971 -660 1109 0
415 -1110 0
614 -1110 0
-415 -614 1110 0
966 -1111 0
164 -1111 0
-966 -164 1111 0
-92 -1112 0
385 -1112 0
92 -385 1112 0
784 -1113 0
598 -1113 0
-784 -598 1113 0
-469 -1114 0
577 -1114 0
469 -577 1114 0
204 -1115 0
-500 -1115 0
-204 500 1115 0
767 -1116 0
725 -1116 0
-767 -725 1116 0
678 -1117 0
45 -1117 0
-678 -45 1117 0
240 -1118 0
359 -1118 0
-240 -359 1118 0
-656 -1119 0
86 -1119 0
656 -86 1119 0
704 -1120 0
-802 -1120 0
-704 802 1120 0
996 -1121 0
-909 -1121 0
-996 909 1121 0
-814 -1122 0
897 -1122 0
814 -897 1122 0
-619 -1123 0
833 -1123 0
619 -833 1123 0
373 -1124 0
-996 -1124 0
-373 996 1124 0
-658 -1125 0
996 -1125 0
658 -996 1125 0
836 -1126 0
-941 -1126 0
-836 941 1126 0
-224 -1127 0
301 -1127 0
224 -301 1127 0
22 -1128 0
745 -1128 0
-22 -745 1128 0
438 -1129 0
-935 -1129 0
-438 935 1129 0
588 -1130 0
906 -1130 0
-588 -906 1130 0
861 -1131 0
-918 -1131 0
-861 918 1131 0
189 -1132 0
138 -1132 0
-189 -138 1132 0
619 -1133 0
-607 -1133 0
-619 607 1133 0
-614 -1134 0
322 -1134 0
614 -322 1134 0
613 -1135 0
450 -1135 0
-613 -450 1135 0
691 -1136 0
-302 -1136 0
-691 302 1136 0
-926 -1137 0
417 -1137 0
926 -417 1137 0
-239 -1138 0
673 -1138 0
239 -673 1138 0
719 -1139 0
870 -1139 0
-719 -870 1139 0
-600 -1140 0
73 -1140 0
600 -73 1140 0
780 -1141 0
561 -1141 0
-780 -561 1141 0
10 -1142 0
145 -1142 0
-10 -145 1142 0
828 -1143 0
417 -1143 0
-828 -417 1143 0
303 -1144 0
834 -1144 0
-303 -834 1144 0
-40 -1145 0
135 -1145 0
40 -135 1145 0
-264 -1146 0
666 -1146 0
264 -666 1146 0
927 -1147 0
45 -1147 0
-927 -45 1147 0
455 -1148 0
805 -1148 0
-455 -805 1148 0
206 -1149 0
-397 -1149 0
-206 397 1149 0
847 -1150 0
-958 -1150 0
-847 958 1150 0
6 -1151 0
-262 -1151 0
-6 262 1151 0
685 -1152 0
-893 -1152 0
-685 893 1152 0
-878 -1153 0
74 -1153 0
878 -74 1153 0
462 -1154 0
-223 -1154 0
-462 223 1154 0
205 -1155 0
690 -1155 0
-205 -690 1155 0
652 -1156 0
12 -1156 0
-652 -12 1156 0
716 -1157 0
732 -1157 0
-716 -732 1157 0
942 -1158 0
-271 -1158 0
-942 271 1158 0
-146 -1159 0
219 -1159 0
146 -219 1159 0
139 -1160 0
851 -1160 0
-139 -851 1160 0
-713 -1161 0
842 -1161 0
713 -842 1161 0
484 -1162 0
-223 -1162 0
-484 223 1162 0
357 -1163 0
-987 -1163 0
-357 987 1163 0
546 -1164 0
-558 -1164 0
-546 558 1164 0
953 -1165 0
169 -1165 0
-953 -169 1165 0
-240 -1166 0
140 -1166 0
240 -140 1166 0
864 -1167 0
247 -1167 0
-864 -247 1167 0
-279 -1168 0
113 -1168 0
279 -113 1168 0
-656 -1169 0
814 -1169 0
656 -814 1169 0
845 -1170 0
-79 -1170 0
-845 79 1170 0
-624 -1171 0
844 -1171 0
624 -844 1171 0
814 -1172 0
-692 -1172 0
-814 692 1172 0
159 -1173 0
115 -1173 0
-159 -115 1173 0
309 -1174 0
377 -1174 0
-309 -377 1174 0
-595 -1175 0
361 -1175 0
595 -361 1175 0
-760 -1176 0
291 -1176 0
760 -291 1176 0
864 -1177 0
547 -1177 0
-864 -547 1177 0
615 -1178 0
457 -1178 0
-615 -457 1178 0
871 -1179 0
-205 -1179 0
-871 205 1179 0
-877 -1180 0
665 -1180 0
877 -665 1180 0
342 -1181 0
890 -1181 0
-342 -890 1181 0
861 -1182 0
922 -1182 0
-861 -922 1182 0
-693 -1183 0
314 -1183 0
693 -314 1183 0
726 -1184 0
-244 -1184 0
-726 244 1184 0
975 -1185 0
345 -1185 0
-975 -345 1185 0
-322 -1186 0
116 -1186 0
322 -116 1186 0
-428 -1187 0
714 -1187 0
428 -714 1187 0
376 -1188 0
-179 -1188 0
-376 179 1188 0
-626 -1189 0
478 -1189 0
626 -478 1189 0
184 -1190 0
-857 -1190 0
-184 857 1190 0
-346 -1191 0
866 -1191 0
346 -866 1191 0
592 -1192 0
-99 -1192 0
-592 99 1192 0
492 -1193 0
378 -1193 0
-492 -378 1193 0
502 -1194 0
643 -1194 0
-502 -643 1194 0
27 -1195 0
-765 -1195 0
-27 765 1195 0
-352 -1196 0
193 -1196 0
352 -193 1196 0
328 -1197 0
-846 -1197 0
-328 846 1197 0
-409 -1198 0
614 -1198 0
409 -614 1198 0
-462 -1199 0
154 -1199 0
462 -154 1199 0
715 -1200 0
-69 -1200 0
-715 69 1200 0
443 -1201 0
-207 -1201 0
-443 207 1201 0
13 -1202 0
-70 -1202 0
-13 70 1202 0
-978 -1203 0
548 -1203 0
978 -548 1203 0
-376 -1204 0
1 -1204 0
376 -1 1204 0
-818 -1205 0
426 -1205 0
818 -426 1205 0
983 -1206 0
-507 -1206 0
-983 507 1206 0
-233 -1207 0
953 -1207 0
233 -953 1207 0
502 -1208 0
-147 -1208 0
-502 147 1208 0
-624 -1209 0
922 -1209 0
624 -922 1209 0
-797 -1210 0
121 -1210 0
797 -121 1210 0
-475 -1211 0
779 -1211 0
475 -779 1211 0
-588 -1212 0
601 -1212 0
588 -601 1212 0
771 -1213 0
577 -1213 0
-771 -577 1213 0
17 -1214 0
897 -1214 0
-17 -897 1214 0
-930 -1215 0
870 -1215 0
930 -870 1215 0
-980 -1216 0
276 -1216 0
980 -276 1216 0
-896 -1217 0
815 -1217 0
896 -815 1217 0
312 -1218 0
-189 -1218 0
-312 189 1218 0
-494 -1219 0
977 -1219 0
494 -977 1219 0
189 -1220 0
521 -1220 0
-189 -521 1220 0
-267 -1221 0
237 -1221 0
267 -237 1221 0
-738 -1222 0
739 -1222 0
738 -739 1222 0
599 -1223 0
-883 -1223 0
-599 883 1223 0
-835 -1224 0
154 -1224 0
835 -154 1224 0
658 -1225 0
-471 -1225 0
-658 471 1225 0
662 -1226 0
3 -1226 0
-662 -3 1226 0
112 -1227 0
-123 -1227 0
-112 123 1227 0
532 -1228 0
954 -1228 0
-532 -954 1228 0
431 -1229 0
-404 -1229 0
-431 404 1229 0
-171 -1230 0
418 -1230 0
171 -418 1230 0
772 -1231 0
-894 -1231 0
-772 894 1231 0
-412 -1232 0
89 -1232 0
412 -89 1232 0
-752 -1233 0
161 -1233 0
752 -161 1233 0
43 -1234 0
338 -1234 0
-43 -338 1234 0
905 -1235 0
177 -1235 0
-905 -177 1235 0
790 -1236 0
995 -1236 0
-790 -995 1236 0
-925 -1237 0
754 -1237 0
925 -754 1237 0
431 -1238 0
-142 -1238 0
-431 142 1238 0
-482 -1239 0
724 -1239 0
482 -724 1239 0
102 -1240 0
-509 -1240 0
-102 509 1240 0
895 -1241 0
559 -1241 0
-895 -559 1241 0
840 -1242 0
387 -1242 0
-840 -387 1242 0
488 -1243 0
-179 -1243 0
-488 179 1243 0
-658 -1244 0
945 -1244 0
658 -945 1244 0
-853 -1245 0
306 -1245 0
853 -306 1245 0
568 -1246 0
-33 -1246 0
-568 33 1246 0
421 -1247 0
323 -1247 0
-421 -323 1247 0
56 -1248 0
886 -1248 0
-56 -886 1248 0
976 -1249 0
-34 -1249 0
-976 34 1249 0
495 -1250 0
-399 -1250 0
-495 399 1250 0
475 -1251 0
-461 -1251 0
-475 461 1251 0
456 -1252 0
-812 -1252 0
-456 812 1252 0
740 -1253 0
681 -1253 0
-740 -681 1253 0
359 -1254 0
436 -1254 0
-359 -436 1254 0
-869 -1255 0
249 -1255 0
869 -249 1255 0
-531 -1256 0
924 -1256 0
531 -924 1256 0
599 -1257 0
-101 -1257 0
-599 101 1257 0
982 -1258 0
18 -1258 0
-982 -18 1258 0
92 -1259 0
337 -1259 0
-92 -337 1259 0
958 -1260 0
-595 -1260 0
-958 595 1260 0
647 -1261 0
468 -1261 0
-647 -468 1261 0
848 -1262 0
-913 -1262 0
-848 913 1262 0
-675 -1263 0
428 -1263 0
675 -428 1263 0
-17 -1264 0
733 -1264 0
17 -733 1264 0
997 -1265 0
-711 -1265 0
-997 711 1265 0
277 -1266 0
659 -1266 0
-277 -659 1266 0
123 -1267 0
-455 -1267 0
-123 455 1267 0
853 -1268 0
-366 -1268 0
-853 366 1268 0
216 -1269 0
778 -1269 0
-216 -778 1269 0
-715 -1270 0
977 -1270 0
715 -977 1270 0
643 -1271 0
809 -1271 0
-643 -809 1271 0
272 -1272 0
-916 -1272 0
-272 916 1272 0
416 -1273 0
-600 -1273 0
-416 600 1273 0
-875 -1274 0
466 -1274 0
875 -466 1274 0
-91 -1275 0
403 -1275 0
91 -403 1275 0
531 -1276 0
475 -1276 0
-531 -475 1276 0
458 -1277 0
522 -1277 0
-458 -522 1277 0
821 -1278 0
675 -1278 0
-821 -675 1278 0
229 -1279 0
793 -1279 0
-229 -793 1279 0
426 -1280 0
209 -1280 0
-426 -209 1280 0
112 -1281 0
-994 -1281 0
-112 994 1281 0
-134 -1282 0
842 -1282 0
134 -842 1282 0
346 -1283 0
873 -1283 0
-346 -873 1283 0
199 -1284 0
607 -1284 0
-199 -607 1284 0
-888 -1285 0
643 -1285 0
888 -643 1285 0
564 -1286 0
892 -1286 0
-564 -892 1286 0
-435 -1287 0
353 -1287 0
435 -353 1287 0
412 -1288 0
729 -1288 0
-412 -729 1288 0
-978 -1289 0
867 -1289 0
978 -867 1289 0
-269 -1290 0
778 -1290 0
269 -778 1290 0
-496 -1291 0
148 -1291 0
496 -148 1291 0
131 -1292 0
466 -1292 0
-131 -466 1292 0
-692 -1293 0
745 -1293 0
692 -745 1293 0
743 -1294 0
-925 -1294 0
-743 925 1294 0
175 -1295 0
571 -1295 0
-175 -571 1295 0
-747 -1296 0
265 -1296 0
747 -265 1296 0
-128 -1297 0
273 -1297 0
128 -273 1297 0
-43 -1298 0
580 -1298 0
43 -580 1298 0
454 -1299 0
369 -1299 0
-454 -369 1299 0
444 -1300 0
-999 -1300 0
-444 999 1300 0
-258 -1301 0
10 -1301 0
258 -10 1301 0
604 -1302 0
524 -1302 0
-604 -524 1302 0
148 -1303 0
852 -1303 0
-148 -852 1303 0
319 -1304 0
-42 -1304 0
-319 42 1304 0
79 -1305 0
853 -1305 0
-79 -853 1305 0
-563 -1306 0
45 -1306 0
563 -45 1306 0
-674 -1307 0
402 -1307 0
674 -402 1307 0
698 -1308 0
473 -1308 0
-698 -473 1308 0
855 -1309 0
217 -1309 0
-855 -217 1309 0
940 -1310 0
554 -1310 0
-940 -554 1310 0
741 -1311 0
612 -1311 0
-741 -612 1311 0
280 -1312 0
-512 -1312 0
-280 512 1312 0
152 -1313 0
570 -1313 0
-152 -570 1313 0
365 -1314 0
329 -1314 0
-365 -329 1314 0
945 -1315 0
961 -1315 0
-945 -961 1315 0
-480 -1316 0
364 -1316 0
480 -364 1316 0
-66 -1317 0
922 -1317 0
66 -922 1317 0
-468 -1318 0
67 -1318 0
468 -67 1318 0
-41 -1319 0
710 -1319 0
41 -710 1319 0
694 -1320 0
-127 -1320 0
-694 127 1320 0
650 -1321 0
90 -1321 0
-650 -90 1321 0
836 -1322 0
-892 -1322 0
-836 892 1322 0
-420 -1323 0
761 -1323 0
420 -761 1323 0
59 -1324 0
-462 -1324 0
-59 462 1324 0
-651 -1325 0
66 -1325 0
651 -66 1325 0
630 -1326 0
522 -1326 0
-630 -522 1326 0
688 -1327 0
-923 -1327 0
-688 923 1327 0
-644 -1328 0
891 -1328 0
644 -891 1328 0
-64 -1329 0
457 -1329 0
64 -457 1329 0
191 -1330 0
-660 -1330 0
-191 660 1330 0
-873 -1331 0
492 -1331 0
873 -492 1331 0
853 -1332 0
629 -1332 0
-853 -629 1332 0
221 -1333 0
-836 -1333 0
-221 836 1333 0
-9 -1334 0
655 -1334 0
9 -655 1334 0
-784 -1335 0
589 -1335 0
784 -589 1335 0
318 -1336 0
-500 -1336 0
-318 500 1336 0
-378 -1337 0
507 -1337 0
378 -507 1337 0
-138 -1338 0
60 -1338 0
138 -60 1338 0
157 -1339 0
426 -1339 0
-157 -426 1339 0
568 -1340 0
-706 -1340 0
-568 706 1340 0
-442 -1341 0
819 -1341 0
442 -819 1341 0
56 -1342 0
663 -1342 0
-56 -663 1342 0
285 -1343 0
705 -1343 0
-285 -705 1343 0
-117 -1344 0
425 -1344 0
117 -425 1344 0
-635 -1345 0
364 -1345 0
635 -364 1345 0
703 -1346 0
-169 -1346 0
-703 169 1346 0
512 -1347 0
204 -1347 0
-512 -204 1347 0
707 -1348 0
-750 -1348 0
-707 750 1348 0
627 -1349 0
-167 -1349 0
-627 167 1349 0
833 -1350 0
-655 -1350 0
-833 655 1350 0
251 -1351 0
643 -1351 0
-251 -643 1351 0
670 -1352 0
13 -1352 0
-670 -13 1352 0
-3 -1353 0
209 -1353 0
3 -209 1353 0
-426 -1354 0
946 -1354 0
426 -946 1354 0
120 -1355 0
-755 -1355 0
-120 755 1355 0
-72 -1356 0
904 -1356 0
72 -904 1356 0
-643 -1357 0
195 -1357 0
643 -195 1357 0
-159 -1358 0
833 -1358 0
159 -833 1358 0
-282 -1359 0
849 -1359 0
282 -849 1359 0
375 -1360 0
-381 -1360 0
-375 381 1360 0
572 -1361 0
-503 -1361 0
-572 503 1361 0
886 -1362 0
706 -1362 0
-886 -706 1362 0
-465 -1363 0
114 -1363 0
465 -114 1363 0
951 -1364 0
763 -1364 0
-951 -763 1364 0
175 -1365 0
-972 -1365 0
-175 972 1365 0
423 -1366 0
-106 -1366 0
-423 106 1366 0
54 -1367 0
238 -1367 0
-54 -238 1367 0
-545 -1368 0
29 -1368 0
545 -29 1368 0
640 -1369 0
217 -1369 0
-640 -217 1369 0
230 -1370 0
-999 -1370 0
-230 999 1370 0
-10 -1371 0
381 -1371 0
10 -381 1371 0
324 -1372 0
449 -1372 0
-324 -449 1372 0
-473 -1373 0
916 -1373 0
473 -916 1373 0
159 -1374 0
749 -1374 0
-159 -749 1374 0
-64 -1375 0
477 -1375 0
64 -477 1375 0
727 -1376 0
-173 -1376 0
-727 173 1376 0
580 -1377 0
433 -1377 0
-580 -433 1377 0
-435 -1378 0
69 -1378 0
435 -69 1378 0
-373 -1379 0
171 -1379 0
373 -171 1379 0
830 -1380 0
-110 -1380 0
-830 110 1380 0
342 -1381 0
260 -1381 0
-342 -260 1381 0
944 -1382 0
27 -1382 0
-944 -27 1382 0
180 -1383 0
-143 -1383 0
-180 143 1383 0
-314 -1384 0
445 -1384 0
314 -445 1384 0
279 -1385 0
-99 -1385 0
-279 99 1385 0
296 -1386 0
436 -1386 0
-296 -436 1386 0
285 -1387 0
-492 -1387 0
-285 492 1387 0
903 -1388 0
-489 -1388 0
-903 489 1388 0
467 -1389 0
-453 -1389 0
-467 453 1389 0
188 -1390 0
964 -1390 0
-188 -964 1390 0
668 -1391 0
-413 -1391 0
-668 413 1391 0
-859 -1392 0
564 -1392 0
859 -564 1392 0
894 -1393 0
645 -1393 0
-894 -645 1393 0
134 -1394 0
955 -1394 0
-134 -955 1394 0
151 -1395 0
268 -1395 0
-151 -268 1395 0
143 -1396 0
-948 -1396 0
-143 948 1396 0
-264 -1397 0
465 -1397 0
264 -465 1397 0
918 -1398 0
260 -1398 0
-918 -260 1398 0
316 -1399 0
465 -1399 0
-316 -465 1399 0
-17 -1400 0
634 -1400 0
17 -634 1400 0
271 -1401 0
538 -1401 0
-271 -538 1401 0
159 -1402 0
-643 -1402 0
-159 643 1402 0
-712 -1403 0
752 -1403 0
712 -752 1403 0
421 -1404 0
781 -1404 0
-421 -781 1404 0
400 -1405 0
-105 -1405 0
-400 105 1405 0
300 -1406 0
-559 -1406 0
-300 559 1406 0
407 -1407 0
141 -1407 0
-407 -141 1407 0
817 -1408 0
-391 -1408 0
-817 391 1408 0
-137 -1409 0
844 -1409 0
137 -844 1409 0
757 -1410 0
-987 -1410 0
-757 987 1410 0
157 -1411 0
580 -1411 0
-157 -580 1411 0
398 -1412 0
641 -1412 0
-398 -641 1412 0
-1000 -1413 0
717 -1413 0
1000 -717 1413 0
29 -1414 0
-211 -1414 0
-29 211 1414 0
-386 -1415 0
489 -1415 0
386 -489 1415 0
214 -1416 0
-350 -1416 0
-214 350 1416 0
661 -1417 0
-116 -1417 0
-661 116 1417 0
-864 -1418 0
92 -1418 0
864 -92 1418 0
792 -1419 0
-978 -1419 0
-792 978 1419 0
-24 -1420 0
784 -1420 0
24 -784 1420 0
-856 -1421 0
117 -1421 0
856 -117 1421 0
766 -1422 0
675 -1422 0
-766 -675 1422 0
-503 -1423 0
737 -1423 0
503 -737 1423 0
314 -1424 0
-143 -1424 0
-314 143 1424 0
-153 -1425 0
715 -1425 0
153 -715 1425 0
888 -1426 0
226 -1426 0
-888 -226 1426 0
275 -1427 0
-445 -1427 0
-275 445 1427 0
-920 -1428 0
139 -1428 0
920 -139 1428 0
341 -1429 0
-53 -1429 0
-341 53 1429 0
253 -1430 0
-268 -1430 0
-253 268 1430 0
416 -1431 0
224 -1431 0
-416 -224 1431 0
652 -1432 0
-285 -1432 0
-652 285 1432 0
118 -1433 0
85 -1433 0
-118 -85 1433 0
128 -1434 0
948 -1434 0
-128 -948 1434 0
908 -1435 0
139 -1435 0
-908 -139 1435 0
-380 -1436 0
636 -1436 0
380 -636 1436 0
-354 -1437 0
773 -1437 0
354 -773 1437 0
939 -1438 0
42 -1438 0
-939 -42 1438 0
-360 -1439 0
631 -1439 0
360 -631 1439 0
-709 -1440 0
585 -1440 0
709 -585 1440 0
559 -1441 0
-134 -1441 0
-559 134 1441 0
-62 -1442 0
793 -1442 0
62 -793 1442 0
-801 -1443 0
50 -1443 0
801 -50 1443 0
-595 -1444 0
777 -1444 0
595 -777 1444 0
-402 -1445 0
508 -1445 0
402 -508 1445 0
365 -1446 0
-4 -1446 0
-365 4 1446 0
847 -1447 0
-874 -1447 0
-847 874 1447 0
376 -1448 0
378 -1448 0
-376 -378 1448 0
287 -1449 0
897 -1449 0
-287 -897 1449 0
638 -1450 0
-142 -1450 0
-638 142 1450 0
509 -1451 0
-807 -1451 0
-509 807 1451 0
870 -1452 0
604 -1452 0
-870 -604 1452 0
216 -1453 0
-653 -1453 0
-216 653 1453 0
976 -1454 0
350 -1454 0
-976 -350 1454 0
44 -1455 0
-775 -1455 0
-44 775 1455 0
-424 -1456 0
34 -1456 0
424 -34 1456 0
-496 -1457 0
162 -1457 0
496 -162 1457 0
-772 -1458 0
443 -1458 0
772 -443 1458 0
-59 -1459 0
649 -1459 0
59 -649 1459 0
968 -1460 0
289 -1460 0
-968 -289 1460 0
-33 -1461 0
582 -1461 0
33 -582 1461 0
364 -1462 0
-205 -1462 0
-364 205 1462 0
-435 -1463 0
115 -1463 0
435 -115 1463 0
80 -1464 0
-701 -1464 0
-80 701 1464 0
-91 -1465 0
923 -1465 0
91 -923 1465 0
8 -1466 0
-387 -1466 0
-8 387 1466 0
-556 -1467 0
138 -1467 0
556 -138 1467 0
-670 -1468 0
393 -1468 0
670 -393 1468 0
-971 -1469 0
851 -1469 0
971 -851 1469 0
813 -1470 0
531 -1470 0
-813 -531 1470 0
-914 -1471 0
332 -1471 0
914 -332 1471 0
158 -1472 0
6 -1472 0
-158 -6 1472 0
725 -1473 0
-494 -1473 0
-725 494 1473 0
-256 -1474 0
340 -1474 0
256 -340 1474 0
328 -1475 0
-137 -1475 0
-328 137 1475 0
629 -1476 0
497 -1476 0
-629 -497 1476 0
296 -1477 0
-683 -1477 0
-296 683 1477 0
-963 -1478 0
812 -1478 0
963 -812 1478 0
230 -1479 0
505 -1479 0
-230 -505 1479 0
952 -1480 0
-540 -1480 0
-952 540 1480 0
236 -1481 0
841 -1481 0
-236 -841 1481 0
823 -1482 0
-91 -1482 0
-823 91 1482 0
319 -1483 0
-99 -1483 0
-319 99 1483 0
-838 -1484 0
833 -1484 0
838 -833 1484 0
-74 -1485 0
618 -1485 0
74 -618 1485 0
429 -1486 0
412 -1486 0
-429 -412 1486 0
724 -1487 0
762 -1487 0
-724 -762 1487 0
780 -1488 0
-565 -1488 0
-780 565 1488 0
429 -1489 0
701 -1489 0
-429 -701 1489 0
135 -1490 0
-509 -1490 0
-135 509 1490 0
464 -1491 0
-280 -1491 0
-464 280 1491 0
-409 -1492 0
785 -1492 0
409 -785 1492 0
-779 -1493 0
443 -1493 0
779 -443 1493 0
-80 -1494 0
731 -1494 0
80 -731 1494 0
-970 -1495 0
597 -1495 0
970 -597 1495 0
366 -1496 0
-631 -1496 0
-366 631 1496 0
446 -1497 0
-47 -1497 0
-446 47 1497 0
573 -1498 0
-12 -1498 0
-573 12 1498 0
-516 -1499 0
322 -1499 0
516 -322 1499 0
886 -1500 0
949 -1500 0
-886 -949 1500 0
-968 -1501 0
101 -1501 0
968 -101 1501 0
591 -1502 0
698 -1502 0
-591 -698 1502 0
631 -1503 0
-95 -1503 0
-631 95 1503 0
500 -1504 0
-847 -1504 0
-500 847 1504 0
319 -1505 0
771 -1505 0
-319 -771 1505 0
799 -1506 0
-663 -1506 0
-799 663 1506 0
991 -1507 0
284 -1507 0
-991 -284 1507 0
341 -1508 0
210 -1508 0
-341 -210 1508 0
744 -1509 0
651 -1509 0
-744 -651 1509 0
424 -1510 0
216 -1510 0
-424 -216 1510 0
-369 -1511 0
190 -1511 0
369 -190 1511 0
461 -1512 0
788 -1512 0
-461 -788 1512 0
-234 -1513 0
874 -1513 0
234 -874 1513 0
-282 -1514 0
641 -1514 0
282 -641 1514 0
-277 -1515 0
66 -1515 0
277 -66 1515 0
623 -1516 0
754 -1516 0
-623 -754 1516 0
998 -1517 0
681 -1517 0
-998 -681 1517 0
743 -1518 0
226 -1518 0
-743 -226 1518 0
-701 -1519 0
626 -1519 0
701 -626 1519 0
-740 -1520 0
954 -1520 0
740 -954 1520 0
527 -1521 0
-498 -1521 0
-527 498 1521 0
-219 -1522 0
172 -1522 0
219 -172 1522 0
699 -1523 0
-991 -1523 0
-699 991 1523 0
-768 -1524 0
50 -1524 0
768 -50 1524 0
488 -1525 0
916 -1525 0
-488 -916 1525 0
819 -1526 0
274 -1526 0
-819 -274 1526 0
235 -1527 0
-47 -1527 0
-235 47 1527 0
-592 -1528 0
269 -1528 0
592 -269 1528 0
118 -1529 0
770 -1529 0
-118 -770 1529 0
731 -1530 0
115 -1530 0
-731 -115 1530 0
336 -1531 0
402 -1531 0
-336 -402 1531 0
-336 -1532 0
734 -1532 0
336 -734 1532 0
856 -1533 0
163 -1533 0
-856 -163 1533 0
534 -1534 0
762 -1534 0
-534 -762 1534 0
-480 -1535 0
773 -1535 0
480 -773 1535 0
-226 -1536 0
961 -1536 0
226 -961 1536 0
752 -1537 0
669 -1537 0
-752 -669 1537 0
803 -1538 0
-495 -1538 0
-803 495 1538 0
153 -1539 0
889 -1539 0
-153 -889 1539 0
304 -1540 0
-959 -1540 0
-304 959 1540 0
236 -1541 0
-807 -1541 0
-236 807 1541 0
-920 -1542 0
934 -1542 0
920 -934 1542 0
935 -1543 0
385 -1543 0
-935 -385 1543 0
119 -1544 0
977 -1544 0
-119 -977 1544 0
379 -1545 0
113 -1545 0
-379 -113 1545 0
268 -1546 0
873 -1546 0
-268 -873 1546 0
239 -1547 0
-38 -1547 0
-239 38 1547 0
573 -1548 0
-102 -1548 0
-573 102 1548 0
291 -1549 0
-366 -1549 0
-291 366 1549 0
-171 -1550 0
314 -1550 0
171 -314 1550 0
-673 -1551 0
541 -1551 0
673 -541 1551 0
56 -1552 0
-4 -1552 0
-56 4 1552 0
-704 -1553 0
18 -1553 0
704 -18 1553 0
-35 -1554 0
43 -1554 0
35 -43 1554 0
799 -1555 0
915 -1555 0
-799 -915 1555 0
-446 -1556 0
650 -1556 0
446 -650 1556 0
35 -1557 0
-814 -1557 0
-35 814 1557 0
-868 -1558 0
899 -1558 0
868 -899 1558 0
-971 -1559 0
629 -1559 0
971 -629 1559 0
159 -1560 0
-422 -1560 0
-159 422 1560 0
845 -1561 0
-950 -1561 0
-845 950 1561 0
526 -1562 0
-462 -1562 0
-526 462 1562 0
-128 -1563 0
277 -1563 0
128 -277 1563 0
104 -1564 0
82 -1564 0
-104 -82 1564 0
-873 -1565 0
750 -1565 0
873 -750 1565 0
-584 -1566 0
446 -1566 0
584 -446 1566 0
-392 -1567 0
433 -1567 0
392 -433 1567 0
606 -1568 0
779 -1568 0
-606 -779 1568 0
666 -1569 0
105 -1569 0
-666 -105 1569 0
-57 -1570 0
3 -1570 0
57 -3 1570 0
639 -1571 0
-623 -1571 0
-639 623 1571 0
207 -1572 0
-371 -1572 0
-207 371 1572 0
-122 -1573 0
958 -1573 0
122 -958 1573 0
590 -1574 0
36 -1574 0
-590 -36 1574 0
981 -1575 0
-436 -1575 0
-981 436 1575 0
703 -1576 0
418 -1576 0
-703 -418 1576 0
752 -1577 0
-273 -1577 0
-752 273 1577 0
279 -1578 0
854 -1578 0
-279 -854 1578 0
48 -1579 0
587 -1579 0
-48 -587 1579 0
999 -1580 0
-278 -1580 0
-999 278 1580 0
368 -1581 0
-643 -1581 0
-368 643 1581 0
-946 -1582 0
379 -1582 0
946 -379 1582 0
879 -1583 0
810 -1583 0
-879 -810 1583 0
586 -1584 0
-446 -1584 0
-586 446 1584 0
-109 -1585 0
99 -1585 0
109 -99 1585 0
91 -1586 0
-143 -1586 0
-91 143 1586 0
-858 -1587 0
229 -1587 0
858 -229 1587 0
-168 -1588 0
794 -1588 0
168 -794 1588 0
992 -1589 0
-849 -1589 0
-992 849 1589 0
349 -1590 0
-630 -1590 0
-349 630 1590 0
35 -1591 0
891 -1591 0
-35 -891 1591 0
414 -1592 0
85 -1592 0
-414 -85 1592 0
755 -1593 0
-749 -1593 0
-755 749 1593 0
812 -1594 0
162 -1594 0
-812 -162 1594 0
934 -1595 0
99 -1595 0
-934 -99 1595 0
647 -1596 0
-853 -1596 0
-647 853 1596 0
-762 -1597 0
27 -1597 0
762 -27 1597 0
-649 -1598 0
428 -1598 0
649 -428 1598 0
-818 -1599 0
521 -1599 0
818 -521 1599 0
776 -1600 0
-634 -1600 0
-776 634 1600 0
-966 -1601 0
681 -1601 0
966 -681 1601 0
862 -1602 0
461 -1602 0
-862 -461 1602 0
169 -1603 0
761 -1603 0
-169 -761 1603 0
808 -1604 0
-675 -1604 0
-808 675 1604 0
96 -1605 0
207 -1605 0
-96 -207 1605 0
567 -1606 0
620 -1606 0
-567 -620 1606 0
-797 -1607 0
506 -1607 0
797 -506 1607 0
876 -1608 0
450 -1608 0
-876 -450 1608 0
-784 -1609 0
812 -1609 0
784 -812 1609 0
979 -1610 0
505 -1610 0
-979 -505 1610 0
464 -1611 0
-70 -1611 0
-464 70 1611 0
888 -1612 0
975 -1612 0
-888 -975 1612 0
-658 -1613 0
405 -1613 0
658 -405 1613 0
48 -1614 0
-907 -1614 0
-48 907 1614 0
-652 -1615 0
17 -1615 0
652 -17 1615 0
903 -1616 0
-22 -1616 0
-903 22 1616 0
752 -1617 0
784 -1617 0
-752 -784 1617 0
-433 -1618 0
9 -1618 0
433 -9 1618 0
635 -1619 0
866 -1619 0
-635 -866 1619 0
71 -1620 0
546 -1620 0
-71 -546 1620 0
469 -1621 0
293 -1621 0
-469 -293 1621 0
-825 -1622 0
990 -1622 0
825 -990 1622 0
790 -1623 0
978 -1623 0
-790 -978 1623 0
-865 -1624 0
52 -1624 0
865 -52 1624 0
23 -1625 0
75 -1625 0
-23 -75 1625 0
527 -1626 0
365 -1626 0
-527 -365 1626 0
80 -1627 0
388 -1627 0
-80 -388 1627 0
734 -1628 0
213 -1628 0
-734 -213 1628 0
48 -1629 0
-493 -1629 0
-48 493 1629 0
293 -1630 0
637 -1630 0
-293 -637 1630 0
70 -1631 0
665 -1631 0
-70 -665 1631 0
452 -1632 0
-677 -1632 0
-452 677 1632 0
3 -1633 0
-854 -1633 0
-3 854 1633 0
744 -1634 0
855 -1634 0
-744 -855 1634 0
-10 -1635 0
785 -1635 0
10 -785 1635 0
226 -1636 0
249 -1636 0
-226 -249 1636 0
-157 -1637 0
339 -1637 0
157 -339 1637 0
427 -1638 0
-63 -1638 0
-427 63 1638 0
847 -1639 0
482 -1639 0
-847 -482 1639 0
-57 -1640 0
870 -1640 0
57 -870 1640 0
-88 -1641 0
156 -1641 0
88 -156 1641 0
759 -1642 0
341 -1642 0
-759 -341 1642 0
252 -1643 0
-965 -1643 0
-252 965 1643 0
-107 -1644 0
242 -1644 0
107 -242 1644 0
-953 -1645 0
318 -1645 0
953 -318 1645 0
503 -1646 0
971 -1646 0
-503 -971 1646 0
-708 -1647 0
138 -1647 0
708 -138 1647 0
943 -1648 0
244 -1648 0
-943 -244 1648 0
51 -1649 0
-949 -1649 0
-51 949 1649 0
-861 -1650 0
817 -1650 0
861 -817 1650 0
653 -1651 0
502 -1652 0
-908 -1652 0
-502 908 1652 0
892 -1653 0
844 -1653 0
-892 -844 1653 0
269 -1654 0
-518 -1654 0
-269 518 1654 0
535 -1655 0
357 -1655 0
-535 -357 1655 0
788 -1656 0
-431 -1656 0
-788 431 1656 0
-33 -1657 0
302 -1657 0
33 -302 1657 0
943 -1658 0
-13 -1658 0
-943 13 1658 0
-506 -1659 0
445 -1659 0
506 -445 1659 0
479 -1660 0
127 -1660 0
-479 -127 1660 0
-971 -1661 0
97 -1661 0
971 -97 1661 0
152 -1662 0
-572 -1662 0
-152 572 1662 0
724 -1663 0
-982 -1663 0
-724 982 1663 0
723 -1664 0
858 -1664 0
-723 -858 1664 0
952 -1665 0
491 -1665 0
-952 -491 1665 0
878 -1666 0
-292 -1666 0
-878 292 1666 0
-160 -1667 0
482 -1667 0
160 -482 1667 0
923 -1668 0
-830 -1668 0
-923 830 1668 0
488 -1669 0
287 -1669 0
-488 -287 1669 0
-601 -1670 0
745 -1670 0
601 -745 1670 0
222 -1671 0
380 -1671 0
-222 -380 1671 0
615 -1672 0
803 -1672 0
-615 -803 1672 0
916 -1673 0
-70 -1673 0
-916 70 1673 0
408 -1674 0
849 -1674 0
-408 -849 1674 0
-505 -1675 0
396 -1675 0
505 -396 1675 0
216 -1676 0
279 -1676 0
-216 -279 1676 0
-876 -1677 0
259 -1677 0
876 -259 1677 0
-82 -1678 0
91 -1678 0
82 -91 1678 0
464 -1679 0
74 -1679 0
-464 -74 1679 0
862 -1680 0
19 -1680 0
-862 -19 1680 0
880 -1681 0
260 -1681 0
-880 -260 1681 0
-41 -1682 0
213 -1682 0
41 -213 1682 0
894 -1683 0
-747 -1683 0
-894 747 1683 0
616 -1684 0
-515 -1684 0
-616 515 1684 0
893 -1685 0
-85 -1685 0
-893 85 1685 0
464 -1686 0
687 -1686 0
-464 -687 1686 0
-989 -1687 0
675 -1687 0
989 -675 1687 0
-475 -1688 0
866 -1688 0
475 -866 1688 0
629 -1689 0
602 -1689 0
-629 -602 1689 0
127 -1690 0
-172 -1690 0
-127 172 1690 0
30 -1691 0
907 -1691 0
-30 -907 1691 0
664 -1692 0
711 -1692 0
-664 -711 1692 0
896 -1693 0
-303 -1693 0
-896 303 1693 0
-419 -1694 0
105 -1694 0
419 -105 1694 0
-212 -1695 0
716 -1695 0
212 -716 1695 0
-68 -1696 0
803 -1696 0
68 -803 1696 0
-918 -1697 0
138 -1697 0
918 -138 1697 0
599 -1698 0
34 -1698 0
-599 -34 1698 0
998 -1699 0
13 -1699 0
-998 -13 1699 0
-691 -1700 0
58 -1700 0
691 -58 1700 0
767 -1701 0
-677 -1701 0
-767 677 1701 0
-778 -1702 0
293 -1702 0
778 -293 1702 0
605 -1703 0
-791 -1703 0
-605 791 1703 0
-112 -1704 0
415 -1704 0
112 -415 1704 0
-971 -1705 0
706 -1705 0
971 -706 1705 0
996 -1706 0
963 -1706 0
-996 -963 1706 0
648 -1707 0
-69 -1707 0
-648 69 1707 0
-929 -1708 0
499 -1708 0
929 -499 1708 0
981 -1709 0
721 -1709 0
-981 -721 1709 0
331 -1710 0
-663 -1710 0
-331 663 1710 0
648 -1711 0
-452 -1711 0
-648 452 1711 0
130 -1712 0
833 -1712 0
-130 -833 1712 0
429 -1713 0
228 -1713 0
-429 -228 1713 0
-370 -1714 0
962 -1714 0
370 -962 1714 0
679 -1715 0
-359 -1715 0
-679 359 1715 0
135 -1716 0
-434 -1716 0
-135 434 1716 0
976 -1717 0
-68 -1717 0
-976 68 1717 0
482 -1718 0
-671 -1718 0
-482 671 1718 0
-457 -1719 0
570 -1719 0
457 -570 1719 0
102 -1720 0
467 -1720 0
-102 -467 1720 0
152 -1721 0
-392 -1721 0
-152 392 1721 0
-836 -1722 0
611 -1722 0
836 -611 1722 0
583 -1723 0
797 -1723 0
-583 -797 1723 0
-81 -1724 0
335 -1724 0
81 -335 1724 0
-289 -1725 0
242 -1725 0
289 -242 1725 0
262 -1726 0
332 -1726 0
-262 -332 1726 0
-837 -1727 0
209 -1727 0
837 -209 1727 0
-45 -1728 0
771 -1728 0
45 -771 1728 0
654 -1729 0
850 -1729 0
-654 -850 1729 0
222 -1730 0
171 -1730 0
-222 -171 1730 0
954 -1731 0
-279 -1731 0
-954 279 1731 0
-160 -1732 0
634 -1732 0
160 -634 1732 0
-862 -1733 0
890 -1733 0
862 -890 1733 0
-177 -1734 0
490 -1734 0
177 -490 1734 0
272 -1735 0
-969 -1735 0
-272 969 1735 0
957 -1736 0
652 -1736 0
-957 -652 1736 0
-602 -1737 0
890 -1737 0
602 -890 1737 0
616 -1738 0
-802 -1738 0
-616 802 1738 0
205 -1739 0
633 -1739 0
-205 -633 1739 0
71 -1740 0
-845 -1740 0
-71 845 1740 0
631 -1741 0
-666 -1741 0
-631 666 1741 0
829 -1742 0
-463 -1742 0
-829 463 1742 0
927 -1743 0
406 -1743 0
-927 -406 1743 0
58 -1744 0
-327 -1744 0
-58 327 1744 0
13 -1745 0
-926 -1745 0
-13 926 1745 0
459 -1746 0
394 -1746 0
-459 -394 1746 0
-251 -1747 0
339 -1747 0
251 -339 1747 0
34 -1748 0
489 -1748 0
-34 -489 1748 0
117 -1749 0
619 -1749 0
-117 -619 1749 0
614 -1750 0
-547 -1750 0
-614 547 1750 0
-755 -1751 0
897 -1751 0
755 -897 1751 0
-42 -1752 0
916 -1752 0
42 -916 1752 0
318 -1753 0
-34 -1753 0
-318 34 1753 0
959 -1754 0
922 -1754 0
-959 -922 1754 0
836 -1755 0
185 -1755 0
-836 -185 1755 0
-544 -1756 0
752 -1756 0
544 -752 1756 0
757 -1757 0
130 -1757 0
-757 -130 1757 0
808 -1758 0
607 -1758 0
-808 -607 1758 0
965 -1759 0
-421 -1759 0
-965 421 1759 0
-905 -1760 0
57 -1760 0
905 -57 1760 0
210 -1761 0
-511 -1761 0
-210 511 1761 0
742 -1762 0
613 -1762 0
-742 -613 1762 0
870 -1763 0
-414 -1763 0
-870 414 1763 0
878 -1764 0
276 -1764 0
-878 -276 1764 0
504 -1765 0
-715 -1765 0
-504 715 1765 0
930 -1766 0
313 -1766 0
-930 -313 1766 0
-740 -1767 0
842 -1767 0
740 -842 1767 0
-138 -1768 0
554 -1768 0
138 -554 1768 0
79 -1769 0
457 -1769 0
-79 -457 1769 0
742 -1770 0
-547 -1770 0
-742 547 1770 0
-380 -1771 0
706 -1771 0
380 -706 1771 0
575 -1772 0
941 -1772 0
-575 -941 1772 0
320 -1773 0
852 -1773 0
-320 -852 1773 0
899 -1774 0
474 -1774 0
-899 -474 1774 0
88 -1775 0
-599 -1775 0
-88 599 1775 0
688 -1776 0
-758 -1776 0
-688 758 1776 0
-123 -1777 0
621 -1777 0
123 -621 1777 0
988 -1778 0
-893 -1778 0
-988 893 1778 0
327 -1779 0
313 -1779 0
-327 -313 1779 0
-712 -1780 0
355 -1780 0
712 -355 1780 0
-17 -1781 0
295 -1781 0
17 -295 1781 0
-512 -1782 0
781 -1782 0
512 -781 1782 0
-234 -1783 0
21 -1783 0
234 -21 1783 0
700 -1784 0
753 -1784 0
-700 -753 1784 0
213 -1785 0
233 -1785 0
-213 -233 1785 0
-594 -1786 0
881 -1786 0
594 -881 1786 0
-313 -1787 0
654 -1787 0
313 -654 1787 0
-344 -1788 0
183 -1788 0
344 -183 1788 0
-108 -1789 0
419 -1789 0
108 -419 1789 0
270 -1790 0
451 -1790 0
-270 -451 1790 0
343 -1791 0
1 -1791 0
-343 -1 1791 0
835 -1792 0
-735 -1792 0
-835 735 1792 0
911 -1793 0
-579 -1793 0
-911 579 1793 0
512 -1794 0
380 -1794 0
-512 -380 1794 0
687 -1795 0
-726 -1795 0
-687 726 1795 0
440 -1796 0
474 -1796 0
-440 -474 1796 0
-986 -1797 0
614 -1797 0
986 -614 1797 0
888 -1798 0
960 -1798 0
-888 -960 1798 0
-328 -1799 0
500 -1799 0
328 -500 1799 0
-722 -1800 0
498 -1800 0
722 -498 1800 0
711 -1801 0
715 -1801 0
-711 -715 1801 0
510 -1802 0
10 -1802 0
-510 -10 1802 0
559 -1803 0
969 -1803 0
-559 -969 1803 0
-152 -1804 0
167 -1804 0
152 -167 1804 0
712 -1805 0
-561 -1805 0
-712 561 1805 0
643 -1806 0
122 -1806 0
-643 -122 1806 0
134 -1807 0
-138 -1807 0
-134 138 1807 0
934 -1808 0
305 -1808 0
-934 -305 1808 0
39 -1809 0
-226 -1809 0
-39 226 1809 0
215 -1810 0
147 -1810 0
-215 -147 1810 0
941 -1811 0
-244 -1811 0
-941 244 1811 0
404 -1812 0
274 -1812 0
-404 -274 1812 0
726 -1813 0
-117 -1813 0
-726 117 1813 0
756 -1814 0
-213 -1814 0
-756 213 1814 0
-436 -1815 0
977 -1815 0
436 -977 1815 0
238 -1816 0
-60 -1816 0
-238 60 1816 0
-888 -1817 0
905 -1817 0
888 -905 1817 0
165 -1818 0
-245 -1818 0
-165 245 1818 0
-377 -1819 0
887 -1819 0
377 -887 1819 0
528 -1820 0
-447 -1820 0
-528 447 1820 0
508 -1821 0
-326 -1821 0
-508 326 1821 0
725 -1822 0
555 -1822 0
-725 -555 1822 0
90 -1823 0
-278 -1823 0
-90 278 1823 0
200 -1824 0
425 -1824 0
-200 -425 1824 0
936 -1825 0
471 -1825 0
-936 -471 1825 0
751 -1826 0
-927 -1826 0
-751 927 1826 0
967 -1827 0
785 -1827 0
-967 -785 1827 0
506 -1828 0
505 -1828 0
-506 -505 1828 0
-547 -1829 0
963 -1829 0
547 -963 1829 0
854 -1830 0
-199 -1830 0
-854 199 1830 0
606 -1831 0
810 -1831 0
-606 -810 1831 0
104 -1832 0
-270 -1832 0
-104 270 1832 0
286 -1833 0
-684 -1833 0
-286 684 1833 0
-34 -1834 0
349 -1834 0
34 -349 1834 0
448 -1835 0
-170 -1835 0
-448 170 1835 0
327 -1836 0
29 -1836 0
-327 -29 1836 0
64 -1837 0
-4 -1837 0
-64 4 1837 0
-897 -1838 0
876 -1838 0
897 -876 1838 0
511 -1839 0
-582 -1839 0
-511 582 1839 0
494 -1840 0
425 -1840 0
-494 -425 1840 0
-994 -1841 0
957 -1841 0
994 -957 1841 0
-181 -1842 0
521 -1842 0
181 -521 1842 0
-941 -1843 0
497 -1843 0
941 -497 1843 0
550 -1844 0
-742 -1844 0
-550 742 1844 0
949 -1845 0
521 -1845 0
-949 -521 1845 0
332 -1846 0
867 -1846 0
-332 -867 1846 0
178 -1847 0
905 -1847 0
-178 -905 1847 0
832 -1848 0
684 -1848 0
-832 -684 1848 0
-233 -1849 0
823 -1849 0
233 -823 1849 0
830 -1850 0
-850 -1850 0
-830 850 1850 0
748 -1851 0
986 -1851 0
-748 -986 1851 0
366 -1852 0
-802 -1852 0
-366 802 1852 0
323 -1853 0
770 -1853 0
-323 -770 1853 0
-603 -1854 0
825 -1854 0
603 -825 1854 0
995 -1855 0
138 -1855 0
-995 -138 1855 0
-905 -1856 0
571 -1856 0
905 -571 1856 0
807 -1857 0
-346 -1857 0
-807 346 1857 0
880 -1858 0
97 -1858 0
-880 -97 1858 0
815 -1859 0
123 -1859 0
-815 -123 1859 0
-64 -1860 0
857 -1860 0
64 -857 1860 0
461 -1861 0
-940 -1861 0
-461 940 1861 0
22 -1862 0
947 -1862 0
-22 -947 1862 0
486 -1863 0
833 -1863 0
-486 -833 1863 0
461 -1864 0
-715 -1864 0
-461 715 1864 0
-652 -1865 0
49 -1865 0
652 -49 1865 0
184 -1866 0
-397 -1866 0
-184 397 1866 0
706 -1867 0
25 -1867 0
-706 -25 1867 0
710 -1868 0
-974 -1868 0
-710 974 1868 0
-322 -1869 0
105 -1869 0
322 -105 1869 0
29 -1870 0
227 -1870 0
-29 -227 1870 0
835 -1871 0
-999 -1871 0
-835 999 1871 0
978 -1872 0
-639 -1872 0
-978 639 1872 0
453 -1873 0
-533 -1873 0
-453 533 1873 0
269 -1874 0
-734 -1874 0
-269 734 1874 0
949 -1875 0
-476 -1875 0
-949 476 1875 0
527 -1876 0
162 -1876 0
-527 -162 1876 0
-83 -1877 0
476 -1877 0
83 -476 1877 0
-580 -1878 0
163 -1878 0
580 -163 1878 0
290 -1879 0
-294 -1879 0
-290 294 1879 0
-705 -1880 0
883 -1880 0
705 -883 1880 0
350 -1881 0
-44 -1881 0
-350 44 1881 0
47 -1882 0
731 -1882 0
-47 -731 1882 0
-610 -1883 0
780 -1883 0
610 -780 1883 0
-4 -1884 0
274 -1884 0
4 -274 1884 0
862 -1885 0
153 -1885 0
-862 -153 1885 0
340 -1886 0
283 -1886 0
-340 -283 1886 0
804 -1887 0
-925 -1887 0
-804 925 1887 0
943 -1888 0
-773 -1888 0
-943 773 1888 0
-817 -1889 0
172 -1889 0
817 -172 1889 0
759 -1890 0
-299 -1890 0
-759 299 1890 0
-315 -1891 0
973 -1891 0
315 -973 1891 0
196 -1892 0
978 -1892 0
-196 -978 1892 0
740 -1893 0
777 -1893 0
-740 -777 1893 0
-268 -1894 0
579 -1894 0
268 -579 1894 0
70 -1895 0
-250 -1896 0
923 -1896 0
250 -923 1896 0
531 -1897 0
203 -1897 0
-531 -203 1897 0
247 -1898 0
425 -1898 0
-247 -425 1898 0
340 -1899 0
-71 -1899 0
-340 71 1899 0
834 -1900 0
513 -1900 0
-834 -513 1900 0
364 -1901 0
-959 -1901 0
-364 959 1901 0
-321 -1902 0
722 -1902 0
321 -722 1902 0
-906 -1903 0
109 -1903 0
906 -109 1903 0
740 -1904 0
-549 -1904 0
-740 549 1904 0
109 -1905 0
593 -1905 0
-109 -593 1905 0
400 -1906 0
533 -1906 0
-400 -533 1906 0
-340 -1907 0
426 -1907 0
340 -426 1907 0
295 -1908 0
441 -1908 0
-295 -441 1908 0
967 -1909 0
211 -1909 0
-967 -211 1909 0
853 -1910 0
420 -1910 0
-853 -420 1910 0
-762 -1911 0
322 -1911 0
762 -322 1911 0
775 -1912 0
857 -1912 0
-775 -857 1912 0
991 -1913 0
806 -1913 0
-991 -806 1913 0
563 -1914 0
-431 -1914 0
-563 431 1914 0
833 -1915 0
969 -1915 0
-833 -969 1915 0
686 -1916 0
619 -1916 0
-686 -619 1916 0
145 -1917 0
361 -1917 0
-145 -361 1917 0
-806 -1918 0
961 -1918 0
806 -961 1918 0
492 -1919 0
571 -1919 0
-492 -571 1919 0
308 -1920 0
26 -1920 0
-308 -26 1920 0
698 -1921 0
-607 -1921 0
-698 607 1921 0
591 -1922 0
249 -1922 0
-591 -249 1922 0
710 -1923 0
-235 -1923 0
-710 235 1923 0
73 -1924 0
25 -1924 0
-73 -25 1924 0
4 -1925 0
-198 -1925 0
-4 198 1925 0
573 -1926 0
-572 -1926 0
-573 572 1926 0
632 -1927 0
903 -1927 0
-632 -903 1927 0
265 -1928 0
817 -1928 0
-265 -817 1928 0
-688 -1929 0
705 -1929 0
688 -705 1929 0
283 -1930 0
794 -1930 0
-283 -794 1930 0
944 -1931 0
-890 -1931 0
-944 890 1931 0
-800 -1932 0
343 -1932 0
800 -343 1932 0
645 -1933 0
-422 -1933 0
-645 422 1933 0
-246 -1934 0
17 -1934 0
246 -17 1934 0
-978 -1935 0
532 -1935 0
978 -532 1935 0
-70 -1936 0
538 -1936 0
70 -538 1936 0
686 -1937 0
-628 -1937 0
-686 628 1937 0
886 -1938 0
634 -1938 0
-886 -634 1938 0
535 -1939 0
-461 -1939 0
-535 461 1939 0
60 -1940 0
473 -1940 0
-60 -473 1940 0
35 -1941 0
482 -1941 0
-35 -482 1941 0
728 -1942 0
213 -1942 0
-728 -213 1942 0
598 -1943 0
-359 -1943 0
-598 359 1943 0
198 -1944 0
-853 -1944 0
-198 853 1944 0
-697 -1945 0
997 -1945 0
697 -997 1945 0
546 -1946 0
625 -1946 0
-546 -625 1946 0
984 -1947 0
27 -1947 0
-984 -27 1947 0
-552 -1948 0
829 -1948 0
552 -829 1948 0
-616 -1949 0
613 -1949 0
616 -613 1949 0
340 -1950 0
274 -1950 0
-340 -274 1950 0
628 -1951 0
-910 -1951 0
-628 910 1951 0
413 -1952 0
-263 -1952 0
-413 263 1952 0
632 -1953 0
-243 -1953 0
-632 243 1953 0
814 -1954 0
-268 -1954 0
-814 268 1954 0
767 -1955 0
-807 -1955 0
-767 807 1955 0
970 -1956 0
-367 -1956 0
-970 367 1956 0
141 -1957 0
556 -1957 0
-141 -556 1957 0
-409 -1958 0
805 -1958 0
409 -805 1958 0
800 -1959 0
-691 -1959 0
-800 691 1959 0
431 -1960 0
-811 -1960 0
-431 811 1960 0
348 -1961 0
852 -1961 0
-348 -852 1961 0
429 -1962 0
452 -1962 0
-429 -452 1962 0
350 -1963 0
259 -1963 0
-350 -259 1963 0
-922 -1964 0
450 -1964 0
922 -450 1964 0
342 -1965 0
548 -1965 0
-342 -548 1965 0
462 -1966 0
697 -1966 0
-462 -697 1966 0
128 -1967 0
818 -1967 0
-128 -818 1967 0
-688 -1968 0
777 -1968 0
688 -777 1968 0
336 -1969 0
-229 -1969 0
-336 229 1969 0
21 -1970 0
993 -1970 0
-21 -993 1970 0
487 -1971 0
508 -1971 0
-487 -508 1971 0
296 -1972 0
-646 -1972 0
-296 646 1972 0
906 -1973 0
-702 -1973 0
-906 702 1973 0
-808 -1974 0
828 -1974 0
808 -828 1974 0
22 -1975 0
37 -1975 0
-22 -37 1975 0
-448 -1976 0
398 -1976 0
448 -398 1976 0
-923 -1977 0
593 -1977 0
923 -593 1977 0
191 -1978 0
-756 -1978 0
-191 756 1978 0
751 -1979 0
-538 -1979 0
-751 538 1979 0
180 -1980 0
-95 -1980 0
-180 95 1980 0
43 -1981 0
257 -1981 0
-43 -257 1981 0
686 -1982 0
-771 -1982 0
-686 771 1982 0
-217 -1983 0
962 -1983 0
217 -962 1983 0
-930 -1984 0
553 -1984 0
930 -553 1984 0
-618 -1985 0
925 -1985 0
618 -925 1985 0
350 -1986 0
812 -1986 0
-350 -812 1986 0
725 -1987 0
-557 -1987 0
-725 557 1987 0
831 -1988 0
119 -1988 0
-831 -119 1988 0
680 -1989 0
-154 -1989 0
-680 154 1989 0
304 -1990 0
879 -1990 0
-304 -879 1990 0
871 -1991 0
574 -1991 0
-871 -574 1991 0
80 -1992 0
697 -1992 0
-80 -697 1992 0
855 -1993 0
234 -1993 0
-855 -234 1993 0
336 -1994 0
-589 -1994 0
-336 589 1994 0
239 -1995 0
-47 -1995 0
-239 47 1995 0
407 -1996 0
494 -1996 0
-407 -494 1996 0
557 -1997 0
722 -1997 0
-557 -722 1997 0
136 -1998 0
-827 -1998 0
-136 827 1998 0
543 -1999 0
858 -1999 0
-543 -858 1999 0
-402 -2000 0
795 -2000 0
402 -795 2000 0
270 -2001 0
317 -2001 0
-270 -317 2001 0
-152 -2002 0
927 -2002 0
152 -927 2002 0
-209 -2003 0
697 -2003 0
209 -697 2003 0
918 -2004 0
290 -2004 0
-918 -290 2004 0
248 -2005 0
-52 -2005 0
-248 52 2005 0
695 -2006 0
-43 -2006 0
-695 43 2006 0
579 -2007 0
-118 -2007 0
-579 118 2007 0
-810 -2008 0
826 -2008 0
810 -826 2008 0
-169 -2009 0
422 -2009 0
169 -422 2009 0
-209 -2010 0
596 -2010 0
209 -596 2010 0
-802 -2011 0
250 -2011 0
802 -250 2011 0
168 -2012 0
-465 -2012 0
-168 465 2012 0
990 -2013 0
-988 -2013 0
-990 988 2013 0
168 -2014 0
863 -2014 0
-168 -863 2014 0
62 -2015 0
-996 -2015 0
-62 996 2015 0
-839 -2016 0
529 -2016 0
839 -529 2016 0
-904 -2017 0
978 -2017 0
904 -978 2017 0
382 -2018 0
757 -2018 0
-382 -757 2018 0
-841 -2019 0
677 -2019 0
841 -677 2019 0
-122 -2020 0
130 -2020 0
122 -130 2020 0
391 -2021 0
-68 -2021 0
-391 68 2021 0
-985 -2022 0
421 -2022 0
985 -421 2022 0
148 -2023 0
493 -2024 0
193 -2024 0
-493 -193 2024 0
156 -2025 0
-47 -2025 0
-156 47 2025 0
61 -2026 0
681 -2026 0
-61 -681 2026 0
320 -2027 0
-431 -2027 0
-320 431 2027 0
399 -2028 0
209 -2028 0
-399 -209 2028 0
732 -2029 0
-365 -2029 0
-732 365 2029 0
767 -2030 0
146 -2030 0
-767 -146 2030 0
788 -2031 0
-182 -2031 0
-788 182 2031 0
-225 -2032 0
885 -2032 0
225 -885 2032 0
-57 -2033 0
66 -2033 0
57 -66 2033 0
591 -2034 0
469 -2034 0
-591 -469 2034 0
-202 -2035 0
261 -2036 0
-734 -2036 0
-261 734 2036 0
-817 -2037 0
436 -2037 0
817 -436 2037 0
615 -2038 0
817 -2038 0
-615 -817 2038 0
130 -2039 0
762 -2039 0
-130 -762 2039 0
812 -2040 0
729 -2040 0
-812 -729 2040 0
-537 -2041 0
834 -2041 0
537 -834 2041 0
-985 -2042 0
844 -2042 0
985 -844 2042 0
-471 -2043 0
273 -2043 0
471 -273 2043 0
524 -2044 0
225 -2044 0
-524 -225 2044 0
595 -2045 0
218 -2045 0
-595 -218 2045 0
230 -2046 0
675 -2046 0
-230 -675 2046 0
227 -2047 0
-789 -2047 0
-227 789 2047 0
779 -2048 0
145 -2048 0
-779 -145 2048 0
-787 -2049 0
209 -2049 0
787 -209 2049 0
367 -2050 0
149 -2050 0
-367 -149 2050 0
311 -2051 0
420 -2051 0
-311 -420 2051 0
934 -2052 0
-511 -2052 0
-934 511 2052 0
-688 -2053 0
624 -2053 0
688 -624 2053 0
543 -2054 0
754 -2054 0
-543 -754 2054 0
920 -2055 0
865 -2055 0
-920 -865 2055 0
805 -2056 0
-261 -2056 0
-805 261 2056 0
302 -2057 0
347 -2057 0
-302 -347 2057 0
581 -2058 0
953 -2058 0
-581 -953 2058 0
760 -2059 0
406 -2059 0
-760 -406 2059 0
592 -2060 0
-234 -2060 0
-592 234 2060 0
84 -2061 0
-830 -2061 0
-84 830 2061 0
430 -2062 0
425 -2062 0
-430 -425 2062 0
879 -2063 0
410 -2063 0
-879 -410 2063 0
648 -2064 0
-23 -2064 0
-648 23 2064 0
134 -2065 0
908 -2065 0
-134 -908 2065 0
443 -2066 0
-558 -2066 0
-443 558 2066 0
-98 -2067 0
690 -2067 0
98 -690 2067 0
327 -2068 0
-942 -2068 0
-327 942 2068 0
944 -2069 0
769 -2069 0
-944 -769 2069 0
461 -2070 0
921 -2070 0
-461 -921 2070 0
-352 -2071 0
813 -2071 0
352 -813 2071 0
801 -2072 0
-815 -2072 0
-801 815 2072 0
128 -2073 0
-302 -2073 0
-128 302 2073 0
482 -2074 0
-415 -2074 0
-482 415 2074 0
-120 -2075 0
922 -2075 0
120 -922 2075 0
37 -2076 0
834 -2076 0
-37 -834 2076 0
-491 -2077 0
730 -2077 0
491 -730 2077 0
754 -2078 0
-343 -2078 0
-754 343 2078 0
437 -2079 0
-316 -2079 0
-437 316 2079 0
150 -2080 0
554 -2080 0
-150 -554 2080 0
120 -2081 0
-430 -2081 0
-120 430 2081 0
-764 -2082 0
658 -2082 0
764 -658 2082 0
568 -2083 0
-152 -2083 0
-568 152 2083 0
364 -2084 0
-132 -2084 0
-364 132 2084 0
-513 -2085 0
166 -2085 0
513 -166 2085 0
44 -2086 0
-925 -2086 0
-44 925 2086 0
-48 -2087 0
459 -2087 0
48 -459 2087 0
887 -2088 0
525 -2088 0
-887 -525 2088 0
-323 -2089 0
481 -2089 0
323 -481 2089 0
845 -2090 0
821 -2090 0
-845 -821 2090 0
-396 -2091 0
98 -2091 0
396 -98 2091 0
-831 -2092 0
489 -2092 0
831 -489 2092 0
348 -2093 0
963 -2093 0
-348 -963 2093 0
109 -2094 0
507 -2094 0
-109 -507 2094 0
662 -2095 0
500 -2095 0
-662 -500 2095 0
256 -2096 0
-270 -2096 0
-256 270 2096 0
534 -2097 0
-564 -2097 0
-534 564 2097 0
-466 -2098 0
861 -2098 0
466 -861 2098 0
-861 -2099 0
25 -2099 0
861 -25 2099 0
916 -2100 0
594 -2100 0
-916 -594 2100 0
-418 -2101 0
236 -2101 0
418 -236 2101 0
758 -2102 0
650 -2102 0
-758 -650 2102 0
-736 -2103 0
825 -2103 0
736 -825 2103 0
168 -2104 0
-44 -2104 0
-168 44 2104 0
246 -2105 0
-462 -2105 0
-246 462 2105 0
656 -2106 0
-561 -2106 0
-656 561 2106 0
920 -2107 0
752 -2107 0
-920 -752 2107 0
630 -2108 0
-908 -2108 0
-630 908 2108 0
808 -2109 0
661 -2109 0
-808 -661 2109 0
922 -2110 0
897 -2110 0
-922 -897 2110 0
276 -2111 0
522 -2111 0
-276 -522 2111 0
644 -2112 0
643 -2112 0
-644 -643 2112 0
-927 -2113 0
153 -2113 0
927 -153 2113 0
454 -2114 0
473 -2114 0
-454 -473 2114 0
-498 -2115 0
332 -2115 0
498 -332 2115 0
854 -2116 0
-923 -2116 0
-854 923 2116 0
647 -2117 0
452 -2117 0
-647 -452 2117 0
-391 -2118 0
41 -2118 0
391 -41 2118 0
15 -2119 0
-341 -2119 0
-15 341 2119 0
-595 -2120 0
305 -2120 0
595 -305 2120 0
-473 -2121 0
830 -2121 0
473 -830 2121 0
-823 -2122 0
105 -2122 0
823 -105 2122 0
-461 -2123 0
186 -2123 0
461 -186 2123 0
-624 -2124 0
943 -2124 0
624 -943 2124 0
296 -2125 0
-358 -2125 0
-296 358 2125 0
-779 -2126 0
485 -2126 0
779 -485 2126 0
652 -2127 0
-324 -2127 0
-652 324 2127 0
332 -2128 0
-68 -2128 0
-332 68 2128 0
70 -2129 0
484 -2129 0
-70 -484 2129 0
48 -2130 0
87 -2130 0
-48 -87 2130 0
-388 -2131 0
708 -2131 0
388 -708 2131 0
932 -2132 0
244 -2132 0
-932 -244 2132 0
526 -2133 0
-916 -2133 0
-526 916 2133 0
328 -2134 0
-474 -2134 0
-328 474 2134 0
964 -2135 0
-207 -2135 0
-964 207 2135 0
324 -2136 0
514 -2136 0
-324 -514 2136 0
759 -2137 0
846 -2137 0
-759 -846 2137 0
-346 -2138 0
906 -2138 0
346 -906 2138 0
-57 -2139 0
539 -2139 0
57 -539 2139 0
728 -2140 0
422 -2140 0
-728 -422 2140 0
226 -2141 0
-991 -2141 0
-226 991 2141 0
352 -2142 0
-108 -2142 0
-352 108 2142 0
920 -2143 0
-615 -2143 0
-920 615 2143 0
-970 -2144 0
9 -2144 0
970 -9 2144 0
468 -2145 0
-244 -2145 0
-468 244 2145 0
855 -2146 0
891 -2146 0
-855 -891 2146 0
783 -2147 0
-677 -2147 0
-783 677 2147 0
379 -2148 0
-559 -2148 0
-379 559 2148 0
974 -2149 0
726 -2149 0
-974 -726 2149 0
-312 -2150 0
340 -2150 0
312 -340 2150 0
278 -2151 0
340 -2151 0
-278 -340 2151 0
-842 -2152 0
995 -2152 0
842 -995 2152 0
824 -2153 0
499 -2153 0
-824 -499 2153 0
633 -2154 0
345 -2154 0
-633 -345 2154 0
87 -2155 0
-589 -2155 0
-87 589 2155 0
645 -2156 0
-693 -2156 0
-645 693 2156 0
311 -2157 0
-229 -2157 0
-311 229 2157 0
-288 -2158 0
368 -2158 0
288 -368 2158 0
-211 -2159 0
242 -2159 0
211 -242 2159 0
-289 -2160 0
258 -2160 0
289 -258 2160 0
968 -2161 0
-960 -2161 0
-968 960 2161 0
-656 -2162 0
652 -2162 0
656 -652 2162 0
-31 -2163 0
129 -2163 0
31 -129 2163 0
698 -2164 0
-479 -2164 0
-698 479 2164 0
305 -2165 0
801 -2165 0
-305 -801 2165 0
62 -2166 0
-587 -2166 0
-62 587 2166 0
191 -2167 0
721 -2167 0
-191 -721 2167 0
493 -2168 0
-230 -2168 0
-493 230 2168 0
701 -2169 0
-276 -2169 0
-701 276 2169 0
648 -2170 0
879 -2170 0
-648 -879 2170 0
141 -2171 0
-183 -2171 0
-141 183 2171 0
24 -2172 0
-617 -2172 0
-24 617 2172 0
85 -2173 0
-254 -2173 0
-85 254 2173 0
16 -2174 0
234 -2174 0
-16 -234 2174 0
-625 -2175 0
187 -2175 0
625 -187 2175 0
-457 -2176 0
575 -2176 0
457 -575 2176 0
503 -2177 0
-387 -2177 0
-503 387 2177 0
-824 -2178 0
295 -2178 0
824 -295 2178 0
-97 -2179 0
396 -2179 0
97 -396 2179 0
-921 -2180 0
25 -2180 0
921 -25 2180 0
96 -2181 0
-664 -2181 0
-96 664 2181 0
-200 -2182 0
538 -2182 0
200 -538 2182 0
350 -2183 0
-269 -2183 0
-350 269 2183 0
391 -2184 0
895 -2184 0
-391 -895 2184 0
-90 -2185 0
705 -2185 0
90 -705 2185 0
872 -2186 0
311 -2186 0
-872 -311 2186 0
684 -2187 0
-998 -2187 0
-684 998 2187 0
112 -2188 0
-202 -2188 0
-112 202 2188 0
136 -2189 0
-885 -2189 0
-136 885 2189 0
-424 -2190 0
60 -2190 0
424 -60 2190 0
973 -2191 0
-427 -2191 0
-973 427 2191 0
63 -2192 0
-590 -2192 0
-63 590 2192 0
634 -2193 0
241 -2193 0
-634 -241 2193 0
-955 -2194 0
468 -2194 0
955 -468 2194 0
219 -2195 0
-775 -2195 0
-219 775 2195 0
424 -2196 0
-596 -2196 0
-424 596 2196 0
315 -2197 0
-38 -2197 0
-315 38 2197 0
-272 -2198 0
596 -2198 0
272 -596 2198 0
56 -2199 0
-554 -2199 0
-56 554 2199 0
948 -2200 0
-214 -2200 0
-948 214 2200 0
-691 -2201 0
483 -2201 0
691 -483 2201 0
551 -2202 0
-606 -2202 0
-551 606 2202 0
855 -2203 0
253 -2203 0
-855 -253 2203 0
173 -2204 0
869 -2204 0
-173 -869 2204 0
554 -2205 0
-342 -2205 0
-554 342 2205 0
136 -2206 0
866 -2206 0
-136 -866 2206 0
-384 -2207 0
571 -2207 0
384 -571 2207 0
-240 -2208 0
30 -2208 0
240 -30 2208 0
941 -2209 0
-876 -2209 0
-941 876 2209 0
-27 -2210 0
746 -2210 0
27 -746 2210 0
550 -2211 0
307 -2211 0
-550 -307 2211 0
981 -2212 0
-459 -2212 0
-981 459 2212 0
218 -2213 0
-39 -2213 0
-218 39 2213 0
-914 -2214 0
266 -2214 0
914 -266 2214 0
192 -2215 0
615 -2215 0
-192 -615 2215 0
-316 -2216 0
11 -2216 0
316 -11 2216 0
302 -2217 0
709 -2217 0
-302 -709 2217 0
28 -2218 0
-318 -2218 0
-28 318 2218 0
-616 -2219 0
989 -2219 0
616 -989 2219 0
-324 -2220 0
513 -2220 0
324 -513 2220 0
911 -2221 0
194 -2221 0
-911 -194 2221 0
561 -2222 0
257 -2222 0
-561 -257 2222 0
15 -2223 0
-306 -2223 0
-15 306 2223 0
552 -2224 0
-192 -2224 0
-552 192 2224 0
78 -2225 0
34 -2225 0
-78 -34 2225 0
888 -2226 0
-462 -2226 0
-888 462 2226 0
630 -2227 0
99 -2227 0
-630 -99 2227 0
290 -2228 0
-342 -2228 0
-290 342 2228 0
519 -2229 0
307 -2229 0
-519 -307 2229 0
742 -2230 0
379 -2230 0
-742 -379 2230 0
875 -2231 0
969 -2231 0
-875 -969 2231 0
68 -2232 0
-191 -2232 0
-68 191 2232 0
578 -2233 0
338 -2233 0
-578 -338 2233 0
21 -2234 0
-900 -2234 0
-21 900 2234 0
-667 -2235 0
341 -2235 0
667 -341 2235 0
-657 -2236 0
165 -2236 0
657 -165 2236 0
-34 -2237 0
89 -2237 0
34 -89 2237 0
-693 -2238 0
313 -2238 0
693 -313 2238 0
-272 -2239 0
606 -2239 0
272 -606 2239 0
157 -2240 0
-6 -2240 0
-157 6 2240 0
76 -2241 0
434 -2241 0
-76 -434 2241 0
940 -2242 0
841 -2242 0
-940 -841 2242 0
913 -2243 0
273 -2243 0
-913 -273 2243 0
584 -2244 0
-526 -2244 0
-584 526 2244 0
126 -2245 0
277 -2245 0
-126 -277 2245 0
64 -2246 0
309 -2246 0
-64 -309 2246 0
994 -2247 0
-631 -2247 0
-994 631 2247 0
-426 -2248 0
801 -2248 0
426 -801 2248 0
75 -2249 0
-119 -2249 0
-75 119 2249 0
119 -2250 0
567 -2250 0
-119 -567 2250 0
-354 -2251 0
193 -2251 0
354 -193 2251 0
989 -2252 0
421 -2252 0
-989 -421 2252 0
23 -2253 0
-812 -2253 0
-23 812 2253 0
935 -2254 0
-442 -2254 0
-935 442 2254 0
552 -2255 0
177 -2255 0
-552 -177 2255 0
-419 -2256 0
746 -2256 0
419 -746 2256 0
433 -2257 0
17 -2257 0
-433 -17 2257 0
496 -2258 0
198 -2258 0
-496 -198 2258 0
-681 -2259 0
594 -2259 0
681 -594 2259 0
974 -2260 0
-102 -2260 0
-974 102 2260 0
-809 -2261 0
891 -2261 0
809 -891 2261 0
304 -2262 0
925 -2262 0
-304 -925 2262 0
342 -2263 0
602 -2263 0
-342 -602 2263 0
661 -2264 0
-13 -2264 0
-661 13 2264 0
581 -2265 0
-189 -2265 0
-581 189 2265 0
47 -2266 0
324 -2266 0
-47 -324 2266 0
-286 -2267 0
18 -2267 0
286 -18 2267 0
898 -2268 0
249 -2268 0
-898 -249 2268 0
158 -2269 0
-935 -2269 0
-158 935 2269 0
-129 -2270 0
306 -2270 0
129 -306 2270 0
447 -2271 0
673 -2271 0
-447 -673 2271 0
720 -2272 0
-332 -2272 0
-720 332 2272 0
557 -2273 0
780 -2273 0
-557 -780 2273 0
-217 -2274 0
602 -2274 0
217 -602 2274 0
211 -2275 0
-711 -2275 0
-211 711 2275 0
253 -2276 0
-455 -2276 0
-253 455 2276 0
734 -2277 0
165 -2277 0
-734 -165 2277 0
110 -2278 0
121 -2278 0
-110 -121 2278 0
-197 -2279 0
818 -2279 0
197 -818 2279 0
-992 -2280 0
41 -2280 0
992 -41 2280 0
198 -2281 0
973 -2281 0
-198 -973 2281 0
384 -2282 0
-161 -2282 0
-384 161 2282 0
748 -2283 0
-662 -2283 0
-748 662 2283 0
-888 -2284 0
681 -2284 0
888 -681 2284 0
960 -2285 0
-926 -2285 0
-960 926 2285 0
142 -2286 0
-292 -2286 0
-142 292 2286 0
-985 -2287 0
36 -2287 0
985 -36 2287 0
234 -2288 0
873 -2288 0
-234 -873 2288 0
118 -2289 0
-613 -2289 0
-118 613 2289 0
703 -2290 0
929 -2290 0
-703 -929 2290 0
382 -2291 0
226 -2291 0
-382 -226 2291 0
-333 -2292 0
306 -2292 0
333 -306 2292 0
648 -2293 0
-954 -2293 0
-648 954 2293 0
61 -2294 0
393 -2294 0
-61 -393 2294 0
847 -2295 0
-533 -2295 0
-847 533 2295 0
-412 -2296 0
169 -2296 0
412 -169 2296 0
116 -2297 0
996 -2297 0
-116 -996 2297 0
-41 -2298 0
674 -2298 0
41 -674 2298 0
168 -2299 0
-483 -2299 0
-168 483 2299 0
-256 -2300 0
809 -2300 0
256 -809 2300 0
446 -2301 0
614 -2301 0
-446 -614 2301 0
-211 -2302 0
714 -2302 0
211 -714 2302 0
630 -2303 0
628 -2303 0
-630 -628 2303 0
-806 -2304 0
338 -2304 0
806 -338 2304 0
535 -2305 0
-53 -2305 0
-535 53 2305 0
-912 -2306 0
451 -2306 0
912 -451 2306 0
-259 -2307 0
436 -2307 0
259 -436 2307 0
824 -2308 0
799 -2308 0
-824 -799 2308 0
103 -2309 0
-722 -2309 0
-103 722 2309 0
-851 -2310 0
84 -2310 0
851 -84 2310 0
496 -2311 0
-876 -2311 0
-496 876 2311 0
-169 -2312 0
991 -2312 0
169 -991 2312 0
654 -2313 0
-452 -2313 0
-654 452 2313 0
-907 -2314 0
970 -2314 0
907 -970 2314 0
-666 -2315 0
858 -2315 0
666 -858 2315 0
-812 -2316 0
979 -2316 0
812 -979 2316 0
368 -2317 0
723 -2317 0
-368 -723 2317 0
877 -2318 0
617 -2318 0
-877 -617 2318 0
919 -2319 0
762 -2319 0
-919 -762 2319 0
360 -2320 0
662 -2320 0
-360 -662 2320 0
662 -2321 0
673 -2321 0
-662 -673 2321 0
863 -2322 0
-122 -2322 0
-863 122 2322 0
133 -2323 0
-244 -2323 0
-133 244 2323 0
544 -2324 0
-151 -2324 0
-544 151 2324 0
16 -2325 0
318 -2325 0
-16 -318 2325 0
583 -2326 0
876 -2326 0
-583 -876 2326 0
-201 -2327 0
414 -2327 0
201 -414 2327 0
536 -2328 0
97 -2328 0
-536 -97 2328 0
323 -2329 0
977 -2329 0
-323 -977 2329 0
-187 -2330 0
436 -2330 0
187 -436 2330 0
-88 -2331 0
760 -2331 0
88 -760 2331 0
830 -2332 0
153 -2332 0
-830 -153 2332 0
157 -2333 0
-77 -2333 0
-157 77 2333 0
112 -2334 0
490 -2334 0
-112 -490 2334 0
166 -2335 0
-46 -2335 0
-166 46 2335 0
-490 -2336 0
914 -2336 0
490 -914 2336 0
291 -2337 0
-590 -2337 0
-291 590 2337 0
552 -2338 0
206 -2338 0
-552 -206 2338 0
618 -2339 0
-295 -2339 0
-618 295 2339 0
973 -2340 0
771 -2340 0
-973 -771 2340 0
-330 -2341 0
794 -2341 0
330 -794 2341 0
-963 -2342 0
377 -2342 0
963 -377 2342 0
-165 -2343 0
681 -2343 0
165 -681 2343 0
814 -2344 0
-658 -2344 0
-814 658 2344 0
780 -2345 0
-557 -2345 0
-780 557 2345 0
211 -2346 0
-870 -2346 0
-211 870 2346 0
349 -2347 0
-156 -2347 0
-349 156 2347 0
695 -2348 0
866 -2348 0
-695 -866 2348 0
987 -2349 0
-854 -2349 0
-987 854 2349 0
280 -2350 0
644 -2350 0
-280 -644 2350 0
195 -2351 0
-383 -2351 0
-195 383 2351 0
453 -2352 0
404 -2352 0
-453 -404 2352 0
237 -2353 0
-957 -2353 0
-237 957 2353 0
742 -2354 0
165 -2354 0
-742 -165 2354 0
516 -2355 0
-22 -2355 0
-516 22 2355 0
131 -2356 0
-526 -2356 0
-131 526 2356 0
327 -2357 0
-959 -2357 0
-327 959 2357 0
802 -2358 0
-766 -2358 0
-802 766 2358 0
29 -2359 0
-781 -2359 0
-29 781 2359 0
-802 -2360 0
724 -2360 0
802 -724 2360 0
822 -2361 0
-631 -2361 0
-822 631 2361 0
992 -2362 0
-491 -2362 0
-992 491 2362 0
-572 -2363 0
386 -2363 0
572 -386 2363 0
437 -2364 0
-549 -2364 0
-437 549 2364 0
-684 -2365 0
402 -2365 0
684 -402 2365 0
696 -2366 0
50 -2366 0
-696 -50 2366 0
358 -2367 0
26 -2367 0
-358 -26 2367 0
-472 -2368 0
744 -2368 0
472 -744 2368 0
503 -2369 0
-986 -2369 0
-503 986 2369 0
845 -2370 0
-575 -2370 0
-845 575 2370 0
-816 -2371 0
643 -2371 0
816 -643 2371 0
141 -2372 0
-967 -2372 0
-141 967 2372 0
67 -2373 0
-886 -2373 0
-67 886 2373 0
839 -2374 0
739 -2374 0
-839 -739 2374 0
-68 -2375 0
187 -2375 0
68 -187 2375 0
-192 -2376 0
13 -2376 0
192 -13 2376 0
797 -2377 0
-180 -2377 0
-797 180 2377 0
-107 -2378 0
493 -2378 0
107 -493 2378 0
-16 -2379 0
550 -2379 0
16 -550 2379 0
624 -2380 0
-285 -2380 0
-624 285 2380 0
785 -2381 0
-191 -2381 0
-785 191 2381 0
877 -2382 0
338 -2382 0
-877 -338 2382 0
104 -2383 0
-958 -2383 0
-104 958 2383 0
-298 -2384 0
100 -2384 0
298 -100 2384 0
847 -2385 0
50 -2385 0
-847 -50 2385 0
24 -2386 0
-182 -2386 0
-24 182 2386 0
654 -2387 0
-807 -2387 0
-654 807 2387 0
598 -2388 0
426 -2388 0
-598 -426 2388 0
94 -2389 0
-799 -2389 0
-94 799 2389 0
951 -2390 0
-889 -2390 0
-951 889 2390 0
967 -2391 0
557 -2391 0
-967 -557 2391 0
-902 -2392 0
634 -2392 0
902 -634 2392 0
-903 -2393 0
929 -2393 0
903 -929 2393 0
264 -2394 0
455 -2394 0
-264 -455 2394 0
623 -2395 0
-342 -2395 0
-623 342 2395 0
693 -2396 0
-439 -2396 0
-693 439 2396 0
-624 -2397 0
422 -2397 0
624 -422 2397 0
100 -2398 0
386 -2398 0
-100 -386 2398 0
218 -2399 0
746 -2399 0
-218 -746 2399 0
926 -2400 0
499 -2400 0
-926 -499 2400 0
488 -2401 0
-836 -2401 0
-488 836 2401 0
751 -2402 0
699 -2402 0
-751 -699 2402 0
390 -2403 0
-644 -2403 0
-390 644 2403 0
854 -2404 0
-668 -2404 0
-854 668 2404 0
-616 -2405 0
210 -2405 0
616 -210 2405 0
424 -2406 0
387 -2406 0
-424 -387 2406 0
438 -2407 0
515 -2407 0
-438 -515 2407 0
-498 -2408 0
19 -2408 0
498 -19 2408 0
910 -2409 0
-933 -2409 0
-910 933 2409 0
942 -2410 0
-93 -2410 0
-942 93 2410 0
-781 -2411 0
177 -2411 0
781 -177 2411 0
-566 -2412 0
113 -2412 0
566 -113 2412 0
629 -2413 0
-708 -2413 0
-629 708 2413 0
282 -2414 0
113 -2414 0
-282 -113 2414 0
-224 -2415 0
85 -2415 0
224 -85 2415 0
-730 -2416 0
785 -2416 0
730 -785 2416 0
237 -2417 0
-435 -2417 0
-237 435 2417 0
20 -2418 0
585 -2418 0
-20 -585 2418 0
878 -2419 0
953 -2419 0
-878 -953 2419 0
-37 -2420 0
82 -2420 0
37 -82 2420 0
719 -2421 0
-238 -2421 0
-719 238 2421 0
-598 -2422 0
434 -2422 0
598 -434 2422 0
118 -2423 0
-538 -2423 0
-118 538 2423 0
295 -2424 0
-955 -2424 0
-295 955 2424 0
471 -2425 0
267 -2425 0
-471 -267 2425 0
-22 -2426 0
242 -2426 0
22 -242 2426 0
-108 -2427 0
723 -2427 0
108 -723 2427 0
558 -2428 0
699 -2428 0
-558 -699 2428 0
574 -2429 0
-428 -2429 0
-574 428 2429 0
263 -2430 0
-237 -2430 0
-263 237 2430 0
91 -2431 0
746 -2431 0
-91 -746 2431 0
-136 -2432 0
390 -2432 0
136 -390 2432 0
334 -2433 0
563 -2433 0
-334 -563 2433 0
16 -2434 0
-270 -2434 0
-16 270 2434 0
718 -2435 0
315 -2435 0
-718 -315 2435 0
332 -2436 0
-516 -2436 0
-332 516 2436 0
670 -2437 0
382 -2437 0
-670 -382 2437 0
573 -2438 0
875 -2438 0
-573 -875 2438 0
22 -2439 0
509 -2439 0
-22 -509 2439 0
942 -2440 0
-620 -2440 0
-942 620 2440 0
-485 -2441 0
945 -2441 0
485 -945 2441 0
-643 -2442 0
108 -2442 0
643 -108 2442 0
632 -2443 0
-239 -2443 0
-632 239 2443 0
-698 -2444 0
489 -2444 0
698 -489 2444 0
-549 -2445 0
34 -2445 0
549 -34 2445 0
-961 -2446 0
402 -2446 0
961 -402 2446 0
-673 -2447 0
186 -2447 0
673 -186 2447 0
822 -2448 0
659 -2448 0
-822 -659 2448 0
333 -2449 0
-230 -2449 0
-333 230 2449 0
232 -2450 0
788 -2450 0
-232 -788 2450 0
928 -2451 0
-988 -2451 0
-928 988 2451 0
749 -2452 0
-492 -2452 0
-749 492 2452 0
285 -2453 0
308 -2453 0
-285 -308 2453 0
942 -2454 0
684 -2454 0
-942 -684 2454 0
432 -2455 0
211 -2455 0
-432 -211 2455 0
703 -2456 0
18 -2456 0
-703 -18 2456 0
-915 -2457 0
85 -2457 0
915 -85 2457 0
-187 -2458 0
611 -2458 0
187 -611 2458 0
148 -2459 0
-215 -2459 0
-148 215 2459 0
696 -2460 0
330 -2460 0
-696 -330 2460 0
-593 -2461 0
457 -2461 0
593 -457 2461 0
520 -2462 0
732 -2462 0
-520 -732 2462 0
-592 -2463 0
31 -2463 0
592 -31 2463 0
858 -2464 0
145 -2464 0
-858 -145 2464 0
-612 -2465 0
129 -2465 0
612 -129 2465 0
539 -2466 0
281 -2466 0
-539 -281 2466 0
31 -2467 0
-938 -2467 0
-31 938 2467 0
15 -2468 0
-324 -2468 0
-15 324 2468 0
943 -2469 0
854 -2469 0
-943 -854 2469 0
-754 -2470 0
397 -2470 0
754 -397 2470 0
255 -2471 0
93 -2471 0
-255 -93 2471 0
-312 -2472 0
577 -2472 0
312 -577 2472 0
-506 -2473 0
937 -2473 0
506 -937 2473 0
-397 -2474 0
17 -2474 0
397 -17 2474 0
645 -2475 0
601 -2475 0
-645 -601 2475 0
-301 -2476 0
833 -2476 0
301 -833 2476 0
62 -2477 0
-813 -2477 0
-62 813 2477 0
912 -2478 0
735 -2478 0
-912 -735 2478 0
103 -2479 0
-479 -2479 0
-103 479 2479 0
631 -2480 0
-515 -2480 0
-631 515 2480 0
936 -2481 0
887 -2481 0
-936 -887 2481 0
685 -2482 0
604 -2482 0
-685 -604 2482 0
991 -2483 0
-996 -2483 0
-991 996 2483 0
100 -2484 0
-541 -2484 0
-100 541 2484 0
887 -2485 0
826 -2485 0
-887 -826 2485 0
407 -2486 0
437 -2486 0
-407 -437 2486 0
340 -2487 0
641 -2487 0
-340 -641 2487 0
320 -2488 0
504 -2488 0
-320 -504 2488 0
144 -2489 0
-79 -2489 0
-144 79 2489 0
752 -2490 0
180 -2490 0
-752 -180 2490 0
732 -2491 0
444 -2491 0
-732 -444 2491 0
56 -2492 0
-861 -2492 0
-56 861 2492 0
-907 -2493 0
764 -2493 0
907 -764 2493 0
503 -2494 0
-207 -2494 0
-503 207 2494 0
967 -2495 0
931 -2495 0
-967 -931 2495 0
462 -2496 0
-890 -2496 0
-462 890 2496 0
275 -2497 0
193 -2497 0
-275 -193 2497 0
677 -2498 0
-174 -2498 0
-677 174 2498 0
88 -2499 0
-192 -2499 0
-88 192 2499 0
-984 -2500 0
183 -2500 0
984 -183 2500 0
496 -2501 0
163 -2501 0
-496 -163 2501 0
124 -2502 0
515 -2502 0
-124 -515 2502 0
-912 -2503 0
462 -2503 0
912 -462 2503 0
351 -2504 0
-817 -2504 0
-351 817 2504 0
678 -2505 0
-188 -2505 0
-678 188 2505 0
871 -2506 0
106 -2506 0
-871 -106 2506 0
144 -2507 0
-999 -2507 0
-144 999 2507 0
958 -2508 0
868 -2508 0
-958 -868 2508 0
-776 -2509 0
627 -2509 0
776 -627 2509 0
758 -2510 0
22 -2510 0
-758 -22 2510 0
61 -2511 0
-412 -2511 0
-61 412 2511 0
207 -2512 0
957 -2512 0
-207 -957 2512 0
192 -2513 0
-285 -2513 0
-192 285 2513 0
695 -2514 0
-211 -2514 0
-695 211 2514 0
-712 -2515 0
957 -2515 0
712 -957 2515 0
102 -2516 0
-935 -2516 0
-102 935 2516 0
863 -2517 0
684 -2517 0
-863 -684 2517 0
480 -2518 0
895 -2518 0
-480 -895 2518 0
-312 -2519 0
740 -2519 0
312 -740 2519 0
910 -2520 0
-389 -2520 0
-910 389 2520 0
229 -2521 0
-707 -2521 0
-229 707 2521 0
343 -2522 0
715 -2522 0
-343 -715 2522 0
126 -2523 0
-195 -2523 0
-126 195 2523 0
-28 -2524 0
162 -2524 0
28 -162 2524 0
643 -2525 0
314 -2525 0
-643 -314 2525 0
-921 -2526 0
156 -2526 0
921 -156 2526 0
-667 -2527 0
44 -2527 0
667 -44 2527 0
926 -2528 0
905 -2528 0
-926 -905 2528 0
120 -2529 0
625 -2529 0
-120 -625 2529 0
509 -2530 0
-955 -2530 0
-509 955 2530 0
-216 -2531 0
101 -2531 0
216 -101 2531 0
406 -2532 0
154 -2532 0
-406 -154 2532 0
252 -2533 0
756 -2533 0
-252 -756 2533 0
256 -2534 0
858 -2534 0
-256 -858 2534 0
856 -2535 0
211 -2535 0
-856 -211 2535 0
360 -2536 0
159 -2537 0
-771 -2537 0
-159 771 2537 0
143 -2538 0
-245 -2538 0
-143 245 2538 0
269 -2539 0
-412 -2539 0
-269 412 2539 0
181 -2540 0
245 -2540 0
-181 -245 2540 0
664 -2541 0
-115 -2541 0
-664 115 2541 0
-331 -2542 0
921 -2542 0
331 -921 2542 0
-293 -2543 0
793 -2543 0
293 -793 2543 0
352 -2544 0
395 -2544 0
-352 -395 2544 0
285 -2545 0
371 -2545 0
-285 -371 2545 0
519 -2546 0
-550 -2546 0
-519 550 2546 0
-382 -2547 0
649 -2547 0
382 -649 2547 0
-408 -2548 0
490 -2548 0
408 -490 2548 0
-713 -2549 0
358 -2549 0
713 -358 2549 0
600 -2550 0
449 -2550 0
-600 -449 2550 0
132 -2551 0
481 -2551 0
-132 -481 2551 0
912 -2552 0
-362 -2552 0
-912 362 2552 0
-936 -2553 0
267 -2553 0
936 -267 2553 0
-668 -2554 0
154 -2554 0
668 -154 2554 0
-57 -2555 0
189 -2555 0
57 -189 2555 0
-123 -2556 0
170 -2556 0
123 -170 2556 0
623 -2557 0
-330 -2557 0
-623 330 2557 0
287 -2558 0
-598 -2558 0
-287 598 2558 0
295 -2559 0
593 -2559 0
-295 -593 2559 0
376 -2560 0
-134 -2560 0
-376 134 2560 0
-352 -2561 0
915 -2561 0
352 -915 2561 0
104 -2562 0
-274 -2562 0
-104 274 2562 0
107 -2563 0
665 -2563 0
-107 -665 2563 0
310 -2564 0
797 -2564 0
-310 -797 2564 0
398 -2565 0
-794 -2565 0
-398 794 2565 0
-766 -2566 0
849 -2566 0
766 -849 2566 0
-764 -2567 0
715 -2567 0
764 -715 2567 0
-653 -2568 0
450 -2568 0
653 -450 2568 0
701 -2569 0
145 -2569 0
-701 -145 2569 0
163 -2570 0
-294 -2570 0
-163 294 2570 0
936 -2571 0
-845 -2571 0
-936 845 2571 0
-564 -2572 0
731 -2572 0
564 -731 2572 0
708 -2573 0
-30 -2573 0
-708 30 2573 0
262 -2574 0
403 -2574 0
-262 -403 2574 0
-977 -2575 0
26 -2575 0
977 -26 2575 0
12 -2576 0
-654 -2576 0
-12 654 2576 0
491 -2577 0
642 -2577 0
-491 -642 2577 0
808 -2578 0
588 -2578 0
-808 -588 2578 0
440 -2579 0
-154 -2579 0
-440 154 2579 0
525 -2580 0
-30 -2580 0
-525 30 2580 0
984 -2581 0
766 -2581 0
-984 -766 2581 0
328 -2582 0
1000 -2582 0
-328 -1000 2582 0
-877 -2583 0
522 -2583 0
877 -522 2583 0
806 -2584 0
-751 -2584 0
-806 751 2584 0
642 -2585 0
497 -2585 0
-642 -497 2585 0
38 -2586 0
275 -2586 0
-38 -275 2586 0
654 -2587 0
836 -2587 0
-654 -836 2587 0
-898 -2588 0
666 -2588 0
898 -666 2588 0
-630 -2589 0
393 -2589 0
630 -393 2589 0
256 -2590 0
785 -2590 0
-256 -785 2590 0
238 -2591 0
947 -2591 0
-238 -947 2591 0
447 -2592 0
-596 -2592 0
-447 596 2592 0
125 -2593 0
-39 -2593 0
-125 39 2593 0
126 -2594 0
314 -2594 0
-126 -314 2594 0
-232 -2595 0
295 -2595 0
232 -295 2595 0
846 -2596 0
-467 -2596 0
-846 467 2596 0
-88 -2597 0
77 -2597 0
88 -77 2597 0
692 -2598 0
-717 -2598 0
-692 717 2598 0
-466 -2599 0
337 -2599 0
466 -337 2599 0
768 -2600 0
-408 -2600 0
-768 408 2600 0
-464 -2601 0
273 -2601 0
464 -273 2601 0
-608 -2602 0
746 -2602 0
608 -746 2602 0
86 -2603 0
171 -2603 0
-86 -171 2603 0
816 -2604 0
979 -2604 0
-816 -979 2604 0
-225 -2605 0
305 -2605 0
225 -305 2605 0
950 -2606 0
-223 -2606 0
-950 223 2606 0
397 -2607 0
-837 -2607 0
-397 837 2607 0
743 -2608 0
885 -2608 0
-743 -885 2608 0
790 -2609 0
73 -2609 0
-790 -73 2609 0
277 -2610 0
-420 -2610 0
-277 420 2610 0
136 -2611 0
-540 -2611 0
-136 540 2611 0
951 -2612 0
-499 -2612 0
-951 499 2612 0
-34 -2613 0
828 -2613 0
34 -828 2613 0
376 -2614 0
-211 -2614 0
-376 211 2614 0
-281 -2615 0
853 -2615 0
281 -853 2615 0
-592 -2616 0
561 -2616 0
592 -561 2616 0
-741 -2617 0
690 -2617 0
741 -690 2617 0
-537 -2618 0
716 -2618 0
537 -716 2618 0
919 -2619 0
916 -2619 0
-919 -916 2619 0
678 -2620 0
-517 -2620 0
-678 517 2620 0
496 -2621 0
-30 -2621 0
-496 30 2621 0
-288 -2622 0
310 -2622 0
288 -310 2622 0
271 -2623 0
275 -2623 0
-271 -275 2623 0
-577 -2624 0
468 -2624 0
577 -468 2624 0
-138 -2625 0
613 -2625 0
138 -613 2625 0
743 -2626 0
-644 -2626 0
-743 644 2626 0
783 -2627 0
-235 -2627 0
-783 235 2627 0
-843 -2628 0
717 -2628 0
843 -717 2628 0
-482 -2629 0
889 -2629 0
482 -889 2629 0
-904 -2630 0
415 -2630 0
904 -415 2630 0
36 -2631 0
980 -2631 0
-36 -980 2631 0
85 -2632 0
-133 -2632 0
-85 133 2632 0
-342 -2633 0
225 -2633 0
342 -225 2633 0
965 -2634 0
387 -2634 0
-965 -387 2634 0
608 -2635 0
-819 -2635 0
-608 819 2635 0
-921 -2636 0
11 -2636 0
921 -11 2636 0
581 -2637 0
-476 -2637 0
-581 476 2637 0
-617 -2638 0
941 -2638 0
617 -941 2638 0
-96 -2639 0
353 -2639 0
96 -353 2639 0
653 -2640 0
-509 -2640 0
-653 509 2640 0
-675 -2641 0
51 -2641 0
675 -51 2641 0
851 -2642 0
786 -2642 0
-851 -786 2642 0
116 -2643 0
-846 -2643 0
-116 846 2643 0
116 -2644 0
60 -2644 0
-116 -60 2644 0
-370 -2645 0
149 -2645 0
370 -149 2645 0
391 -2646 0
-865 -2646 0
-391 865 2646 0
872 -2647 0
-562 -2647 0
-872 562 2647 0
304 -2648 0
854 -2648 0
-304 -854 2648 0
576 -2649 0
170 -2649 0
-576 -170 2649 0
695 -2650 0
205 -2650 0
-695 -205 2650 0
910 -2651 0
-822 -2651 0
-910 822 2651 0
-408 -2652 0
372 -2652 0
408 -372 2652 0
606 -2653 0
-142 -2653 0
-606 142 2653 0
736 -2654 0
175 -2654 0
-736 -175 2654 0
-640 -2655 0
108 -2655 0
640 -108 2655 0
981 -2656 0
-694 -2656 0
-981 694 2656 0
711 -2657 0
357 -2657 0
-711 -357 2657 0
3 -2658 0
217 -2658 0
-3 -217 2658 0
-933 -2659 0
586 -2659 0
933 -586 2659 0
-97 -2660 0
358 -2660 0
97 -358 2660 0
-688 -2661 0
378 -2661 0
688 -378 2661 0
531 -2662 0
-623 -2662 0
-531 623 2662 0
-320 -2663 0
830 -2663 0
320 -830 2663 0
-833 -2664 0
794 -2664 0
833 -794 2664 0
688 -2665 0
797 -2665 0
-688 -797 2665 0
-489 -2666 0
124 -2666 0
489 -124 2666 0
439 -2667 0
660 -2667 0
-439 -660 2667 0
899 -2668 0
-679 -2668 0
-899 679 2668 0
831 -2669 0
-327 -2669 0
-831 327 2669 0
-705 -2670 0
370 -2670 0
705 -370 2670 0
-664 -2671 0
941 -2671 0
664 -941 2671 0
956 -2672 0
889 -2672 0
-956 -889 2672 0
560 -2673 0
-824 -2673 0
-560 824 2673 0
690 -2674 0
401 -2674 0
-690 -401 2674 0
-507 -2675 0
187 -2675 0
507 -187 2675 0
560 -2676 0
630 -2676 0
-560 -630 2676 0
980 -2677 0
-702 -2677 0
-980 702 2677 0
314 -2678 0
201 -2678 0
-314 -201 2678 0
535 -2679 0
829 -2679 0
-535 -829 2679 0
-939 -2680 0
500 -2680 0
939 -500 2680 0
-457 -2681 0
814 -2681 0
457 -814 2681 0
-422 -2682 0
553 -2682 0
422 -553 2682 0
678 -2683 0
-739 -2683 0
-678 739 2683 0
128 -2684 0
875 -2684 0
-128 -875 2684 0
598 -2685 0
-828 -2685 0
-598 828 2685 0
400 -2686 0
-730 -2686 0
-400 730 2686 0
21 -2687 0
-276 -2687 0
-21 276 2687 0
470 -2688 0
-231 -2688 0
-470 231 2688 0
176 -2689 0
-267 -2689 0
-176 267 2689 0
-752 -2690 0
965 -2690 0
752 -965 2690 0
493 -2691 0
772 -2691 0
-493 -772 2691 0
439 -2692 0
977 -2692 0
-439 -977 2692 0
-905 -2693 0
612 -2693 0
905 -612 2693 0
335 -2694 0
531 -2694 0
-335 -531 2694 0
952 -2695 0
301 -2695 0
-952 -301 2695 0
240 -2696 0
959 -2696 0
-240 -959 2696 0
-684 -2697 0
571 -2697 0
684 -571 2697 0
-963 -2698 0
537 -2698 0
963 -537 2698 0
-586 -2699 0
61 -2699 0
586 -61 2699 0
573 -2700 0
-989 -2700 0
-573 989 2700 0
305 -2701 0
-719 -2701 0
-305 719 2701 0
298 -2702 0
-534 -2702 0
-298 534 2702 0
-592 -2703 0
643 -2703 0
592 -643 2703 0
-58 -2704 0
889 -2704 0
58 -889 2704 0
670 -2705 0
484 -2705 0
-670 -484 2705 0
876 -2706 0
937 -2706 0
-876 -937 2706 0
717 -2707 0
-724 -2707 0
-717 724 2707 0
864 -2708 0
647 -2708 0
-864 -647 2708 0
-251 -2709 0
27 -2709 0
251 -27 2709 0
-728 -2710 0
908 -2710 0
728 -908 2710 0
-898 -2711 0
228 -2711 0
898 -228 2711 0
-902 -2712 0
953 -2712 0
902 -953 2712 0
959 -2713 0
-90 -2713 0
-959 90 2713 0
-79 -2714 0
185 -2714 0
79 -185 2714 0
927 -2715 0
-423 -2715 0
-927 423 2715 0
359 -2716 0
-858 -2716 0
-359 858 2716 0
-386 -2717 0
89 -2717 0
386 -89 2717 0
902 -2718 0
-853 -2718 0
-902 853 2718 0
981 -2719 0
-659 -2719 0
-981 659 2719 0
463 -2720 0
267 -2720 0
-463 -267 2720 0
639 -2721 0
-718 -2721 0
-639 718 2721 0
535 -2722 0
-977 -2722 0
-535 977 2722 0
525 -2723 0
-204 -2723 0
-525 204 2723 0
214 -2724 0
388 -2724 0
-214 -388 2724 0
173 -2725 0
-214 -2725 0
-173 214 2725 0
767 -2726 0
-546 -2726 0
-767 546 2726 0
688 -2727 0
-461 -2727 0
-688 461 2727 0
108 -2728 0
938 -2728 0
-108 -938 2728 0
468 -2729 0
-181 -2729 0
-468 181 2729 0
144 -2730 0
-919 -2730 0
-144 919 2730 0
815 -2731 0
-165 -2731 0
-815 165 2731 0
261 -2732 0
-566 -2732 0
-261 566 2732 0
334 -2733 0
836 -2733 0
-334 -836 2733 0
450 -2734 0
-758 -2734 0
-450 758 2734 0
574 -2735 0
734 -2735 0
-574 -734 2735 0
928 -2736 0
-644 -2736 0
-928 644 2736 0
984 -2737 0
-82 -2737 0
-984 82 2737 0
-353 -2738 0
950 -2738 0
353 -950 2738 0
128 -2739 0
-453 -2739 0
-128 453 2739 0
229 -2740 0
-997 -2740 0
-229 997 2740 0
-106 -2741 0
372 -2741 0
106 -372 2741 0
435 -2742 0
545 -2742 0
-435 -545 2742 0
408 -2743 0
-970 -2743 0
-408 970 2743 0
-154 -2744 0
229 -2744 0
154 -229 2744 0
-56 -2745 0
902 -2745 0
56 -902 2745 0
95 -2746 0
-79 -2746 0
-95 79 2746 0
-571 -2747 0
785 -2747 0
571 -785 2747 0
997 -2748 0
-396 -2748 0
-997 396 2748 0
-635 -2749 0
81 -2749 0
635 -81 2749 0
692 -2750 0
-326 -2750 0
-692 326 2750 0
808 -2751 0
832 -2751 0
-808 -832 2751 0
716 -2752 0
659 -2752 0
-716 -659 2752 0
124 -2753 0
76 -2753 0
-124 -76 2753 0
383 -2754 0
-237 -2754 0
-383 237 2754 0
543 -2755 0
-634 -2755 0
-543 634 2755 0
621 -2756 0
659 -2756 0
-621 -659 2756 0
838 -2757 0
693 -2757 0
-838 -693 2757 0
888 -2758 0
825 -2758 0
-888 -825 2758 0
221 -2759 0
-567 -2759 0
-221 567 2759 0
63 -2760 0
743 -2760 0
-63 -743 2760 0
-680 -2761 0
431 -2761 0
680 -431 2761 0
240 -2762 0
74 -2762 0
-240 -74 2762 0
582 -2763 0
-894 -2763 0
-582 894 2763 0
956 -2764 0
-598 -2764 0
-956 598 2764 0
-825 -2765 0
297 -2765 0
825 -297 2765 0
518 -2766 0
-475 -2766 0
-518 475 2766 0
427 -2767 0
-157 -2767 0
-427 157 2767 0
394 -2768 0
-383 -2768 0
-394 383 2768 0
-329 -2769 0
981 -2769 0
329 -981 2769 0
815 -2770 0
417 -2770 0
-815 -417 2770 0
260 -2771 0
-125 -2771 0
-260 125 2771 0
-1000 -2772 0
108 -2772 0
1000 -108 2772 0
86 -2773 0
797 -2773 0
-86 -797 2773 0
800 -2774 0
806 -2774 0
-800 -806 2774 0
604 -2775 0
267 -2775 0
-604 -267 2775 0
101 -2776 0
-934 -2776 0
-101 934 2776 0
151 -2777 0
-290 -2777 0
-151 290 2777 0
-443 -2778 0
34 -2778 0
443 -34 2778 0
-88 -2779 0
324 -2779 0
88 -324 2779 0
-896 -2780 0
926 -2780 0
896 -926 2780 0
-154 -2781 0
314 -2781 0
154 -314 2781 0
318 -2782 0
-931 -2782 0
-318 931 2782 0
-122 -2783 0
259 -2783 0
122 -259 2783 0
984 -2784 0
-950 -2784 0
-984 950 2784 0
391 -2785 0
707 -2785 0
-391 -707 2785 0
616 -2786 0
443 -2786 0
-616 -443 2786 0
488 -2787 0
417 -2787 0
-488 -417 2787 0
-786 -2788 0
829 -2788 0
786 -829 2788 0
-452 -2789 0
619 -2789 0
452 -619 2789 0
184 -2790 0
558 -2790 0
-184 -558 2790 0
-112 -2791 0
739 -2791 0
112 -739 2791 0
-765 -2792 0
681 -2792 0
765 -681 2792 0
143 -2793 0
-334 -2793 0
-143 334 2793 0
183 -2794 0
165 -2794 0
-183 -165 2794 0
37 -2795 0
83 -2795 0
-37 -83 2795 0
-514 -2796 0
636 -2796 0
514 -636 2796 0
760 -2797 0
-332 -2797 0
-760 332 2797 0
373 -2798 0
-828 -2798 0
-373 828 2798 0
196 -2799 0
481 -2799 0
-196 -481 2799 0
195 -2800 0
113 -2800 0
-195 -113 2800 0
358 -2801 0
-630 -2801 0
-358 630 2801 0
534 -2802 0
-227 -2802 0
-534 227 2802 0
845 -2803 0
-575 -2803 0
-845 575 2803 0
-526 -2804 0
401 -2804 0
526 -401 2804 0
-499 -2805 0
210 -2805 0
499 -210 2805 0
-464 -2806 0
448 -2806 0
464 -448 2806 0
615 -2807 0
-285 -2807 0
-615 285 2807 0
572 -2808 0
-708 -2808 0
-572 708 2808 0
999 -2809 0
27 -2809 0
-999 -27 2809 0
221 -2810 0
834 -2810 0
-221 -834 2810 0
-784 -2811 0
866 -2811 0
784 -866 2811 0
-403 -2812 0
145 -2812 0
403 -145 2812 0
317 -2813 0
-47 -2813 0
-317 47 2813 0
694 -2814 0
970 -2814 0
-694 -970 2814 0
166 -2815 0
908 -2815 0
-166 -908 2815 0
413 -2816 0
915 -2816 0
-413 -915 2816 0
-888 -2817 0
707 -2817 0
888 -707 2817 0
158 -2818 0
307 -2818 0
-158 -307 2818 0
411 -2819 0
483 -2819 0
-411 -483 2819 0
-515 -2820 0
859 -2820 0
515 -859 2820 0
800 -2821 0
-219 -2821 0
-800 219 2821 0
-707 -2822 0
283 -2822 0
707 -283 2822 0
189 -2823 0
-159 -2823 0
-189 159 2823 0
366 -2824 0
737 -2824 0
-366 -737 2824 0
410 -2825 0
-151 -2825 0
-410 151 2825 0
-624 -2826 0
930 -2826 0
624 -930 2826 0
398 -2827 0
108 -2827 0
-398 -108 2827 0
492 -2828 0
-828 -2828 0
-492 828 2828 0
863 -2829 0
653 -2829 0
-863 -653 2829 0
526 -2830 0
-332 -2830 0
-526 332 2830 0
359 -2831 0
-250 -2831 0
-359 250 2831 0
-688 -2832 0
847 -2832 0
688 -847 2832 0
695 -2833 0
-251 -2833 0
-695 251 2833 0
-253 -2834 0
995 -2834 0
253 -995 2834 0
-848 -2835 0
845 -2835 0
848 -845 2835 0
80 -2836 0
191 -2836 0
-80 -191 2836 0
18 -2837 0
-183 -2837 0
-18 183 2837 0
624 -2838 0
-755 -2838 0
-624 755 2838 0
694 -2839 0
-788 -2839 0
-694 788 2839 0
351 -2840 0
22 -2840 0
-351 -22 2840 0
8 -2841 0
-355 -2841 0
-8 355 2841 0
285 -2842 0
929 -2842 0
-285 -929 2842 0
716 -2843 0
780 -2843 0
-716 -780 2843 0
776 -2844 0
687 -2844 0
-776 -687 2844 0
-394 -2845 0
238 -2845 0
394 -238 2845 0
-914 -2846 0
404 -2846 0
914 -404 2846 0
104 -2847 0
-921 -2847 0
-104 921 2847 0
-785 -2848 0
455 -2848 0
785 -455 2848 0
455 -2849 0
-886 -2849 0
-455 886 2849 0
980 -2850 0
19 -2850 0
-980 -19 2850 0
151 -2851 0
932 -2851 0
-151 -932 2851 0
616 -2852 0
405 -2852 0
-616 -405 2852 0
-931 -2853 0
306 -2853 0
931 -306 2853 0
263 -2854 0
659 -2854 0
-263 -659 2854 0
204 -2855 0
561 -2855 0
-204 -561 2855 0
-307 -2856 0
339 -2856 0
307 -339 2856 0
-936 -2857 0
426 -2857 0
936 -426 2857 0
63 -2858 0
961 -2858 0
-63 -961 2858 0
765 -2859 0
-591 -2859 0
-765 591 2859 0
-628 -2860 0
884 -2860 0
628 -884 2860 0
-238 -2861 0
433 -2861 0
238 -433 2861 0
-313 -2862 0
691 -2862 0
313 -691 2862 0
534 -2863 0
867 -2863 0
-534 -867 2863 0
670 -2864 0
-175 -2864 0
-670 175 2864 0
-345 -2865 0
31 -2865 0
345 -31 2865 0
120 -2866 0
-986 -2866 0
-120 986 2866 0
436 -2867 0
74 -2867 0
-436 -74 2867 0
960 -2868 0
-24 -2868 0
-960 24 2868 0
696 -2869 0
-836 -2869 0
-696 836 2869 0
640 -2870 0
-665 -2870 0
-640 665 2870 0
869 -2871 0
-534 -2871 0
-869 534 2871 0
813 -2872 0
259 -2872 0
-813 -259 2872 0
-1 -2873 0
969 -2873 0
1 -969 2873 0
288 -2874 0
-708 -2874 0
-288 708 2874 0
-365 -2875 0
930 -2875 0
365 -930 2875 0
342 -2876 0
406 -2876 0
-342 -406 2876 0
-705 -2877 0
531 -2877 0
705 -531 2877 0
502 -2878 0
-2 -2878 0
-502 2 2878 0
291 -2879 0
73 -2879 0
-291 -73 2879 0
733 -2880 0
298 -2880 0
-733 -298 2880 0
709 -2881 0
-797 -2881 0
-709 797 2881 0
359 -2882 0
204 -2882 0
-359 -204 2882 0
548 -2883 0
-69 -2883 0
-548 69 2883 0
-694 -2884 0
330 -2884 0
694 -330 2884 0
779 -2885 0
-142 -2885 0
-779 142 2885 0
-952 -2886 0
282 -2886 0
952 -282 2886 0
-555 -2887 0
777 -2887 0
555 -777 2887 0
-129 -2888 0
874 -2888 0
129 -874 2888 0
-96 -2889 0
310 -2889 0
96 -310 2889 0
56 -2890 0
247 -2890 0
-56 -247 2890 0
752 -2891 0
-135 -2891 0
-752 135 2891 0
103 -2892 0
425 -2892 0
-103 -425 2892 0
-562 -2893 0
577 -2893 0
562 -577 2893 0
-98 -2894 0
811 -2894 0
98 -811 2894 0
864 -2895 0
832 -2895 0
-864 -832 2895 0
483 -2896 0
595 -2896 0
-483 -595 2896 0
656 -2897 0
251 -2897 0
-656 -251 2897 0
988 -2898 0
761 -2898 0
-988 -761 2898 0
-499 -2899 0
76 -2899 0
499 -76 2899 0
-452 -2900 0
204 -2900 0
452 -204 2900 0
-256 -2901 0
580 -2901 0
256 -580 2901 0
558 -2902 0
466 -2902 0
-558 -466 2902 0
808 -2903 0
-952 -2903 0
-808 952 2903 0
474 -2904 0
-543 -2904 0
-474 543 2904 0
672 -2905 0
814 -2905 0
-672 -814 2905 0
421 -2906 0
491 -2906 0
-421 -491 2906 0
456 -2907 0
-406 -2907 0
-456 406 2907 0
581 -2908 0
-454 -2908 0
-581 454 2908 0
191 -2909 0
-876 -2909 0
-191 876 2909 0
919 -2910 0
-239 -2910 0
-919 239 2910 0
-394 -2911 0
89 -2911 0
394 -89 2911 0
717 -2912 0
-365 -2912 0
-717 365 2912 0
-768 -2913 0
421 -2913 0
768 -421 2913 0
152 -2914 0
730 -2914 0
-152 -730 2914 0
-609 -2915 0
91 -2915 0
609 -91 2915 0
-435 -2916 0
163 -2916 0
435 -163 2916 0
-893 -2917 0
817 -2917 0
893 -817 2917 0
196 -2918 0
675 -2918 0
-196 -675 2918 0
573 -2919 0
881 -2919 0
-573 -881 2919 0
199 -2920 0
-310 -2920 0
-199 310 2920 0
423 -2921 0
157 -2921 0
-423 -157 2921 0
-9 -2922 0
945 -2922 0
9 -945 2922 0
-893 -2923 0
377 -2923 0
893 -377 2923 0
-545 -2924 0
121 -2924 0
545 -121 2924 0
483 -2925 0
587 -2925 0
-483 -587 2925 0
614 -2926 0
-83 -2926 0
-614 83 2926 0
-13 -2927 0
722 -2927 0
13 -722 2927 0
214 -2928 0
-949 -2928 0
-214 949 2928 0
237 -2929 0
787 -2929 0
-237 -787 2929 0
351 -2930 0
-294 -2930 0
-351 294 2930 0
22 -2931 0
-532 -2931 0
-22 532 2931 0
806 -2932 0
-58 -2932 0
-806 58 2932 0
-68 -2933 0
11 -2933 0
68 -11 2933 0
542 -2934 0
933 -2934 0
-542 -933 2934 0
-640 -2935 0
965 -2935 0
640 -965 2935 0
247 -2936 0
206 -2936 0
-247 -206 2936 0
983 -2937 0
-276 -2937 0
-983 276 2937 0
-905 -2938 0
13 -2938 0
905 -13 2938 0
461 -2939 0
-651 -2939 0
-461 651 2939 0
-200 -2940 0
216 -2940 0
200 -216 2940 0
828 -2941 0
-479 -2941 0
-828 479 2941 0
496 -2942 0
450 -2942 0
-496 -450 2942 0
-740 -2943 0
145 -2943 0
740 -145 2943 0
68 -2944 0
361 -2944 0
-68 -361 2944 0
973 -2945 0
-534 -2945 0
-973 534 2945 0
437 -2946 0
148 -2946 0
-437 -148 2946 0
278 -2947 0
-437 -2947 0
-278 437 2947 0
501 -2948 0
-270 -2948 0
-501 270 2948 0
96 -2949 0
251 -2949 0
-96 -251 2949 0
759 -2950 0
52 -2950 0
-759 -52 2950 0
-392 -2951 0
699 -2951 0
392 -699 2951 0
708 -2952 0
739 -2952 0
-708 -739 2952 0
500 -2953 0
-214 -2953 0
-500 214 2953 0
-310 -2954 0
802 -2954 0
310 -802 2954 0
866 -2955 0
-574 -2955 0
-866 574 2955 0
101 -2956 0
675 -2956 0
-101 -675 2956 0
695 -2957 0
117 -2957 0
-695 -117 2957 0
-66 -2958 0
403 -2958 0
66 -403 2958 0
-105 -2959 0
141 -2959 0
105 -141 2959 0
-961 -2960 0
229 -2960 0
961 -229 2960 0
-127 -2961 0
857 -2961 0
127 -857 2961 0
-24 -2962 0
922 -2962 0
24 -922 2962 0
438 -2963 0
219 -2963 0
-438 -219 2963 0
503 -2964 0
242 -2964 0
-503 -242 2964 0
815 -2965 0
-310 -2965 0
-815 310 2965 0
376 -2966 0
628 -2966 0
-376 -628 2966 0
-800 -2967 0
233 -2967 0
800 -233 2967 0
-459 -2968 0
915 -2968 0
459 -915 2968 0
-294 -2969 0
321 -2969 0
294 -321 2969 0
-633 -2970 0
772 -2970 0
633 -772 2970 0
548 -2971 0
-735 -2971 0
-548 735 2971 0
910 -2972 0
-446 -2972 0
-910 446 2972 0
-744 -2973 0
115 -2973 0
744 -115 2973 0
-666 -2974 0
228 -2974 0
666 -228 2974 0
-668 -2975 0
721 -2975 0
668 -721 2975 0
-684 -2976 0
19 -2976 0
684 -19 2976 0
127 -2977 0
977 -2977 0
-127 -977 2977 0
-419 -2978 0
259 -2978 0
419 -259 2978 0
12 -2979 0
537 -2979 0
-12 -537 2979 0
6 -2980 0
531 -2980 0
-6 -531 2980 0
-882 -2981 0
683 -2981 0
882 -683 2981 0
14 -2982 0
-469 -2982 0
-14 469 2982 0
-514 -2983 0
411 -2983 0
514 -411 2983 0
146 -2984 0
-271 -2984 0
-146 271 2984 0
-925 -2985 0
83 -2985 0
925 -83 2985 0
998 -2986 0
-35 -2986 0
-998 35 2986 0
23 -2987 0
932 -2987 0
-23 -932 2987 0
973 -2988 0
33 -2988 0
-973 -33 2988 0
294 -2989 0
507 -2989 0
-294 -507 2989 0
548 -2990 0
796 -2990 0
-548 -796 2990 0
704 -2991 0
-506 -2991 0
-704 506 2991 0
951 -2992 0
-259 -2992 0
-951 259 2992 0
590 -2993 0
731 -2993 0
-590 -731 2993 0
965 -2994 0
-740 -2994 0
-965 740 2994 0
183 -2995 0
572 -2995 0
-183 -572 2995 0
664 -2996 0
-140 -2996 0
-664 140 2996 0
203 -2997 0
-62 -2997 0
-203 62 2997 0
-660 -2998 0
642 -2998 0
660 -642 2998 0
-897 -2999 0
654 -2999 0
897 -654 2999 0
126 -3000 0
899 -3000 0
-126 -899 3000 0
951 -3001 0
395 -3001 0
-951 -395 3001 0
-786 -3002 0
709 -3002 0
786 -709 3002 0
68 -3003 0
290 -3003 0
-68 -290 3003 0
203 -3004 0
305 -3004 0
-203 -305 3004 0
-451 -3005 0
595 -3005 0
451 -595 3005 0
784 -3006 0
-569 -3006 0
-784 569 3006 0
746 -3007 0
-727 -3007 0
-746 727 3007 0
840 -3008 0
16 -3008 0
-840 -16 3008 0
391 -3009 0
921 -3009 0
-391 -921 3009 0
615 -3010 0
-557 -3010 0
-615 557 3010 0
248 -3011 0
357 -3011 0
-248 -357 3011 0
764 -3012 0
427 -3012 0
-764 -427 3012 0
-2 -3013 0
877 -3013 0
2 -877 3013 0
-394 -3014 0
516 -3014 0
394 -516 3014 0
647 -3015 0
153 -3015 0
-647 -153 3015 0
617 -3016 0
225 -3016 0
-617 -225 3016 0
702 -3017 0
997 -3017 0
-702 -997 3017 0
-686 -3018 0
881 -3018 0
686 -881 3018 0
411 -3019 0
163 -3019 0
-411 -163 3019 0
-483 -3020 0
604 -3020 0
483 -604 3020 0
182 -3021 0
-708 -3021 0
-182 708 3021 0
221 -3022 0
850 -3022 0
-221 -850 3022 0
-795 -3023 0
458 -3023 0
795 -458 3023 0
599 -3024 0
226 -3024 0
-599 -226 3024 0
208 -3025 0
839 -3025 0
-208 -839 3025 0
48 -3026 0
-274 -3026 0
-48 274 3026 0
210 -3027 0
889 -3027 0
-210 -889 3027 0
-416 -3028 0
981 -3028 0
416 -981 3028 0
974 -3029 0
-635 -3029 0
-974 635 3029 0
-979 -3030 0
76 -3030 0
979 -76 3030 0
334 -3031 0
-498 -3031 0
-334 498 3031 0
854 -3032 0
556 -3032 0
-854 -556 3032 0
119 -3033 0
685 -3033 0
-119 -685 3033 0
-738 -3034 0
106 -3034 0
738 -106 3034 0
543 -3035 0
-347 -3035 0
-543 347 3035 0
303 -3036 0
390 -3036 0
-303 -390 3036 0
443 -3037 0
-271 -3037 0
-443 271 3037 0
743 -3038 0
-499 -3038 0
-743 499 3038 0
117 -3039 0
-925 -3039 0
-117 925 3039 0
-716 -3040 0
929 -3040 0
716 -929 3040 0
-93 -3041 0
177 -3041 0
93 -177 3041 0
283 -3042 0
562 -3042 0
-283 -562 3042 0
727 -3043 0
308 -3043 0
-727 -308 3043 0
655 -3044 0
445 -3044 0
-655 -445 3044 0
598 -3045 0
-715 -3045 0
-598 715 3045 0
591 -3046 0
228 -3046 0
-591 -228 3046 0
971 -3047 0
425 -3047 0
-971 -425 3047 0
128 -3048 0
823 -3048 0
-128 -823 3048 0
735 -3049 0
545 -3049 0
-735 -545 3049 0
996 -3050 0
-949 -3050 0
-996 949 3050 0
781 -3051 0
906 -3051 0
-781 -906 3051 0
-185 -3052 0
114 -3052 0
185 -114 3052 0
855 -3053 0
-515 -3053 0
-855 515 3053 0
-985 -3054 0
157 -3054 0
985 -157 3054 0
272 -3055 0
-878 -3055 0
-272 878 3055 0
-170 -3056 0
541 -3056 0
170 -541 3056 0
-214 -3057 0
538 -3057 0
214 -538 3057 0
612 -3058 0
11 -3058 0
-612 -11 3058 0
318 -3059 0
-356 -3059 0
-318 356 3059 0
-371 -3060 0
578 -3060 0
371 -578 3060 0
624 -3061 0
735 -3061 0
-624 -735 3061 0
-1000 -3062 0
258 -3062 0
1000 -258 3062 0
37 -3063 0
-702 -3063 0
-37 702 3063 0
-624 -3064 0
242 -3064 0
624 -242 3064 0
-976 -3065 0
63 -3065 0
976 -63 3065 0
1000 -3066 0
993 -3066 0
-1000 -993 3066 0
-445 -3067 0
105 -3067 0
445 -105 3067 0
848 -3068 0
-641 -3068 0
-848 641 3068 0
350 -3069 0
-531 -3069 0
-350 531 3069 0
711 -3070 0
-499 -3070 0
-711 499 3070 0
237 -3071 0
475 -3071 0
-237 -475 3071 0
687 -3072 0
175 -3072 0
-687 -175 3072 0
371 -3073 0
786 -3073 0
-371 -786 3073 0
584 -3074 0
-13 -3074 0
-584 13 3074 0
367 -3075 0
-718 -3075 0
-367 718 3075 0
-98 -3076 0
213 -3076 0
98 -213 3076 0
967 -3077 0
315 -3077 0
-967 -315 3077 0
-825 -3078 0
958 -3078 0
825 -958 3078 0
645 -3079 0
810 -3079 0
-645 -810 3079 0
-761 -3080 0
890 -3080 0
761 -890 3080 0
586 -3081 0
42 -3081 0
-586 -42 3081 0
-386 -3082 0
805 -3082 0
386 -805 3082 0
261 -3083 0
740 -3083 0
-261 -740 3083 0
-508 -3084 0
186 -3084 0
508 -186 3084 0
-308 -3085 0
962 -3085 0
308 -962 3085 0
-504 -3086 0
997 -3087 0
449 -3087 0
-997 -449 3087 0
-267 -3088 0
737 -3088 0
267 -737 3088 0
666 -3089 0
538 -3089 0
-666 -538 3089 0
823 -3090 0
-175 -3090 0
-823 175 3090 0
358 -3091 0
457 -3091 0
-358 -457 3091 0
113 -3092 0
-63 -3092 0
-113 63 3092 0
-794 -3093 0
554 -3093 0
794 -554 3093 0
856 -3094 0
-297 -3094 0
-856 297 3094 0
486 -3095 0
810 -3095 0
-486 -810 3095 0
575 -3096 0
-439 -3096 0
-575 439 3096 0
-513 -3097 0
554 -3097 0
513 -554 3097 0
926 -3098 0
915 -3098 0
-926 -915 3098 0
-362 -3099 0
858 -3099 0
362 -858 3099 0
192 -3100 0
132 -3100 0
-192 -132 3100 0
176 -3101 0
-702 -3101 0
-176 702 3101 0
-987 -3102 0
723 -3102 0
987 -723 3102 0
-352 -3103 0
718 -3103 0
352 -718 3103 0
224 -3104 0
96 -3104 0
-224 -96 3104 0
942 -3105 0
-732 -3105 0
-942 732 3105 0
952 -3106 0
298 -3106 0
-952 -298 3106 0
262 -3107 0
865 -3107 0
-262 -865 3107 0
780 -3108 0
-133 -3108 0
-780 133 3108 0
-576 -3109 0
424 -3109 0
576 -424 3109 0
-467 -3110 0
762 -3110 0
467 -762 3110 0
248 -3111 0
-956 -3111 0
-248 956 3111 0
-730 -3112 0
342 -3112 0
730 -342 3112 0
923 -3113 0
98 -3113 0
-923 -98 3113 0
887 -3114 0
76 -3114 0
-887 -76 3114 0
671 -3115 0
-529 -3115 0
-671 529 3115 0
144 -3116 0
392 -3116 0
-144 -392 3116 0
-152 -3117 0
10 -3117 0
152 -10 3117 0
830 -3118 0
-252 -3118 0
-830 252 3118 0
440 -3119 0
-97 -3119 0
-440 97 3119 0
675 -3120 0
993 -3120 0
-675 -993 3120 0
583 -3121 0
955 -3121 0
-583 -955 3121 0
398 -3122 0
5 -3122 0
-398 -5 3122 0
-320 -3123 0
143 -3123 0
320 -143 3123 0
-65 -3124 0
99 -3124 0
65 -99 3124 0
383 -3125 0
877 -3125 0
-383 -877 3125 0
198 -3126 0
501 -3126 0
-198 -501 3126 0
62 -3127 0
-564 -3127 0
-62 564 3127 0
476 -3128 0
-796 -3128 0
-476 796 3128 0
399 -3129 0
598 -3129 0
-399 -598 3129 0
-987 -3130 0
305 -3130 0
987 -305 3130 0
376 -3131 0
-609 -3131 0
-376 609 3131 0
216 -3132 0
-50 -3132 0
-216 50 3132 0
-209 -3133 0
348 -3133 0
209 -348 3133 0
-74 -3134 0
59 -3134 0
74 -59 3134 0
671 -3135 0
515 -3135 0
-671 -515 3135 0
982 -3136 0
644 -3136 0
-982 -644 3136 0
-98 -3137 0
611 -3137 0
98 -611 3137 0
32 -3138 0
-723 -3138 0
-32 723 3138 0
-584 -3139 0
606 -3139 0
584 -606 3139 0
365 -3140 0
633 -3140 0
-365 -633 3140 0
839 -3141 0
577 -3141 0
-839 -577 3141 0
-297 -3142 0
267 -3142 0
297 -267 3142 0
-305 -3143 0
634 -3143 0
305 -634 3143 0
473 -3144 0
-527 -3144 0
-473 527 3144 0
823 -3145 0
-639 -3145 0
-823 639 3145 0
325 -3146 0
-134 -3146 0
-325 134 3146 0
407 -3147 0
83 -3147 0
-407 -83 3147 0
-394 -3148 0
531 -3148 0
394 -531 3148 0
341 -3149 0
82 -3149 0
-341 -82 3149 0
157 -3150 0
820 -3150 0
-157 -820 3150 0
616 -3151 0
961 -3151 0
-616 -961 3151 0
832 -3152 0
-588 -3152 0
-832 588 3152 0
-325 -3153 0
19 -3153 0
325 -19 3153 0
-797 -3154 0
243 -3154 0
797 -243 3154 0
432 -3155 0
761 -3155 0
-432 -761 3155 0
310 -3156 0
348 -3156 0
-310 -348 3156 0
742 -3157 0
851 -3157 0
-742 -851 3157 0
-206 -3158 0
905 -3158 0
206 -905 3158 0
782 -3159 0
210 -3159 0
-782 -210 3159 0
244 -3160 0
522 -3160 0
-244 -522 3160 0
528 -3161 0
-417 -3161 0
-528 417 3161 0
567 -3162 0
-397 -3162 0
-567 397 3162 0
-444 -3163 0
20 -3163 0
444 -20 3163 0
543 -3164 0
-316 -3164 0
-543 316 3164 0
596 -3165 0
89 -3165 0
-596 -89 3165 0
221 -3166 0
-423 -3166 0
-221 423 3166 0
398 -3167 0
52 -3167 0
-398 -52 3167 0
-448 -3168 0
343 -3168 0
448 -343 3168 0
12 -3169 0
-814 -3169 0
-12 814 3169 0
-883 -3170 0
409 -3170 0
883 -409 3170 0
-667 -3171 0
913 -3171 0
667 -913 3171 0
-926 -3172 0
201 -3172 0
926 -201 3172 0
556 -3173 0
-981 -3173 0
-556 981 3173 0
302 -3174 0
414 -3174 0
-302 -414 3174 0
264 -3175 0
522 -3175 0
-264 -522 3175 0
247 -3176 0
501 -3176 0
-247 -501 3176 0
398 -3177 0
521 -3177 0
-398 -521 3177 0
125 -3178 0
-830 -3178 0
-125 830 3178 0
136 -3179 0
165 -3179 0
-136 -165 3179 0
-624 -3180 0
500 -3180 0
624 -500 3180 0
23 -3181 0
-830 -3181 0
-23 830 3181 0
-11 -3182 0
547 -3182 0
11 -547 3182 0
832 -3183 0
-595 -3183 0
-832 595 3183 0
-788 -3184 0
283 -3184 0
788 -283 3184 0
37 -3185 0
-957 -3185 0
-37 957 3185 0
434 -3186 0
225 -3186 0
-434 -225 3186 0
-265 -3187 0
289 -3187 0
265 -289 3187 0
202 -3188 0
-767 -3188 0
-202 767 3188 0
176 -3189 0
69 -3189 0
-176 -69 3189 0
341 -3190 0
-582 -3190 0
-341 582 3190 0
415 -3191 0
-634 -3191 0
-415 634 3191 0
267 -3192 0
930 -3192 0
-267 -930 3192 0
-184 -3193 0
882 -3193 0
184 -882 3193 0
256 -3194 0
717 -3194 0
-256 -717 3194 0
165 -3195 0
611 -3195 0
-165 -611 3195 0
531 -3196 0
515 -3196 0
-531 -515 3196 0
-986 -3197 0
597 -3197 0
986 -597 3197 0
307 -3198 0
147 -3198 0
-307 -147 3198 0
64 -3199 0
-240 -3199 0
-64 240 3199 0
-164 -3200 0
642 -3200 0
164 -642 3200 0
44 -3201 0
-885 -3201 0
-44 885 3201 0
491 -3202 0
97 -3202 0
-491 -97 3202 0
-521 -3203 0
155 -3203 0
521 -155 3203 0
368 -3204 0
-931 -3204 0
-368 931 3204 0
-880 -3205 0
329 -3205 0
880 -329 3205 0
-816 -3206 0
171 -3206 0
816 -171 3206 0
-788 -3207 0
841 -3207 0
788 -841 3207 0
727 -3208 0
-658 -3208 0
-727 658 3208 0
415 -3209 0
222 -3209 0
-415 -222 3209 0
-608 -3210 0
181 -3210 0
608 -181 3210 0
96 -3211 0
159 -3211 0
-96 -159 3211 0
-882 -3212 0
803 -3212 0
882 -803 3212 0
485 -3213 0
-565 -3213 0
-485 565 3213 0
502 -3214 0
468 -3214 0
-502 -468 3214 0
46 -3215 0
459 -3215 0
-46 -459 3215 0
832 -3216 0
-878 -3216 0
-832 878 3216 0
-937 -3217 0
378 -3217 0
937 -378 3217 0
808 -3218 0
217 -3218 0
-808 -217 3218 0
120 -3219 0
102 -3219 0
-120 -102 3219 0
-821 -3220 0
91 -3220 0
821 -91 3220 0
-6 -3221 0
177 -3221 0
6 -177 3221 0
-321 -3222 0
5 -3222 0
321 -5 3222 0
171 -3223 0
458 -3223 0
-171 -458 3223 0
176 -3224 0
274 -3224 0
-176 -274 3224 0
239 -3225 0
-580 -3225 0
-239 580 3225 0
-554 -3226 0
682 -3226 0
554 -682 3226 0
535 -3227 0
220 -3227 0
-535 -220 3227 0
-202 -3228 0
658 -3228 0
202 -658 3228 0
-952 -3229 0
471 -3229 0
952 -471 3229 0
709 -3230 0
-998 -3230 0
-709 998 3230 0
-737 -3231 0
606 -3231 0
737 -606 3231 0
-860 -3232 0
65 -3232 0
860 -65 3232 0
295 -3233 0
-915 -3233 0
-295 915 3233 0
60 -3234 0
-54 -3234 0
-60 54 3234 0
-809 -3235 0
684 -3235 0
809 -684 3235 0
-195 -3236 0
740 -3236 0
195 -740 3236 0
-538 -3237 0
219 -3237 0
538 -219 3237 0
229 -3238 0
633 -3238 0
-229 -633 3238 0
728 -3239 0
-51 -3239 0
-728 51 3239 0
-826 -3240 0
881 -3240 0
826 -881 3240 0
-1000 -3241 0
241 -3241 0
1000 -241 3241 0
759 -3242 0
587 -3242 0
-759 -587 3242 0
183 -3243 0
844 -3243 0
-183 -844 3243 0
582 -3244 0
-431 -3244 0
-582 431 3244 0
782 -3245 0
937 -3245 0
-782 -937 3245 0
410 -3246 0
-783 -3246 0
-410 783 3246 0
-658 -3247 0
618 -3247 0
658 -618 3247 0
559 -3248 0
-227 -3248 0
-559 227 3248 0
735 -3249 0
-458 -3249 0
-735 458 3249 0
511 -3250 0
107 -3250 0
-511 -107 3250 0
848 -3251 0
-542 -3251 0
-848 542 3251 0
-489 -3252 0
338 -3252 0
489 -338 3252 0
444 -3253 0
962 -3253 0
-444 -962 3253 0
-249 -3254 0
635 -3254 0
249 -635 3254 0
-730 -3255 0
372 -3255 0
730 -372 3255 0
351 -3256 0
369 -3256 0
-351 -369 3256 0
29 -3257 0
169 -3257 0
-29 -169 3257 0
-313 -3258 0
462 -3258 0
313 -462 3258 0
-509 -3259 0
794 -3259 0
509 -794 3259 0
216 -3260 0
710 -3260 0
-216 -710 3260 0
-25 -3261 0
212 -3261 0
25 -212 3261 0
847 -3262 0
-30 -3262 0
-847 30 3262 0
-682 -3263 0
685 -3263 0
682 -685 3263 0
160 -3264 0
-1000 -3264 0
-160 1000 3264 0
324 -3265 0
522 -3265 0
-324 -522 3265 0
469 -3266 0
-806 -3266 0
-469 806 3266 0
52 -3267 0
-374 -3267 0
-52 374 3267 0
776 -3268 0
-400 -3268 0
-776 400 3268 0
254 -3269 0
-438 -3269 0
-254 438 3269 0
-800 -3270 0
581 -3270 0
800 -581 3270 0
248 -3271 0
-619 -3271 0
-248 619 3271 0
16 -3272 0
829 -3272 0
-16 -829 3272 0
896 -3273 0
47 -3273 0
-896 -47 3273 0
684 -3274 0
-382 -3274 0
-684 382 3274 0
693 -3275 0
-459 -3275 0
-693 459 3275 0
-501 -3276 0
826 -3276 0
501 -826 3276 0
-978 -3277 0
830 -3277 0
978 -830 3277 0
572 -3278 0
123 -3278 0
-572 -123 3278 0
839 -3279 0
834 -3279 0
-839 -834 3279 0
-848 -3280 0
316 -3280 0
848 -316 3280 0
390 -3281 0
-126 -3281 0
-390 126 3281 0
519 -3282 0
-381 -3282 0
-519 381 3282 0
628 -3283 0
-508 -3283 0
-628 508 3283 0
-581 -3284 0
961 -3284 0
581 -961 3284 0
556 -3285 0
-533 -3285 0
-556 533 3285 0
651 -3286 0
-574 -3286 0
-651 574 3286 0
-210 -3287 0
843 -3287 0
210 -843 3287 0
792 -3288 0
940 -3288 0
-792 -940 3288 0
855 -3289 0
969 -3289 0
-855 -969 3289 0
109 -3290 0
330 -3290 0
-109 -330 3290 0
-848 -3291 0
439 -3291 0
848 -439 3291 0
599 -3292 0
956 -3292 0
-599 -956 3292 0
155 -3293 0
97 -3293 0
-155 -97 3293 0
916 -3294 0
465 -3294 0
-916 -465 3294 0
-435 -3295 0
899 -3295 0
435 -899 3295 0
687 -3296 0
427 -3296 0
-687 -427 3296 0
280 -3297 0
-219 -3297 0
-280 219 3297 0
855 -3298 0
385 -3298 0
-855 -385 3298 0
589 -3299 0
-261 -3299 0
-589 261 3299 0
459 -3300 0
-887 -3300 0
-459 887 3300 0
21 -3301 0
786 -3301 0
-21 -786 3301 0
374 -3302 0
573 -3302 0
-374 -573 3302 0
646 -3303 0
-636 -3303 0
-646 636 3303 0
744 -3304 0
729 -3304 0
-744 -729 3304 0
840 -3305 0
518 -3305 0
-840 -518 3305 0
-352 -3306 0
205 -3306 0
352 -205 3306 0
-834 -3307 0
378 -3307 0
834 -378 3307 0
511 -3308 0
-635 -3308 0
-511 635 3308 0
653 -3309 0
348 -3309 0
-653 -348 3309 0
-64 -3310 0
829 -3310 0
64 -829 3310 0
421 -3311 0
397 -3311 0
-421 -397 3311 0
-944 -3312 0
890 -3312 0
944 -890 3312 0
-246 -3313 0
433 -3313 0
246 -433 3313 0
288 -3314 0
954 -3314 0
-288 -954 3314 0
15 -3315 0
963 -3315 0
-15 -963 3315 0
-496 -3316 0
3 -3316 0
496 -3 3316 0
-795 -3317 0
132 -3317 0
795 -132 3317 0
-963 -3318 0
889 -3318 0
963 -889 3318 0
-308 -3319 0
465 -3319 0
308 -465 3319 0
823 -3320 0
779 -3320 0
-823 -779 3320 0
182 -3321 0
-212 -3321 0
-182 212 3321 0
884 -3322 0
618 -3322 0
-884 -618 3322 0
576 -3323 0
982 -3323 0
-576 -982 3323 0
344 -3324 0
-43 -3324 0
-344 43 3324 0
-194 -3325 0
414 -3325 0
194 -414 3325 0
-668 -3326 0
796 -3326 0
668 -796 3326 0
720 -3327 0
-629 -3327 0
-720 629 3327 0
311 -3328 0
942 -3328 0
-311 -942 3328 0
989 -3329 0
-590 -3329 0
-989 590 3329 0
-105 -3330 0
391 -3330 0
105 -391 3330 0
-745 -3331 0
271 -3331 0
745 -271 3331 0
894 -3332 0
-862 -3332 0
-894 862 3332 0
878 -3333 0
25 -3333 0
-878 -25 3333 0
920 -3334 0
477 -3334 0
-920 -477 3334 0
618 -3335 0
-766 -3335 0
-618 766 3335 0
470 -3336 0
-566 -3336 0
-470 566 3336 0
-757 -3337 0
305 -3337 0
757 -305 3337 0
-73 -3338 0
409 -3338 0
73 -409 3338 0
-75 -3339 0
661 -3339 0
75 -661 3339 0
-163 -3340 0
777 -3340 0
163 -777 3340 0
-611 -3341 0
75 -3341 0
611 -75 3341 0
744 -3342 0
265 -3342 0
-744 -265 3342 0
-218 -3343 0
180 -3343 0
218 -180 3343 0
192 -3344 0
258 -3344 0
-192 -258 3344 0
808 -3345 0
387 -3345 0
-808 -387 3345 0
-314 -3346 0
130 -3346 0
314 -130 3346 0
-504 -3347 0
326 -3347 0
504 -326 3347 0
-752 -3348 0
327 -3348 0
752 -327 3348 0
501 -3349 0
-774 -3349 0
-501 774 3349 0
-868 -3350 0
481 -3350 0
868 -481 3350 0
-841 -3351 0
225 -3351 0
841 -225 3351 0
491 -3352 0
-543 -3352 0
-491 543 3352 0
-918 -3353 0
289 -3353 0
918 -289 3353 0
210 -3354 0
-991 -3354 0
-210 991 3354 0
423 -3355 0
485 -3355 0
-423 -485 3355 0
-416 -3356 0
799 -3356 0
416 -799 3356 0
743 -3357 0
85 -3357 0
-743 -85 3357 0
288 -3358 0
-94 -3358 0
-288 94 3358 0
716 -3359 0
-500 -3359 0
-716 500 3359 0
582 -3360 0
-30 -3360 0
-582 30 3360 0
-120 -3361 0
401 -3361 0
120 -401 3361 0
173 -3362 0
137 -3362 0
-173 -137 3362 0
-369 -3363 0
97 -3363 0
369 -97 3363 0
-917 -3364 0
433 -3364 0
917 -433 3364 0
-291 -3365 0
635 -3365 0
291 -635 3365 0
-472 -3366 0
562 -3366 0
472 -562 3366 0
232 -3367 0
275 -3367 0
-232 -275 3367 0
389 -3368 0
937 -3368 0
-389 -937 3368 0
478 -3369 0
-379 -3369 0
-478 379 3369 0
872 -3370 0
-262 -3370 0
-872 262 3370 0
327 -3371 0
-556 -3371 0
-327 556 3371 0
359 -3372 0
-137 -3372 0
-359 137 3372 0
984 -3373 0
-71 -3373 0
-984 71 3373 0
184 -3374 0
985 -3374 0
-184 -985 3374 0
552 -3375 0
-915 -3375 0
-552 915 3375 0
86 -3376 0
826 -3376 0
-86 -826 3376 0
-368 -3377 0
598 -3377 0
368 -598 3377 0
-775 -3378 0
857 -3378 0
775 -857 3378 0
-128 -3379 0
25 -3379 0
128 -25 3379 0
-251 -3380 0
275 -3380 0
251 -275 3380 0
184 -3381 0
827 -3381 0
-184 -827 3381 0
-769 -3382 0
105 -3382 0
769 -105 3382 0
-314 -3383 0
358 -3383 0
314 -358 3383 0
652 -3384 0
-671 -3384 0
-652 671 3384 0
175 -3385 0
-685 -3385 0
-175 685 3385 0
213 -3386 0
-124 -3386 0
-213 124 3386 0
661 -3387 0
908 -3387 0
-661 -908 3387 0
996 -3388 0
673 -3388 0
-996 -673 3388 0
810 -3389 0
57 -3389 0
-810 -57 3389 0
-956 -3390 0
858 -3390 0
956 -858 3390 0
678 -3391 0
361 -3391 0
-678 -361 3391 0
552 -3392 0
-281 -3392 0
-552 281 3392 0
-930 -3393 0
153 -3393 0
930 -153 3393 0
559 -3394 0
-685 -3394 0
-559 685 3394 0
826 -3395 0
178 -3395 0
-826 -178 3395 0
-946 -3396 0
69 -3396 0
946 -69 3396 0
-816 -3397 0
217 -3397 0
816 -217 3397 0
159 -3398 0
814 -3398 0
-159 -814 3398 0
-496 -3399 0
729 -3399 0
496 -729 3399 0
-424 -3400 0
125 -3400 0
424 -125 3400 0
24 -3401 0
521 -3401 0
-24 -521 3401 0
166 -3402 0
-179 -3402 0
-166 179 3402 0
501 -3403 0
221 -3403 0
-501 -221 3403 0
-883 -3404 0
92 -3404 0
883 -92 3404 0
5 -3405 0
-485 -3405 0
-5 485 3405 0
663 -3406 0
-349 -3406 0
-663 349 3406 0
312 -3407 0
-815 -3407 0
-312 815 3407 0
232 -3408 0
-702 -3408 0
-232 702 3408 0
146 -3409 0
-455 -3409 0
-146 455 3409 0
838 -3410 0
-94 -3410 0
-838 94 3410 0
485 -3411 0
661 -3411 0
-485 -661 3411 0
558 -3412 0
130 -3412 0
-558 -130 3412 0
126 -3413 0
-780 -3413 0
-126 780 3413 0
-75 -3414 0
820 -3414 0
75 -820 3414 0
-692 -3415 0
226 -3415 0
692 -226 3415 0
133 -3416 0
546 -3416 0
-133 -546 3416 0
60 -3417 0
-206 -3417 0
-60 206 3417 0
536 -3418 0
631 -3418 0
-536 -631 3418 0
998 -3419 0
-775 -3419 0
-998 775 3419 0
148 -3420 0
-847 -3420 0
-148 847 3420 0
-987 -3421 0
187 -3421 0
987 -187 3421 0
-948 -3422 0
266 -3422 0
948 -266 3422 0
750 -3423 0
-715 -3423 0
-750 715 3423 0
-720 -3424 0
518 -3424 0
720 -518 3424 0
736 -3425 0
244 -3425 0
-736 -244 3425 0
784 -3426 0
-13 -3426 0
-784 13 3426 0
-908 -3427 0
129 -3427 0
908 -129 3427 0
-200 -3428 0
192 -3428 0
200 -192 3428 0
440 -3429 0
265 -3429 0
-440 -265 3429 0
239 -3430 0
425 -3430 0
-239 -425 3430 0
696 -3431 0
240 -3431 0
-696 -240 3431 0
240 -3432 0
90 -3432 0
-240 -90 3432 0
957 -3433 0
324 -3433 0
-957 -324 3433 0
262 -3434 0
91 -3434 0
-262 -91 3434 0
-9 -3435 0
54 -3435 0
9 -54 3435 0
158 -3436 0
833 -3436 0
-158 -833 3436 0
-113 -3437 0
913 -3437 0
113 -913 3437 0
411 -3438 0
-174 -3438 0
-411 174 3438 0
445 -3439 0
-519 -3439 0
-445 519 3439 0
582 -3440 0
-243 -3440 0
-582 243 3440 0
868 -3441 0
970 -3441 0
-868 -970 3441 0
463 -3442 0
-763 -3442 0
-463 763 3442 0
147 -3443 0
-813 -3443 0
-147 813 3443 0
-928 -3444 0
330 -3444 0
928 -330 3444 0
831 -3445 0
189 -3445 0
-831 -189 3445 0
-189 -3446 0
322 -3446 0
189 -322 3446 0
551 -3447 0
-850 -3447 0
-551 850 3447 0
824 -3448 0
305 -3448 0
-824 -305 3448 0
-612 -3449 0
218 -3449 0
612 -218 3449 0
886 -3450 0
-998 -3450 0
-886 998 3450 0
805 -3451 0
852 -3451 0
-805 -852 3451 0
941 -3452 0
699 -3452 0
-941 -699 3452 0
-944 -3453 0
909 -3453 0
944 -909 3453 0
854 -3454 0
441 -3454 0
-854 -441 3454 0
646 -3455 0
-388 -3455 0
-646 388 3455 0
-645 -3456 0
953 -3456 0
645 -953 3456 0
288 -3457 0
977 -3457 0
-288 -977 3457 0
-416 -3458 0
838 -3458 0
416 -838 3458 0
400 -3459 0
-676 -3459 0
-400 676 3459 0
852 -3460 0
883 -3460 0
-852 -883 3460 0
-321 -3461 0
617 -3461 0
321 -617 3461 0
127 -3462 0
85 -3462 0
-127 -85 3462 0
822 -3463 0
27 -3463 0
-822 -27 3463 0
191 -3464 0
534 -3464 0
-191 -534 3464 0
252 -3465 0
-631 -3465 0
-252 631 3465 0
696 -3466 0
849 -3466 0
-696 -849 3466 0
541 -3467 0
-487 -3467 0
-541 487 3467 0
206 -3468 0
276 -3468 0
-206 -276 3468 0
981 -3469 0
266 -3469 0
-981 -266 3469 0
-305 -3470 0
386 -3470 0
305 -386 3470 0
326 -3471 0
-853 -3471 0
-326 853 3471 0
69 -3472 0
417 -3472 0
-69 -417 3472 0
640 -3473 0
40 -3473 0
-640 -40 3473 0
-369 -3474 0
195 -3474 0
369 -195 3474 0
-321 -3475 0
507 -3475 0
321 -507 3475 0
536 -3476 0
60 -3476 0
-536 -60 3476 0
-290 -3477 0
739 -3477 0
290 -739 3477 0
-84 -3478 0
523 -3478 0
84 -523 3478 0
830 -3479 0
693 -3479 0
-830 -693 3479 0
524 -3480 0
243 -3480 0
-524 -243 3480 0
648 -3481 0
781 -3481 0
-648 -781 3481 0
-617 -3482 0
921 -3482 0
617 -921 3482 0
191 -3483 0
-811 -3483 0
-191 811 3483 0
896 -3484 0
-462 -3484 0
-896 462 3484 0
383 -3485 0
-341 -3485 0
-383 341 3485 0
382 -3486 0
-979 -3486 0
-382 979 3486 0
784 -3487 0
-998 -3487 0
-784 998 3487 0
654 -3488 0
740 -3488 0
-654 -740 3488 0
577 -3489 0
457 -3489 0
-577 -457 3489 0
261 -3490 0
-527 -3490 0
-261 527 3490 0
38 -3491 0
-548 -3491 0
-38 548 3491 0
123 -3492 0
689 -3492 0
-123 -689 3492 0
69 -3493 0
-507 -3493 0
-69 507 3493 0
924 -3494 0
-116 -3494 0
-924 116 3494 0
-551 -3495 0
545 -3495 0
551 -545 3495 0
270 -3496 0
-471 -3496 0
-270 471 3496 0
-954 -3497 0
946 -3497 0
954 -946 3497 0
150 -3498 0
-843 -3498 0
-150 843 3498 0
-876 -3499 0
49 -3499 0
876 -49 3499 0
71 -3500 0
-937 -3500 0
-71 937 3500 0
-449 -3501 0
635 -3501 0
449 -635 3501 0
950 -3502 0
-463 -3502 0
-950 463 3502 0
-849 -3503 0
477 -3503 0
849 -477 3503 0
147 -3504 0
-86 -3504 0
-147 86 3504 0
-931 -3505 0
164 -3505 0
931 -164 3505 0
-707 -3506 0
452 -3506 0
707 -452 3506 0
739 -3507 0
-781 -3507 0
-739 781 3507 0
-914 -3508 0
244 -3508 0
914 -244 3508 0
-243 -3509 0
635 -3509 0
243 -635 3509 0
-984 -3510 0
894 -3510 0
984 -894 3510 0
541 -3511 0
-775 -3511 0
-541 775 3511 0
307 -3512 0
-998 -3512 0
-307 998 3512 0
-842 -3513 0
705 -3513 0
842 -705 3513 0
-841 -3514 0
335 -3514 0
841 -335 3514 0
-912 -3515 0
616 -3515 0
912 -616 3515 0
867 -3516 0
450 -3516 0
-867 -450 3516 0
796 -3517 0
203 -3517 0
-796 -203 3517 0
565 -3518 0
-244 -3518 0
-565 244 3518 0
199 -3519 0
-498 -3519 0
-199 498 3519 0
491 -3520 0
817 -3520 0
-491 -817 3520 0
-752 -3521 0
272 -3521 0
752 -272 3521 0
695 -3522 0
2 -3522 0
-695 -2 3522 0
135 -3523 0
-658 -3523 0
-135 658 3523 0
-619 -3524 0
987 -3524 0
619 -987 3524 0
135 -3525 0
694 -3525 0
-135 -694 3525 0
257 -3526 0
-295 -3526 0
-257 295 3526 0
-450 -3527 0
628 -3527 0
450 -628 3527 0
56 -3528 0
455 -3528 0
-56 -455 3528 0
-248 -3529 0
605 -3529 0
248 -605 3529 0
-336 -3530 0
664 -3530 0
336 -664 3530 0
-371 -3531 0
188 -3531 0
371 -188 3531 0
72 -3532 0
19 -3532 0
-72 -19 3532 0
844 -3533 0
460 -3533 0
-844 -460 3533 0
771 -3534 0
585 -3534 0
-771 -585 3534 0
54 -3535 0
-228 -3535 0
-54 228 3535 0
657 -3536 0
609 -3536 0
-657 -609 3536 0
-752 -3537 0
951 -3537 0
752 -951 3537 0
-152 -3538 0
18 -3538 0
152 -18 3538 0
94 -3539 0
-479 -3539 0
-94 479 3539 0
-320 -3540 0
901 -3540 0
320 -901 3540 0
432 -3541 0
935 -3541 0
-432 -935 3541 0
383 -3542 0
285 -3542 0
-383 -285 3542 0
950 -3543 0
-60 -3543 0
-950 60 3543 0
-987 -3544 0
972 -3544 0
987 -972 3544 0
786 -3545 0
737 -3545 0
-786 -737 3545 0
-549 -3546 0
450 -3546 0
549 -450 3546 0
176 -3547 0
163 -3547 0
-176 -163 3547 0
845 -3548 0
460 -3548 0
-845 -460 3548 0
-434 -3549 0
781 -3549 0
434 -781 3549 0
-152 -3550 0
644 -3550 0
152 -644 3550 0
102 -3551 0
593 -3551 0
-102 -593 3551 0
888 -3552 0
-738 -3552 0
-888 738 3552 0
135 -3553 0
838 -3553 0
-135 -838 3553 0
-626 -3554 0
811 -3554 0
626 -811 3554 0
-115 -3555 0
437 -3555 0
115 -437 3555 0
390 -3556 0
-669 -3556 0
-390 669 3556 0
315 -3557 0
827 -3557 0
-315 -827 3557 0
458 -3558 0
-199 -3558 0
-458 199 3558 0
-715 -3559 0
403 -3559 0
715 -403 3559 0
64 -3560 0
124 -3560 0
-64 -124 3560 0
39 -3561 0
694 -3561 0
-39 -694 3561 0
-548 -3562 0
971 -3562 0
548 -971 3562 0
644 -3563 0
961 -3563 0
-644 -961 3563 0
-145 -3564 0
529 -3564 0
145 -529 3564 0
-138 -3565 0
21 -3565 0
138 -21 3565 0
462 -3566 0
-660 -3566 0
-462 660 3566 0
-368 -3567 0
455 -3567 0
368 -455 3567 0
595 -3568 0
-638 -3568 0
-595 638 3568 0
-172 -3569 0
323 -3569 0
172 -323 3569 0
156 -3570 0
658 -3570 0
-156 -658 3570 0
382 -3571 0
377 -3571 0
-382 -377 3571 0
-568 -3572 0
262 -3572 0
568 -262 3572 0
872 -3573 0
-795 -3573 0
-872 795 3573 0
73 -3574 0
9 -3574 0
-73 -9 3574 0
686 -3575 0
818 -3575 0
-686 -818 3575 0
117 -3576 0
-277 -3576 0
-117 277 3576 0
798 -3577 0
483 -3577 0
-798 -483 3577 0
-456 -3578 0
338 -3578 0
456 -338 3578 0
53 -3579 0
611 -3579 0
-53 -611 3579 0
840 -3580 0
-572 -3580 0
-840 572 3580 0
-59 -3581 0
481 -3581 0
59 -481 3581 0
273 -3582 0
929 -3582 0
-273 -929 3582 0
606 -3583 0
-167 -3583 0
-606 167 3583 0
957 -3584 0
417 -3584 0
-957 -417 3584 0
104 -3585 0
181 -3585 0
-104 -181 3585 0
512 -3586 0
200 -3586 0
-512 -200 3586 0
720 -3587 0
-79 -3587 0
-720 79 3587 0
202 -3588 0
817 -3588 0
-202 -817 3588 0
701 -3589 0
371 -3589 0
-701 -371 3589 0
-160 -3590 0
211 -3590 0
160 -211 3590 0
-673 -3591 0
149 -3591 0
673 -149 3591 0
572 -3592 0
83 -3592 0
-572 -83 3592 0
654 -3593 0
561 -3593 0
-654 -561 3593 0
-506 -3594 0
243 -3594 0
506 -243 3594 0
-152 -3595 0
342 -3595 0
152 -342 3595 0
942 -3596 0
2 -3596 0
-942 -2 3596 0
154 -3597 0
-14 -3597 0
-154 14 3597 0
70 -3598 0
821 -3598 0
-70 -821 3598 0
487 -3599 0
-807 -3599 0
-487 807 3599 0
-832 -3600 0
524 -3600 0
832 -524 3600 0
-11 -3601 0
859 -3601 0
11 -859 3601 0
35 -3602 0
250 -3602 0
-35 -250 3602 0
848 -3603 0
-536 -3603 0
-848 536 3603 0
588 -3604 0
355 -3604 0
-588 -355 3604 0
784 -3605 0
-891 -3605 0
-784 891 3605 0
758 -3606 0
585 -3606 0
-758 -585 3606 0
604 -3607 0
-502 -3607 0
-604 502 3607 0
415 -3608 0
-718 -3608 0
-415 718 3608 0
93 -3609 0
466 -3609 0
-93 -466 3609 0
711 -3610 0
-140 -3610 0
-711 140 3610 0
560 -3611 0
-241 -3611 0
-560 241 3611 0
663 -3612 0
-940 -3612 0
-663 940 3612 0
163 -3613 0
209 -3613 0
-163 -209 3613 0
-409 -3614 0
842 -3614 0
409 -842 3614 0
55 -3615 0
-902 -3615 0
-55 902 3615 0
-812 -3616 0
369 -3616 0
812 -369 3616 0
676 -3617 0
-733 -3617 0
-676 733 3617 0
-336 -3618 0
964 -3618 0
336 -964 3618 0
706 -3619 0
-615 -3619 0
-706 615 3619 0
206 -3620 0
-605 -3620 0
-206 605 3620 0
-176 -3621 0
222 -3621 0
176 -222 3621 0
498 -3622 0
697 -3622 0
-498 -697 3622 0
317 -3623 0
-484 -3623 0
-317 484 3623 0
-440 -3624 0
490 -3624 0
440 -490 3624 0
-489 -3625 0
521 -3625 0
489 -521 3625 0
-929 -3626 0
131 -3626 0
929 -131 3626 0
63 -3627 0
742 -3627 0
-63 -742 3627 0
894 -3628 0
517 -3628 0
-894 -517 3628 0
267 -3629 0
642 -3629 0
-267 -642 3629 0
382 -3630 0
-654 -3630 0
-382 654 3630 0
806 -3631 0
-900 -3631 0
-806 900 3631 0
440 -3632 0
-23 -3632 0
-440 23 3632 0
-349 -3633 0
771 -3633 0
349 -771 3633 0
-808 -3634 0
113 -3634 0
808 -113 3634 0
-682 -3635 0
444 -3635 0
682 -444 3635 0
566 -3636 0
-663 -3636 0
-566 663 3636 0
824 -3637 0
278 -3637 0
-824 -278 3637 0
712 -3638 0
-687 -3638 0
-712 687 3638 0
855 -3639 0
-539 -3639 0
-855 539 3639 0
-704 -3640 0
912 -3640 0
704 -912 3640 0
560 -3641 0
-901 -3641 0
-560 901 3641 0
-843 -3642 0
490 -3642 0
843 -490 3642 0
111 -3643 0
119 -3643 0
-111 -119 3643 0
780 -3644 0
-526 -3644 0
-780 526 3644 0
480 -3645 0
-832 -3645 0
-480 832 3645 0
942 -3646 0
-78 -3646 0
-942 78 3646 0
733 -3647 0
665 -3647 0
-733 -665 3647 0
941 -3648 0
875 -3648 0
-941 -875 3648 0
752 -3649 0
-38 -3649 0
-752 38 3649 0
-569 -3650 0
769 -3650 0
569 -769 3650 0
86 -3651 0
278 -3651 0
-86 -278 3651 0
-698 -3652 0
609 -3652 0
698 -609 3652 0
211 -3653 0
121 -3653 0
-211 -121 3653 0
416 -3654 0
-310 -3654 0
-416 310 3654 0
632 -3655 0
-951 -3655 0
-632 951 3655 0
936 -3656 0
43 -3656 0
-936 -43 3656 0
-778 -3657 0
689 -3657 0
778 -689 3657 0
608 -3658 0
-70 -3658 0
-608 70 3658 0
-689 -3659 0
350 -3659 0
689 -350 3659 0
-50 -3660 0
857 -3660 0
50 -857 3660 0
-922 -3661 0
781 -3661 0
922 -781 3661 0
919 -3662 0
-247 -3662 0
-919 247 3662 0
389 -3663 0
557 -3663 0
-389 -557 3663 0
-186 -3664 0
562 -3664 0
186 -562 3664 0
3 -3665 0
473 -3665 0
-3 -473 3665 0
311 -3666 0
-67 -3666 0
-311 67 3666 0
715 -3667 0
-382 -3667 0
-715 382 3667 0
550 -3668 0
-355 -3668 0
-550 355 3668 0
669 -3669 0
617 -3669 0
-669 -617 3669 0
582 -3670 0
913 -3670 0
-582 -913 3670 0
352 -3671 0
-929 -3671 0
-352 929 3671 0
582 -3672 0
-891 -3672 0
-582 891 3672 0
880 -3673 0
-954 -3673 0
-880 954 3673 0
303 -3674 0
-126 -3674 0
-303 126 3674 0
-800 -3675 0
80 -3675 0
800 -80 3675 0
730 -3676 0
-391 -3676 0
-730 391 3676 0
308 -3677 0
-365 -3677 0
-308 365 3677 0
76 -3678 0
577 -3678 0
-76 -577 3678 0
572 -3679 0
-895 -3679 0
-572 895 3679 0
-171 -3680 0
450 -3680 0
171 -450 3680 0
-352 -3681 0
960 -3681 0
352 -960 3681 0
-604 -3682 0
706 -3682 0
604 -706 3682 0
904 -3683 0
-698 -3683 0
-904 698 3683 0
711 -3684 0
539 -3684 0
-711 -539 3684 0
-36 -3685 0
243 -3685 0
36 -243 3685 0
560 -3686 0
471 -3686 0
-560 -471 3686 0
-401 -3687 0
802 -3687 0
401 -802 3687 0
768 -3688 0
622 -3688 0
-768 -622 3688 0
823 -3689 0
-462 -3689 0
-823 462 3689 0
-459 -3690 0
379 -3690 0
459 -379 3690 0
670 -3691 0
-203 -3691 0
-670 203 3691 0
587 -3692 0
-391 -3692 0
-587 391 3692 0
765 -3693 0
365 -3693 0
-765 -365 3693 0
150 -3694 0
-221 -3694 0
-150 221 3694 0
211 -3695 0
377 -3695 0
-211 -377 3695 0
264 -3696 0
-400 -3696 0
-264 400 3696 0
-299 -3697 0
114 -3697 0
299 -114 3697 0
350 -3698 0
354 -3698 0
-350 -354 3698 0
806 -3699 0
-500 -3699 0
-806 500 3699 0
-186 -3700 0
890 -3700 0
186 -890 3700 0
504 -3701 0
-900 -3701 0
-504 900 3701 0
7 -3702 0
252 -3702 0
-7 -252 3702 0
623 -3703 0
-827 -3703 0
-623 827 3703 0
498 -3704 0
-751 -3704 0
-498 751 3704 0
183 -3705 0
-571 -3705 0
-183 571 3705 0
750 -3706 0
756 -3706 0
-750 -756 3706 0
-994 -3707 0
801 -3707 0
994 -801 3707 0
722 -3708 0
25 -3708 0
-722 -25 3708 0
747 -3709 0
555 -3709 0
-747 -555 3709 0
-936 -3710 0
195 -3710 0
936 -195 3710 0
766 -3711 0
-486 -3711 0
-766 486 3711 0
63 -3712 0
-563 -3712 0
-63 563 3712 0
611 -3713 0
-374 -3713 0
-611 374 3713 0
543 -3714 0
-887 -3714 0
-543 887 3714 0
-329 -3715 0
550 -3715 0
329 -550 3715 0
884 -3716 0
-854 -3716 0
-884 854 3716 0
719 -3717 0
669 -3717 0
-719 -669 3717 0
511 -3718 0
-399 -3718 0
-511 399 3718 0
766 -3719 0
69 -3719 0
-766 -69 3719 0
367 -3720 0
-407 -3720 0
-367 407 3720 0
-827 -3721 0
297 -3721 0
827 -297 3721 0
-290 -3722 0
410 -3722 0
290 -410 3722 0
175 -3723 0
-771 -3723 0
-175 771 3723 0
338 -3724 0
-687 -3724 0
-338 687 3724 0
-506 -3725 0
356 -3725 0
506 -356 3725 0
533 -3726 0
331 -3726 0
-533 -331 3726 0
952 -3727 0
580 -3727 0
-952 -580 3727 0
928 -3728 0
-988 -3728 0
-928 988 3728 0
-36 -3729 0
379 -3729 0
36 -379 3729 0
214 -3730 0
-461 -3730 0
-214 461 3730 0
341 -3731 0
-52 -3731 0
-341 52 3731 0
352 -3732 0
579 -3732 0
-352 -579 3732 0
976 -3733 0
-778 -3733 0
-976 778 3733 0
324 -3734 0
-549 -3734 0
-324 549 3734 0
171 -3735 0
-949 -3735 0
-171 949 3735 0
590 -3736 0
657 -3736 0
-590 -657 3736 0
-124 -3737 0
563 -3737 0
124 -563 3737 0
270 -3738 0
572 -3738 0
-270 -572 3738 0
167 -3739 0
605 -3739 0
-167 -605 3739 0
134 -3740 0
-413 -3740 0
-134 413 3740 0
519 -3741 0
340 -3741 0
-519 -340 3741 0
230 -3742 0
865 -3742 0
-230 -865 3742 0
-88 -3743 0
405 -3743 0
88 -405 3743 0
-68 -3744 0
225 -3744 0
68 -225 3744 0
88 -3745 0
-280 -3745 0
-88 280 3745 0
678 -3746 0
-175 -3746 0
-678 175 3746 0
597 -3747 0
244 -3747 0
-597 -244 3747 0
775 -3748 0
847 -3748 0
-775 -847 3748 0
-130 -3749 0
106 -3749 0
130 -106 3749 0
591 -3750 0
299 -3750 0
-591 -299 3750 0
-794 -3751 0
291 -3751 0
794 -291 3751 0
790 -3752 0
-278 -3752 0
-790 278 3752 0
980 -3753 0
203 -3753 0
-980 -203 3753 0
-330 -3754 0
870 -3754 0
330 -870 3754 0
951 -3755 0
41 -3755 0
-951 -41 3755 0
151 -3756 0
-964 -3756 0
-151 964 3756 0
-656 -3757 0
140 -3757 0
656 -140 3757 0
463 -3758 0
91 -3758 0
-463 -91 3758 0
703 -3759 0
68 -3759 0
-703 -68 3759 0
456 -3760 0
319 -3760 0
-456 -319 3760 0
84 -3761 0
-415 -3761 0
-84 415 3761 0
68 -3762 0
601 -3762 0
-68 -601 3762 0
140 -3763 0
-231 -3763 0
-140 231 3763 0
944 -3764 0
545 -3764 0
-944 -545 3764 0
672 -3765 0
-6 -3765 0
-672 6 3765 0
133 -3766 0
483 -3766 0
-133 -483 3766 0
876 -3767 0
-453 -3767 0
-876 453 3767 0
471 -3768 0
964 -3768 0
-471 -964 3768 0
983 -3769 0
-594 -3769 0
-983 594 3769 0
679 -3770 0
889 -3770 0
-679 -889 3770 0
536 -3771 0
-829 -3771 0
-536 829 3771 0
748 -3772 0
716 -3772 0
-748 -716 3772 0
611 -3773 0
843 -3773 0
-611 -843 3773 0
981 -3774 0
-60 -3774 0
-981 60 3774 0
552 -3775 0
-371 -3775 0
-552 371 3775 0
674 -3776 0
-423 -3776 0
-674 423 3776 0
464 -3777 0
-957 -3777 0
-464 957 3777 0
374 -3778 0
732 -3778 0
-374 -732 3778 0
350 -3779 0
-910 -3779 0
-350 910 3779 0
392 -3780 0
660 -3780 0
-392 -660 3780 0
606 -3781 0
430 -3781 0
-606 -430 3781 0
947 -3782 0
394 -3782 0
-947 -394 3782 0
757 -3783 0
-735 -3783 0
-757 735 3783 0
-337 -3784 0
62 -3784 0
337 -62 3784 0
60 -3785 0
948 -3785 0
-60 -948 3785 0
-300 -3786 0
409 -3786 0
300 -409 3786 0
139 -3787 0
82 -3787 0
-139 -82 3787 0
200 -3788 0
273 -3788 0
-200 -273 3788 0
558 -3789 0
-620 -3789 0
-558 620 3789 0
550 -3790 0
-211 -3790 0
-550 211 3790 0
-202 -3791 0
786 -3791 0
202 -786 3791 0
981 -3792 0
795 -3792 0
-981 -795 3792 0
292 -3793 0
-150 -3793 0
-292 150 3793 0
-484 -3794 0
882 -3794 0
484 -882 3794 0
908 -3795 0
115 -3795 0
-908 -115 3795 0
704 -3796 0
574 -3796 0
-704 -574 3796 0
56 -3797 0
-548 -3797 0
-56 548 3797 0
-872 -3798 0
533 -3798 0
872 -533 3798 0
308 -3799 0
-876 -3799 0
-308 876 3799 0
370 -3800 0
585 -3800 0
-370 -585 3800 0
231 -3801 0
-586 -3801 0
-231 586 3801 0
-291 -3802 0
698 -3802 0
291 -698 3802 0
856 -3803 0
-190 -3803 0
-856 190 3803 0
464 -3804 0
806 -3804 0
-464 -806 3804 0
942 -3805 0
514 -3805 0
-942 -514 3805 0
-867 -3806 0
843 -3806 0
867 -843 3806 0
551 -3807 0
758 -3807 0
-551 -758 3807 0
-674 -3808 0
163 -3808 0
674 -163 3808 0
-240 -3809 0
579 -3809 0
240 -579 3809 0
-588 -3810 0
563 -3810 0
588 -563 3810 0
-593 -3811 0
915 -3811 0
593 -915 3811 0
527 -3812 0
949 -3812 0
-527 -949 3812 0
-272 -3813 0
36 -3813 0
272 -36 3813 0
-233 -3814 0
930 -3814 0
233 -930 3814 0
534 -3815 0
484 -3815 0
-534 -484 3815 0
359 -3816 0
-923 -3816 0
-359 923 3816 0
568 -3817 0
-153 -3817 0
-568 153 3817 0
-833 -3818 0
335 -3818 0
833 -335 3818 0
756 -3819 0
771 -3819 0
-756 -771 3819 0
864 -3820 0
119 -3820 0
-864 -119 3820 0
576 -3821 0
989 -3821 0
-576 -989 3821 0
-949 -3822 0
818 -3822 0
949 -818 3822 0
286 -3823 0
-91 -3823 0
-286 91 3823 0
807 -3824 0
629 -3824 0
-807 -629 3824 0
358 -3825 0
-44 -3825 0
-358 44 3825 0
-275 -3826 0
972 -3826 0
275 -972 3826 0
736 -3827 0
-386 -3827 0
-736 386 3827 0
-547 -3828 0
316 -3828 0
547 -316 3828 0
278 -3829 0
482 -3829 0
-278 -482 3829 0
928 -3830 0
-322 -3830 0
-928 322 3830 0
-964 -3831 0
540 -3831 0
964 -540 3831 0
985 -3832 0
857 -3832 0
-985 -857 3832 0
-376 -3833 0
436 -3833 0
376 -436 3833 0
271 -3834 0
-165 -3834 0
-271 165 3834 0
-851 -3835 0
156 -3835 0
851 -156 3835 0
519 -3836 0
674 -3836 0
-519 -674 3836 0
170 -3837 0
466 -3837 0
-170 -466 3837 0
-930 -3838 0
380 -3838 0
930 -380 3838 0
-704 -3839 0
28 -3839 0
704 -28 3839 0
285 -3840 0
-325 -3840 0
-285 325 3840 0
386 -3841 0
514 -3841 0
-386 -514 3841 0
160 -3842 0
-535 -3842 0
-160 535 3842 0
188 -3843 0
203 -3843 0
-188 -203 3843 0
-865 -3844 0
219 -3844 0
865 -219 3844 0
-749 -3845 0
433 -3845 0
749 -433 3845 0
995 -3846 0
-503 -3846 0
-995 503 3846 0
-634 -3847 0
252 -3847 0
634 -252 3847 0
-144 -3848 0
420 -3848 0
144 -420 3848 0
680 -3849 0
930 -3849 0
-680 -930 3849 0
297 -3850 0
145 -3850 0
-297 -145 3850 0
807 -3851 0
117 -3851 0
-807 -117 3851 0
-716 -3852 0
212 -3852 0
716 -212 3852 0
-721 -3853 0
321 -3853 0
721 -321 3853 0
408 -3854 0
-608 -3854 0
-408 608 3854 0
-50 -3855 0
196 -3855 0
50 -196 3855 0
-88 -3856 0
281 -3856 0
88 -281 3856 0
-652 -3857 0
409 -3857 0
652 -409 3857 0
-876 -3858 0
748 -3858 0
876 -748 3858 0
795 -3859 0
-469 -3859 0
-795 469 3859 0
870 -3860 0
670 -3860 0
-870 -670 3860 0
224 -3861 0
-819 -3861 0
-224 819 3861 0
163 -3862 0
-693 -3862 0
-163 693 3862 0
-344 -3863 0
947 -3863 0
344 -947 3863 0
-801 -3864 0
502 -3864 0
801 -502 3864 0
904 -3865 0
-313 -3865 0
-904 313 3865 0
128 -3866 0
-186 -3866 0
-128 186 3866 0
-586 -3867 0
379 -3867 0
586 -379 3867 0
-501 -3868 0
506 -3868 0
501 -506 3868 0
934 -3869 0
-573 -3869 0
-934 573 3869 0
-411 -3870 0
860 -3870 0
411 -860 3870 0
543 -3871 0
734 -3871 0
-543 -734 3871 0
-208 -3872 0
846 -3872 0
208 -846 3872 0
-386 -3873 0
877 -3873 0
386 -877 3873 0
200 -3874 0
-415 -3874 0
-200 415 3874 0
236 -3875 0
-373 -3875 0
-236 373 3875 0
983 -3876 0
-578 -3876 0
-983 578 3876 0
-250 -3877 0
324 -3877 0
250 -324 3877 0
-162 -3878 0
877 -3878 0
162 -877 3878 0
-714 -3879 0
758 -3879 0
714 -758 3879 0
-316 -3880 0
105 -3880 0
316 -105 3880 0
-132 -3881 0
970 -3881 0
132 -970 3881 0
912 -3882 0
-619 -3882 0
-912 619 3882 0
711 -3883 0
996 -3883 0
-711 -996 3883 0
-392 -3884 0
116 -3884 0
392 -116 3884 0
542 -3885 0
-52 -3885 0
-542 52 3885 0
863 -3886 0
-735 -3886 0
-863 735 3886 0
568 -3887 0
261 -3887 0
-568 -261 3887 0
344 -3888 0
931 -3888 0
-344 -931 3888 0
-504 -3889 0
495 -3889 0
504 -495 3889 0
-728 -3890 0
657 -3890 0
728 -657 3890 0
987 -3891 0
-445 -3891 0
-987 445 3891 0
901 -3892 0
603 -3892 0
-901 -603 3892 0
782 -3893 0
-861 -3893 0
-782 861 3893 0
172 -3894 0
-127 -3894 0
-172 127 3894 0
-57 -3895 0
499 -3895 0
57 -499 3895 0
252 -3896 0
-639 -3896 0
-252 639 3896 0
758 -3897 0
965 -3897 0
-758 -965 3897 0
560 -3898 0
405 -3898 0
-560 -405 3898 0
345 -3899 0
-775 -3899 0
-345 775 3899 0
352 -3900 0
-376 -3900 0
-352 376 3900 0
823 -3901 0
-255 -3901 0
-823 255 3901 0
781 -3902 0
-725 -3902 0
-781 725 3902 0
-763 -3903 0
226 -3903 0
763 -226 3903 0
135 -3904 0
69 -3904 0
-135 -69 3904 0
-120 -3905 0
693 -3905 0
120 -693 3905 0
328 -3906 0
411 -3906 0
-328 -411 3906 0
17 -3907 0
177 -3907 0
-17 -177 3907 0
118 -3908 0
-290 -3908 0
-118 290 3908 0
-162 -3909 0
786 -3909 0
162 -786 3909 0
-553 -3910 0
907 -3910 0
553 -907 3910 0
613 -3911 0
-335 -3911 0
-613 335 3911 0
169 -3912 0
-103 -3912 0
-169 103 3912 0
22 -3913 0
155 -3913 0
-22 -155 3913 0
72 -3914 0
-958 -3914 0
-72 958 3914 0
54 -3915 0
365 -3915 0
-54 -365 3915 0
848 -3916 0
409 -3916 0
-848 -409 3916 0
-467 -3917 0
564 -3917 0
467 -564 3917 0
899 -3918 0
-655 -3918 0
-899 655 3918 0
-452 -3919 0
385 -3919 0
452 -385 3919 0
556 -3920 0
443 -3920 0
-556 -443 3920 0
-120 -3921 0
812 -3921 0
120 -812 3921 0
288 -3922 0
-813 -3922 0
-288 813 3922 0
-172 -3923 0
362 -3923 0
172 -362 3923 0
55 -3924 0
117 -3924 0
-55 -117 3924 0
603 -3925 0
777 -3925 0
-603 -777 3925 0
15 -3926 0
574 -3926 0
-15 -574 3926 0
-826 -3927 0
381 -3927 0
826 -381 3927 0
-744 -3928 0
425 -3928 0
744 -425 3928 0
488 -3929 0
-798 -3929 0
-488 798 3929 0
200 -3930 0
-81 -3930 0
-200 81 3930 0
996 -3931 0
657 -3931 0
-996 -657 3931 0
-963 -3932 0
457 -3932 0
963 -457 3932 0
578 -3933 0
945 -3933 0
-578 -945 3933 0
606 -3934 0
-106 -3934 0
-606 106 3934 0
623 -3935 0
-497 -3935 0
-623 497 3935 0
160 -3936 0
-797 -3936 0
-160 797 3936 0
776 -3937 0
476 -3937 0
-776 -476 3937 0
963 -3938 0
-942 -3938 0
-963 942 3938 0
56 -3939 0
385 -3939 0
-56 -385 3939 0
606 -3940 0
690 -3940 0
-606 -690 3940 0
848 -3941 0
-356 -3941 0
-848 356 3941 0
381 -3942 0
945 -3942 0
-381 -945 3942 0
-227 -3943 0
209 -3943 0
227 -209 3943 0
264 -3944 0
-969 -3944 0
-264 969 3944 0
638 -3945 0
-522 -3945 0
-638 522 3945 0
942 -3946 0
345 -3946 0
-942 -345 3946 0
120 -3947 0
-303 -3947 0
-120 303 3947 0
996 -3948 0
-638 -3948 0
-996 638 3948 0
423 -3949 0
-711 -3949 0
-423 711 3949 0
-768 -3950 0
330 -3950 0
768 -330 3950 0
990 -3951 0
917 -3951 0
-990 -917 3951 0
872 -3952 0
-361 -3952 0
-872 361 3952 0
919 -3953 0
-377 -3953 0
-919 377 3953 0
679 -3954 0
-998 -3954 0
-679 998 3954 0
720 -3955 0
-198 -3955 0
-720 198 3955 0
134 -3956 0
163 -3956 0
-134 -163 3956 0
278 -3957 0
170 -3957 0
-278 -170 3957 0
639 -3958 0
777 -3958 0
-639 -777 3958 0
160 -3959 0
-38 -3959 0
-160 38 3959 0
486 -3960 0
-2 -3960 0
-486 2 3960 0
-48 -3961 0
881 -3961 0
48 -881 3961 0
112 -3962 0
312 -3962 0
-112 -312 3962 0
318 -3963 0
-126 -3963 0
-318 126 3963 0
259 -3964 0
233 -3964 0
-259 -233 3964 0
415 -3965 0
-412 -3965 0
-415 412 3965 0
-601 -3966 0
490 -3966 0
601 -490 3966 0
704 -3967 0
-278 -3967 0
-704 278 3967 0
-554 -3968 0
668 -3968 0
554 -668 3968 0
103 -3969 0
291 -3969 0
-103 -291 3969 0
-874 -3970 0
764 -3970 0
874 -764 3970 0
-976 -3971 0
348 -3971 0
976 -348 3971 0
382 -3972 0
658 -3972 0
-382 -658 3972 0
-685 -3973 0
730 -3973 0
685 -730 3973 0
-936 -3974 0
160 -3974 0
936 -160 3974 0
-944 -3975 0
391 -3975 0
944 -391 3975 0
510 -3976 0
-378 -3976 0
-510 378 3976 0
-673 -3977 0
788 -3977 0
673 -788 3977 0
679 -3978 0
548 -3978 0
-679 -548 3978 0
54 -3979 0
606 -3979 0
-54 -606 3979 0
375 -3980 0
-150 -3980 0
-375 150 3980 0
373 -3981 0
-509 -3981 0
-373 509 3981 0
535 -3982 0
-126 -3982 0
-535 126 3982 0
208 -3983 0
498 -3983 0
-208 -498 3983 0
288 -3984 0
-184 -3984 0
-288 184 3984 0
207 -3985 0
86 -3985 0
-207 -86 3985 0
-457 -3986 0
379 -3986 0
457 -379 3986 0
96 -3987 0
-465 -3987 0
-96 465 3987 0
960 -3988 0
-156 -3988 0
-960 156 3988 0
200 -3989 0
483 -3989 0
-200 -483 3989 0
288 -3990 0
-17 -3990 0
-288 17 3990 0
524 -3991 0
705 -3991 0
-524 -705 3991 0
344 -3992 0
-683 -3992 0
-344 683 3992 0
176 -3993 0
189 -3993 0
-176 -189 3993 0
-522 -3994 0
484 -3994 0
522 -484 3994 0
464 -3995 0
-167 -3995 0
-464 167 3995 0
395 -3996 0
353 -3996 0
-395 -353 3996 0
-884 -3997 0
939 -3997 0
884 -939 3997 0
895 -3998 0
-991 -3998 0
-895 991 3998 0
36 -3999 0
-565 -3999 0
-36 565 3999 0
484 -4000 0
-828 -4000 0
-484 828 4000 0
-248 -4001 0
117 -4001 0
248 -117 4001 0
406 -4002 0
753 -4002 0
-406 -753 4002 0
775 -4003 0
-569 -4003 0
-775 569 4003 0
-91 -4004 0
787 -4004 0
91 -787 4004 0
535 -4005 0
-452 -4005 0
-535 452 4005 0
496 -4006 0
105 -4006 0
-496 -105 4006 0
-560 -4007 0
858 -4007 0
560 -858 4007 0
69 -4008 0
196 -4008 0
-69 -196 4008 0
-917 -4009 0
417 -4009 0
917 -417 4009 0
259 -4010 0
850 -4010 0
-259 -850 4010 0
624 -4011 0
149 -4011 0
-624 -149 4011 0
34 -4012 0
-919 -4012 0
-34 919 4012 0
-89 -4013 0
937 -4013 0
89 -937 4013 0
-801 -4014 0
169 -4014 0
801 -169 4014 0
-48 -4015 0
675 -4015 0
48 -675 4015 0
384 -4016 0
685 -4016 0
-384 -685 4016 0
703 -4017 0
-391 -4017 0
-703 391 4017 0
958 -4018 0
-301 -4018 0
-958 301 4018 0
-457 -4019 0
893 -4019 0
457 -893 4019 0
104 -4020 0
401 -4020 0
-104 -401 4020 0
976 -4021 0
-940 -4021 0
-976 940 4021 0
523 -4022 0
-62 -4022 0
-523 62 4022 0
-259 -4023 0
585 -4023 0
259 -585 4023 0
791 -4024 0
227 -4024 0
-791 -227 4024 0
-744 -4025 0
836 -4025 0
744 -836 4025 0
21 -4026 0
-215 -4026 0
-21 215 4026 0
-414 -4027 0
650 -4027 0
414 -650 4027 0
-904 -4028 0
915 -4028 0
904 -915 4028 0
672 -4029 0
815 -4029 0
-672 -815 4029 0
208 -4030 0
-739 -4030 0
-208 739 4030 0
-674 -4031 0
411 -4031 0
674 -411 4031 0
391 -4032 0
-501 -4032 0
-391 501 4032 0
-797 -4033 0
313 -4033 0
797 -313 4033 0
599 -4034 0
-67 -4034 0
-599 67 4034 0
984 -4035 0
427 -4035 0
-984 -427 4035 0
-528 -4036 0
517 -4036 0
528 -517 4036 0
-839 -4037 0
169 -4037 0
839 -169 4037 0
192 -4038 0
-942 -4038 0
-192 942 4038 0
699 -4039 0
-518 -4039 0
-699 518 4039 0
-713 -4040 0
831 -4040 0
713 -831 4040 0
-512 -4041 0
306 -4041 0
512 -306 4041 0
566 -4042 0
537 -4042 0
-566 -537 4042 0
-492 -4043 0
865 -4043 0
492 -865 4043 0
808 -4044 0
-290 -4044 0
-808 290 4044 0
239 -4045 0
-258 -4045 0
-239 258 4045 0
550 -4046 0
-95 -4046 0
-550 95 4046 0
-51 -4047 0
730 -4047 0
51 -730 4047 0
-900 -4048 0
690 -4048 0
900 -690 4048 0
-125 -4049 0
426 -4049 0
125 -426 4049 0
571 -4050 0
-445 -4050 0
-571 445 4050 0
953 -4051 0
-231 -4051 0
-953 231 4051 0
-685 -4052 0
913 -4052 0
685 -913 4052 0
624 -4053 0
-662 -4053 0
-624 662 4053 0
-208 -4054 0
770 -4054 0
208 -770 4054 0
384 -4055 0
243 -4055 0
-384 -243 4055 0
568 -4056 0
-446 -4056 0
-568 446 4056 0
700 -4057 0
971 -4057 0
-700 -971 4057 0
-904 -4058 0
899 -4058 0
904 -899 4058 0
-336 -4059 0
59 -4059 0
336 -59 4059 0
693 -4060 0
877 -4060 0
-693 -877 4060 0
-624 -4061 0
869 -4061 0
624 -869 4061 0
464 -4062 0
-150 -4062 0
-464 150 4062 0
260 -4063 0
-959 -4063 0
-260 959 4063 0
971 -4064 0
-703 -4064 0
-971 703 4064 0
111 -4065 0
857 -4065 0
-111 -857 4065 0
736 -4066 0
917 -4066 0
-736 -917 4066 0
144 -4067 0
339 -4068 0
99 -4068 0
-339 -99 4068 0
720 -4069 0
913 -4069 0
-720 -913 4069 0
195 -4070 0
-759 -4070 0
-195 759 4070 0
-257 -4071 0
174 -4071 0
257 -174 4071 0
-557 -4072 0
971 -4072 0
557 -971 4072 0
127 -4073 0
-34 -4073 0
-127 34 4073 0
704 -4074 0
665 -4074 0
-704 -665 4074 0
56 -4075 0
121 -4075 0
-56 -121 4075 0
392 -4076 0
965 -4076 0
-392 -965 4076 0
882 -4077 0
73 -4077 0
-882 -73 4077 0
311 -4078 0
-83 -4078 0
-311 83 4078 0
419 -4079 0
-975 -4079 0
-419 975 4079 0
-210 -4080 0
498 -4080 0
210 -498 4080 0
552 -4081 0
-940 -4081 0
-552 940 4081 0
221 -4082 0
-380 -4082 0
-221 380 4082 0
935 -4083 0
-829 -4083 0
-935 829 4083 0
967 -4084 0
-342 -4084 0
-967 342 4084 0
352 -4085 0
455 -4085 0
-352 -455 4085 0
-940 -4086 0
483 -4086 0
940 -483 4086 0
-68 -4087 0
883 -4087 0
68 -883 4087 0
-242 -4088 0
219 -4088 0
242 -219 4088 0
392 -4089 0
421 -4089 0
-392 -421 4089 0
-88 -4090 0
890 -4090 0
88 -890 4090 0
16 -4091 0
765 -4091 0
-16 -765 4091 0
294 -4092 0
409 -4092 0
-294 -409 4092 0
357 -4093 0
194 -4093 0
-357 -194 4093 0
675 -4094 0
-838 -4094 0
-675 838 4094 0
-858 -4095 0
611 -4095 0
858 -611 4095 0
518 -4096 0
50 -4096 0
-518 -50 4096 0
-17 -4097 0
138 -4097 0
17 -138 4097 0
-890 -4098 0
421 -4098 0
890 -421 4098 0
615 -4099 0
-167 -4099 0
-615 167 4099 0
-897 -4100 0
849 -4100 0
897 -849 4100 0
-865 -4101 0
635 -4101 0
865 -635 4101 0
-832 -4102 0
325 -4102 0
832 -325 4102 0
-208 -4103 0
868 -4103 0
208 -868 4103 0
-342 -4104 0
594 -4104 0
342 -594 4104 0
-953 -4105 0
868 -4105 0
953 -868 4105 0
640 -4106 0
960 -4106 0
-640 -960 4106 0
432 -4107 0
-918 -4107 0
-432 918 4107 0
-496 -4108 0
617 -4108 0
496 -617 4108 0
-867 -4109 0
241 -4109 0
867 -241 4109 0
319 -4110 0
-546 -4110 0
-319 546 4110 0
-504 -4111 0
149 -4111 0
504 -149 4111 0
400 -4112 0
783 -4112 0
-400 -783 4112 0
838 -4113 0
900 -4113 0
-838 -900 4113 0
192 -4114 0
-881 -4114 0
-192 881 4114 0
439 -4115 0
-297 -4115 0
-439 297 4115 0
171 -4116 0
122 -4116 0
-171 -122 4116 0
-48 -4117 0
832 -4117 0
48 -832 4117 0
213 -4118 0
-47 -4118 0
-213 47 4118 0
-513 -4119 0
937 -4119 0
513 -937 4119 0
696 -4120 0
817 -4120 0
-696 -817 4120 0
765 -4121 0
979 -4121 0
-765 -979 4121 0
1000 -4122 0
751 -4122 0
-1000 -751 4122 0
-403 -4123 0
970 -4123 0
403 -970 4123 0
460 -4124 0
723 -4124 0
-460 -723 4124 0
442 -4125 0
-727 -4125 0
-442 727 4125 0
909 -4126 0
373 -4126 0
-909 -373 4126 0
-808 -4127 0
964 -4127 0
808 -964 4127 0
-206 -4128 0
545 -4128 0
206 -545 4128 0
900 -4129 0
-446 -4129 0
-900 446 4129 0
-356 -4130 0
91 -4130 0
356 -91 4130 0
-939 -4131 0
275 -4131 0
939 -275 4131 0
936 -4132 0
908 -4132 0
-936 -908 4132 0
-770 -4133 0
466 -4133 0
770 -466 4133 0
999 -4134 0
601 -4134 0
-999 -601 4134 0
100 -4135 0
265 -4135 0
-100 -265 4135 0
886 -4136 0
-732 -4136 0
-886 732 4136 0
688 -4137 0
-66 -4137 0
-688 66 4137 0
942 -4138 0
385 -4138 0
-942 -385 4138 0
744 -4139 0
-883 -4139 0
-744 883 4139 0
615 -4140 0
-174 -4140 0
-615 174 4140 0
-569 -4141 0
518 -4141 0
569 -518 4141 0
800 -4142 0
-940 -4142 0
-800 940 4142 0
622 -4143 0
-559 -4143 0
-622 559 4143 0
632 -4144 0
-611 -4144 0
-632 611 4144 0
423 -4145 0
135 -4145 0
-423 -135 4145 0
400 -4146 0
3 -4146 0
-400 -3 4146 0
12 -4147 0
-541 -4147 0
-12 541 4147 0
160 -4148 0
766 -4148 0
-160 -766 4148 0
451 -4149 0
105 -4149 0
-451 -105 4149 0
390 -4150 0
337 -4150 0
-390 -337 4150 0
109 -4151 0
492 -4151 0
-109 -492 4151 0
290 -4152 0
898 -4152 0
-290 -898 4152 0
86 -4153 0
-103 -4153 0
-86 103 4153 0
152 -4154 0
949 -4154 0
-152 -949 4154 0
997 -4155 0
-364 -4155 0
-997 364 4155 0
-43 -4156 0
821 -4156 0
43 -821 4156 0
-221 -4157 0
610 -4157 0
221 -610 4157 0
119 -4158 0
-189 -4158 0
-119 189 4158 0
-745 -4159 0
351 -4159 0
745 -351 4159 0
902 -4160 0
202 -4160 0
-902 -202 4160 0
62 -4161 0
450 -4161 0
-62 -450 4161 0
-507 -4162 0
233 -4162 0
507 -233 4162 0
-27 -4163 0
716 -4163 0
27 -716 4163 0
-899 -4164 0
772 -4164 0
899 -772 4164 0
-472 -4165 0
992 -4165 0
472 -992 4165 0
905 -4166 0
-999 -4166 0
-905 999 4166 0
888 -4167 0
-756 -4167 0
-888 756 4167 0
748 -4168 0
-734 -4168 0
-748 734 4168 0
-530 -4169 0
17 -4169 0
530 -17 4169 0
-408 -4170 0
437 -4170 0
408 -437 4170 0
46 -4171 0
206 -4171 0
-46 -206 4171 0
499 -4172 0
-725 -4172 0
-499 725 4172 0
-27 -4173 0
692 -4173 0
27 -692 4173 0
-222 -4174 0
946 -4174 0
222 -946 4174 0
-83 -4175 0
333 -4175 0
83 -333 4175 0
-595 -4176 0
338 -4176 0
595 -338 4176 0
348 -4177 0
-94 -4177 0
-348 94 4177 0
248 -4178 0
-386 -4178 0
-248 386 4178 0
614 -4179 0
-419 -4179 0
-614 419 4179 0
-290 -4180 0
433 -4180 0
290 -433 4180 0
175 -4181 0
-556 -4181 0
-175 556 4181 0
-906 -4182 0
234 -4182 0
906 -234 4182 0
413 -4183 0
361 -4183 0
-413 -361 4183 0
-347 -4184 0
33 -4184 0
347 -33 4184 0
-627 -4185 0
130 -4185 0
627 -130 4185 0
31 -4186 0
74 -4186 0
-31 -74 4186 0
-962 -4187 0
273 -4187 0
962 -273 4187 0
-732 -4188 0
371 -4188 0
732 -371 4188 0
-289 -4189 0
542 -4189 0
289 -542 4189 0
188 -4190 0
818 -4190 0
-188 -818 4190 0
69 -4191 0
-230 -4191 0
-69 230 4191 0
428 -4192 0
-358 -4192 0
-428 358 4192 0
88 -4193 0
71 -4193 0
-88 -71 4193 0
173 -4194 0
-190 -4194 0
-173 190 4194 0
136 -4195 0
260 -4195 0
-136 -260 4195 0
-805 -4196 0
466 -4196 0
805 -466 4196 0
671 -4197 0
633 -4197 0
-671 -633 4197 0
-538 -4198 0
939 -4198 0
538 -939 4198 0
38 -4199 0
76 -4199 0
-38 -76 4199 0
408 -4200 0
30 -4200 0
-408 -30 4200 0
183 -4201 0
405 -4201 0
-183 -405 4201 0
239 -4202 0
-625 -4202 0
-239 625 4202 0
-432 -4203 0
451 -4203 0
432 -451 4203 0
-504 -4204 0
359 -4204 0
504 -359 4204 0
508 -4205 0
145 -4205 0
-508 -145 4205 0
115 -4206 0
18 -4206 0
-115 -18 4206 0
643 -4207 0
186 -4207 0
-643 -186 4207 0
512 -4208 0
-953 -4208 0
-512 953 4208 0
285 -4209 0
802 -4209 0
-285 -802 4209 0
212 -4210 0
203 -4210 0
-212 -203 4210 0
-473 -4211 0
322 -4211 0
473 -322 4211 0
-346 -4212 0
554 -4212 0
346 -554 4212 0
-609 -4213 0
246 -4213 0
609 -246 4213 0
482 -4214 0
-799 -4214 0
-482 799 4214 0
680 -4215 0
-101 -4215 0
-680 101 4215 0
904 -4216 0
137 -4216 0
-904 -137 4216 0
32 -4217 0
665 -4217 0
-32 -665 4217 0
104 -4218 0
639 -4218 0
-104 -639 4218 0
-200 -4219 0
433 -4219 0
200 -433 4219 0
-242 -4220 0
883 -4220 0
242 -883 4220 0
604 -4221 0
-294 -4221 0
-604 294 4221 0
536 -4222 0
-901 -4222 0
-536 901 4222 0
-779 -4223 0
820 -4223 0
779 -820 4223 0
-309 -4224 0
154 -4224 0
309 -154 4224 0
531 -4225 0
-502 -4225 0
-531 502 4225 0
783 -4226 0
346 -4226 0
-783 -346 4226 0
-734 -4227 0
42 -4227 0
734 -42 4227 0
142 -4228 0
-923 -4228 0
-142 923 4228 0
486 -4229 0
155 -4229 0
-486 -155 4229 0
725 -4230 0
115 -4230 0
-725 -115 4230 0
579 -4231 0
-535 -4231 0
-579 535 4231 0
244 -4232 0
-541 -4232 0
-244 541 4232 0
-594 -4233 0
628 -4233 0
594 -628 4233 0
646 -4234 0
-908 -4234 0
-646 908 4234 0
939 -4235 0
985 -4235 0
-939 -985 4235 0
216 -4236 0
620 -4236 0
-216 -620 4236 0
979 -4237 0
506 -4237 0
-979 -506 4237 0
511 -4238 0
367 -4238 0
-511 -367 4238 0
-291 -4239 0
820 -4239 0
291 -820 4239 0
-634 -4240 0
187 -4240 0
634 -187 4240 0
966 -4241 0
-547 -4241 0
-966 547 4241 0
-498 -4242 0
65 -4242 0
498 -65 4242 0
893 -4243 0
-527 -4243 0
-893 527 4243 0
608 -4244 0
825 -4244 0
-608 -825 4244 0
285 -4245 0
-340 -4245 0
-285 340 4245 0
554 -4246 0
386 -4246 0
-554 -386 4246 0
909 -4247 0
-36 -4247 0
-909 36 4247 0
5 -4248 0
379 -4248 0
-5 -379 4248 0
583 -4249 0
292 -4249 0
-583 -292 4249 0
-117 -4250 0
258 -4250 0
117 -258 4250 0
-933 -4251 0
178 -4251 0
933 -178 4251 0
-683 -4252 0
92 -4252 0
683 -92 4252 0
-282 -4253 0
782 -4253 0
282 -782 4253 0
517 -4254 0
978 -4254 0
-517 -978 4254 0
206 -4255 0
-852 -4255 0
-206 852 4255 0
-59 -4256 0
225 -4256 0
59 -225 4256 0
512 -4257 0
-9 -4257 0
-512 9 4257 0
566 -4258 0
-446 -4258 0
-566 446 4258 0
174 -4259 0
236 -4259 0
-174 -236 4259 0
29 -4260 0
193 -4260 0
-29 -193 4260 0
-724 -4261 0
188 -4261 0
724 -188 4261 0
965 -4262 0
-567 -4262 0
-965 567 4262 0
225 -4263 0
-823 -4263 0
-225 823 4263 0
-881 -4264 0
443 -4264 0
881 -443 4264 0
-88 -4265 0
965 -4265 0
88 -965 4265 0
-544 -4266 0
560 -4266 0
544 -560 4266 0
602 -4267 0
122 -4267 0
-602 -122 4267 0
899 -4268 0
409 -4268 0
-899 -409 4268 0
-253 -4269 0
331 -4269 0
253 -331 4269 0
399 -4270 0
609 -4270 0
-399 -609 4270 0
942 -4271 0
52 -4271 0
-942 -52 4271 0
718 -4272 0
165 -4272 0
-718 -165 4272 0
-426 -4273 0
122 -4273 0
426 -122 4273 0
-762 -4274 0
267 -4274 0
762 -267 4274 0
662 -4275 0
-135 -4275 0
-662 135 4275 0
901 -4276 0
-172 -4276 0
-901 172 4276 0
324 -4277 0
-646 -4277 0
-324 646 4277 0
302 -4278 0
172 -4278 0
-302 -172 4278 0
493 -4279 0
418 -4279 0
-493 -418 4279 0
151 -4280 0
-277 -4280 0
-151 277 4280 0
126 -4281 0
212 -4281 0
-126 -212 4281 0
422 -4282 0
-879 -4282 0
-422 879 4282 0
376 -4283 0
-495 -4283 0
-376 495 4283 0
999 -4284 0
726 -4284 0
-999 -726 4284 0
921 -4285 0
49 -4285 0
-921 -49 4285 0
-81 -4286 0
746 -4286 0
81 -746 4286 0
333 -4287 0
-52 -4287 0
-333 52 4287 0
896 -4288 0
-39 -4288 0
-896 39 4288 0
-625 -4289 0
462 -4289 0
625 -462 4289 0
902 -4290 0
-316 -4290 0
-902 316 4290 0
-627 -4291 0
691 -4291 0
627 -691 4291 0
-708 -4292 0
475 -4292 0
708 -475 4292 0
400 -4293 0
-369 -4293 0
-400 369 4293 0
832 -4294 0
449 -4294 0
-832 -449 4294 0
-348 -4295 0
514 -4295 0
348 -514 4295 0
-880 -4296 0
88 -4296 0
880 -88 4296 0
789 -4297 0
-855 -4297 0
-789 855 4297 0
760 -4298 0
493 -4298 0
-760 -493 4298 0
131 -4299 0
-615 -4299 0
-131 615 4299 0
96 -4300 0
765 -4300 0
-96 -765 4300 0
765 -4301 0
523 -4301 0
-765 -523 4301 0
-132 -4302 0
913 -4302 0
132 -913 4302 0
-360 -4303 0
367 -4303 0
360 -367 4303 0
255 -4304 0
673 -4304 0
-255 -673 4304 0
229 -4305 0
329 -4305 0
-229 -329 4305 0
39 -4306 0
-733 -4306 0
-39 733 4306 0
-813 -4307 0
698 -4307 0
813 -698 4307 0
816 -4308 0
532 -4308 0
-816 -532 4308 0
639 -4309 0
-567 -4309 0
-639 567 4309 0
-222 -4310 0
577 -4310 0
222 -577 4310 0
-616 -4311 0
620 -4311 0
616 -620 4311 0
998 -4312 0
-951 -4312 0
-998 951 4312 0
870 -4313 0
-564 -4313 0
-870 564 4313 0
439 -4314 0
92 -4314 0
-439 -92 4314 0
254 -4315 0
-397 -4315 0
-254 397 4315 0
643 -4316 0
474 -4316 0
-643 -474 4316 0
-792 -4317 0
858 -4317 0
792 -858 4317 0
856 -4318 0
713 -4318 0
-856 -713 4318 0
262 -4319 0
-71 -4319 0
-262 71 4319 0
-114 -4320 0
675 -4320 0
114 -675 4320 0
-961 -4321 0
725 -4321 0
961 -725 4321 0
596 -4322 0
-748 -4322 0
-596 748 4322 0
798 -4323 0
-4 -4323 0
-798 4 4323 0
335 -4324 0
-22 -4324 0
-335 22 4324 0
714 -4325 0
18 -4325 0
-714 -18 4325 0
983 -4326 0
-572 -4326 0
-983 572 4326 0
861 -4327 0
-468 -4327 0
-861 468 4327 0
-169 -4328 0
948 -4328 0
169 -948 4328 0
-776 -4329 0
97 -4329 0
776 -97 4329 0
680 -4330 0
-758 -4330 0
-680 758 4330 0
264 -4331 0
-538 -4331 0
-264 538 4331 0
-288 -4332 0
75 -4332 0
288 -75 4332 0
972 -4333 0
-375 -4333 0
-972 375 4333 0
504 -4334 0
-886 -4334 0
-504 886 4334 0
-583 -4335 0
905 -4335 0
583 -905 4335 0
-76 -4336 0
411 -4336 0
76 -411 4336 0
399 -4337 0
515 -4337 0
-399 -515 4337 0
-435 -4338 0
129 -4338 0
435 -129 4338 0
-96 -4339 0
9 -4339 0
96 -9 4339 0
709 -4340 0
178 -4340 0
-709 -178 4340 0
614 -4341 0
477 -4341 0
-614 -477 4341 0
-854 -4342 0
298 -4342 0
854 -298 4342 0
456 -4343 0
948 -4343 0
-456 -948 4343 0
-722 -4344 0
731 -4344 0
722 -731 4344 0
928 -4345 0
-877 -4345 0
-928 877 4345 0
880 -4346 0
-827 -4346 0
-880 827 4346 0
-786 -4347 0
434 -4347 0
786 -434 4347 0
127 -4348 0
900 -4348 0
-127 -900 4348 0
632 -4349 0
271 -4349 0
-632 -271 4349 0
84 -4350 0
340 -4350 0
-84 -340 4350 0
372 -4351 0
-949 -4351 0
-372 949 4351 0
501 -4352 0
674 -4352 0
-501 -674 4352 0
463 -4353 0
828 -4353 0
-463 -828 4353 0
718 -4354 0
-726 -4354 0
-718 726 4354 0
804 -4355 0
-477 -4355 0
-804 477 4355 0
-688 -4356 0
946 -4356 0
688 -946 4356 0
997 -4357 0
-527 -4357 0
-997 527 4357 0
-554 -4358 0
11 -4358 0
554 -11 4358 0
589 -4359 0
571 -4359 0
-589 -571 4359 0
-186 -4360 0
662 -4360 0
186 -662 4360 0
582 -4361 0
-460 -4361 0
-582 460 4361 0
427 -4362 0
-886 -4362 0
-427 886 4362 0
566 -4363 0
949 -4363 0
-566 -949 4363 0
-570 -4364 0
115 -4364 0
570 -115 4364 0
-569 -4365 0
433 -4365 0
569 -433 4365 0
342 -4366 0
-990 -4366 0
-342 990 4366 0
274 -4367 0
457 -4367 0
-274 -457 4367 0
-330 -4368 0
348 -4368 0
330 -348 4368 0
-555 -4369 0
764 -4369 0
555 -764 4369 0
-253 -4370 0
729 -4370 0
253 -729 4370 0
-432 -4371 0
941 -4371 0
432 -941 4371 0
871 -4372 0
228 -4372 0
-871 -228 4372 0
839 -4373 0
-673 -4373 0
-839 673 4373 0
928 -4374 0
-114 -4374 0
-928 114 4374 0
-579 -4375 0
597 -4375 0
579 -597 4375 0
-275 -4376 0
373 -4376 0
275 -373 4376 0
358 -4377 0
461 -4377 0
-358 -461 4377 0
-192 -4378 0
859 -4378 0
192 -859 4378 0
252 -4379 0
-31 -4379 0
-252 31 4379 0
-921 -4380 0
386 -4380 0
921 -386 4380 0
16 -4381 0
12 -4381 0
-16 -12 4381 0
925 -4382 0
10 -4382 0
-925 -10 4382 0
-145 -4383 0
319 -4383 0
145 -319 4383 0
87 -4384 0
284 -4384 0
-87 -284 4384 0
-536 -4385 0
606 -4385 0
536 -606 4385 0
286 -4386 0
-3 -4386 0
-286 3 4386 0
597 -4387 0
-356 -4387 0
-597 356 4387 0
832 -4388 0
-717 -4388 0
-832 717 4388 0
96 -4389 0
-496 -4389 0
-96 496 4389 0
551 -4390 0
789 -4390 0
-551 -789 4390 0
492 -4391 0
243 -4391 0
-492 -243 4391 0
-821 -4392 0
273 -4392 0
821 -273 4392 0
598 -4393 0
577 -4393 0
-598 -577 4393 0
206 -4394 0
729 -4394 0
-206 -729 4394 0
-752 -4395 0
579 -4395 0
752 -579 4395 0
396 -4396 0
186 -4396 0
-396 -186 4396 0
315 -4397 0
-983 -4397 0
-315 983 4397 0
-493 -4398 0
338 -4398 0
493 -338 4398 0
280 -4399 0
983 -4399 0
-280 -983 4399 0
-365 -4400 0
721 -4400 0
365 -721 4400 0
-248 -4401 0
690 -4401 0
248 -690 4401 0
-714 -4402 0
28 -4402 0
714 -28 4402 0
-489 -4403 0
842 -4403 0
489 -842 4403 0
207 -4404 0
-311 -4404 0
-207 311 4404 0
-89 -4405 0
986 -4405 0
89 -986 4405 0
-856 -4406 0
937 -4406 0
856 -937 4406 0
-82 -4407 0
301 -4407 0
82 -301 4407 0
-688 -4408 0
850 -4408 0
688 -850 4408 0
-537 -4409 0
458 -4409 0
537 -458 4409 0
-233 -4410 0
740 -4410 0
233 -740 4410 0
512 -4411 0
889 -4411 0
-512 -889 4411 0
163 -4412 0
417 -4412 0
-163 -417 4412 0
413 -4413 0
612 -4413 0
-413 -612 4413 0
-676 -4414 0
915 -4414 0
676 -915 4414 0
988 -4415 0
611 -4415 0
-988 -611 4415 0
570 -4416 0
-303 -4416 0
-570 303 4416 0
750 -4417 0
210 -4417 0
-750 -210 4417 0
124 -4418 0
-87 -4418 0
-124 87 4418 0
16 -4419 0
263 -4419 0
-16 -263 4419 0
-64 -4420 0
40 -4420 0
64 -40 4420 0
-426 -4421 0
214 -4421 0
426 -214 4421 0
-688 -4422 0
596 -4422 0
688 -596 4422 0
-619 -4423 0
109 -4423 0
619 -109 4423 0
84 -4424 0
100 -4424 0
-84 -100 4424 0
968 -4425 0
982 -4425 0
-968 -982 4425 0
772 -4426 0
-325 -4426 0
-772 325 4426 0
-528 -4427 0
405 -4427 0
528 -405 4427 0
711 -4428 0
443 -4428 0
-711 -443 4428 0
728 -4429 0
988 -4429 0
-728 -988 4429 0
-672 -4430 0
71 -4430 0
672 -71 4430 0
528 -4431 0
-75 -4431 0
-528 75 4431 0
469 -4432 0
21 -4432 0
-469 -21 4432 0
918 -4433 0
-76 -4433 0
-918 76 4433 0
648 -4434 0
-614 -4434 0
-648 614 4434 0
-69 -4435 0
562 -4435 0
69 -562 4435 0
176 -4436 0
970 -4436 0
-176 -970 4436 0
-876 -4437 0
403 -4437 0
876 -403 4437 0
-483 -4438 0
370 -4438 0
483 -370 4438 0
324 -4439 0
393 -4439 0
-324 -393 4439 0
272 -4440 0
418 -4440 0
-272 -418 4440 0
792 -4441 0
-697 -4441 0
-792 697 4441 0
-410 -4442 0
358 -4442 0
410 -358 4442 0
131 -4443 0
-911 -4443 0
-131 911 4443 0
-230 -4444 0
609 -4444 0
230 -609 4444 0
-82 -4445 0
611 -4445 0
82 -611 4445 0
943 -4446 0
-895 -4446 0
-943 895 4446 0
18 -4447 0
281 -4447 0
-18 -281 4447 0
174 -4448 0
-973 -4448 0
-174 973 4448 0
-276 -4449 0
211 -4449 0
276 -211 4449 0
-755 -4450 0
954 -4450 0
755 -954 4450 0
463 -4451 0
934 -4451 0
-463 -934 4451 0
79 -4452 0
-391 -4452 0
-79 391 4452 0
720 -4453 0
-121 -4453 0
-720 121 4453 0
167 -4454 0
-885 -4454 0
-167 885 4454 0
520 -4455 0
-883 -4455 0
-520 883 4455 0
-33 -4456 0
471 -4456 0
33 -471 4456 0
930 -4457 0
-447 -4457 0
-930 447 4457 0
45 -4458 0
-335 -4458 0
-45 335 4458 0
191 -4459 0
-14 -4459 0
-191 14 4459 0
218 -4460 0
97 -4460 0
-218 -97 4460 0
-40 -4461 0
479 -4461 0
40 -479 4461 0
77 -4462 0
-407 -4462 0
-77 407 4462 0
-562 -4463 0
829 -4463 0
562 -829 4463 0
-240 -4464 0
313 -4464 0
240 -313 4464 0
-127 -4465 0
17 -4465 0
127 -17 4465 0
518 -4466 0
-590 -4466 0
-518 590 4466 0
-884 -4467 0
594 -4467 0
884 -594 4467 0
336 -4468 0
-160 -4468 0
-336 160 4468 0
646 -4469 0
-278 -4469 0
-646 278 4469 0
800 -4470 0
-775 -4470 0
-800 775 4470 0
29 -4471 0
-301 -4471 0
-29 301 4471 0
-443 -4472 0
746 -4472 0
443 -746 4472 0
312 -4473 0
546 -4473 0
-312 -546 4473 0
-832 -4474 0
393 -4474 0
832 -393 4474 0
-757 -4475 0
90 -4475 0
757 -90 4475 0
776 -4476 0
-356 -4476 0
-776 356 4476 0
640 -4477 0
749 -4477 0
-640 -749 4477 0
828 -4478 0
979 -4478 0
-828 -979 4478 0
-120 -4479 0
87 -4479 0
120 -87 4479 0
415 -4480 0
802 -4480 0
-415 -802 4480 0
903 -4481 0
-153 -4481 0
-903 153 4481 0
560 -4482 0
26 -4482 0
-560 -26 4482 0
964 -4483 0
-701 -4483 0
-964 701 4483 0
-652 -4484 0
532 -4484 0
652 -532 4484 0
197 -4485 0
-291 -4485 0
-197 291 4485 0
590 -4486 0
-462 -4486 0
-590 462 4486 0
854 -4487 0
-709 -4487 0
-854 709 4487 0
-277 -4488 0
73 -4488 0
277 -73 4488 0
304 -4489 0
338 -4489 0
-304 -338 4489 0
-441 -4490 0
345 -4490 0
441 -345 4490 0
-473 -4491 0
339 -4491 0
473 -339 4491 0
-113 -4492 0
435 -4492 0
113 -435 4492 0
636 -4493 0
-30 -4493 0
-636 30 4493 0
488 -4494 0
-211 -4494 0
-488 211 4494 0
696 -4495 0
-317 -4495 0
-696 317 4495 0
910 -4496 0
-286 -4496 0
-910 286 4496 0
951 -4497 0
-771 -4497 0
-951 771 4497 0
55 -4498 0
988 -4498 0
-55 -988 4498 0
822 -4499 0
966 -4499 0
-822 -966 4499 0
379 -4500 0
-870 -4500 0
-379 870 4500 0
-170 -4501 0
203 -4501 0
170 -203 4501 0
604 -4502 0
-430 -4502 0
-604 430 4502 0
162 -4503 0
817 -4503 0
-162 -817 4503 0
804 -4504 0
-486 -4504 0
-804 486 4504 0
222 -4505 0
-662 -4505 0
-222 662 4505 0
804 -4506 0
658 -4506 0
-804 -658 4506 0
-874 -4507 0
990 -4507 0
874 -990 4507 0
616 -4508 0
311 -4508 0
-616 -311 4508 0
263 -4509 0
-410 -4509 0
-263 410 4509 0
-861 -4510 0
281 -4510 0
861 -281 4510 0
-405 -4511 0
586 -4511 0
405 -586 4511 0
-480 -4512 0
969 -4512 0
480 -969 4512 0
943 -4513 0
-917 -4513 0
-943 917 4513 0
518 -4514 0
699 -4514 0
-518 -699 4514 0
976 -4515 0
-238 -4515 0
-976 238 4515 0
806 -4516 0
-60 -4516 0
-806 60 4516 0
-248 -4517 0
615 -4517 0
248 -615 4517 0
-461 -4518 0
385 -4518 0
461 -385 4518 0
279 -4519 0
-698 -4519 0
-279 698 4519 0
383 -4520 0
-996 -4520 0
-383 996 4520 0
789 -4521 0
754 -4521 0
-789 -754 4521 0
476 -4522 0
-902 -4522 0
-476 902 4522 0
-461 -4523 0
882 -4523 0
461 -882 4523 0
-19 -4524 0
993 -4524 0
19 -993 4524 0
-810 -4525 0
715 -4525 0
810 -715 4525 0
-844 -4526 0
34 -4526 0
844 -34 4526 0
611 -4527 0
9 -4527 0
-611 -9 4527 0
-532 -4528 0
729 -4528 0
532 -729 4528 0
634 -4529 0
-926 -4529 0
-634 926 4529 0
-708 -4530 0
851 -4530 0
708 -851 4530 0
388 -4531 0
987 -4531 0
-388 -987 4531 0
292 -4532 0
-372 -4532 0
-292 372 4532 0
461 -4533 0
-212 -4533 0
-461 212 4533 0
312 -4534 0
546 -4534 0
-312 -546 4534 0
612 -4535 0
707 -4535 0
-612 -707 4535 0
-584 -4536 0
633 -4536 0
584 -633 4536 0
519 -4537 0
-215 -4537 0
-519 215 4537 0
984 -4538 0
105 -4538 0
-984 -105 4538 0
787 -4539 0
323 -4539 0
-787 -323 4539 0
480 -4540 0
-481 -4540 0
-480 481 4540 0
-404 -4541 0
955 -4541 0
404 -955 4541 0
374 -4542 0
-613 -4542 0
-374 613 4542 0
992 -4543 0
-231 -4543 0
-992 231 4543 0
-612 -4544 0
393 -4544 0
612 -393 4544 0
127 -4545 0
613 -4545 0
-127 -613 4545 0
548 -4546 0
-764 -4546 0
-548 764 4546 0
997 -4547 0
-316 -4547 0
-997 316 4547 0
-856 -4548 0
87 -4548 0
856 -87 4548 0
384 -4549 0
978 -4549 0
-384 -978 4549 0
-888 -4550 0
599 -4550 0
888 -599 4550 0
272 -4551 0
-562 -4551 0
-272 562 4551 0
913 -4552 0
337 -4552 0
-913 -337 4552 0
-953 -4553 0
258 -4553 0
953 -258 4553 0
384 -4554 0
-543 -4554 0
-384 543 4554 0
506 -4555 0
473 -4555 0
-506 -473 4555 0
-602 -4556 0
404 -4556 0
602 -404 4556 0
-840 -4557 0
506 -4557 0
840 -506 4557 0
23 -4558 0
-835 -4558 0
-23 835 4558 0
998 -4559 0
-219 -4559 0
-998 219 4559 0
972 -4560 0
330 -4560 0
-972 -330 4560 0
743 -4561 0
25 -4561 0
-743 -25 4561 0
460 -4562 0
73 -4562 0
-460 -73 4562 0
463 -4563 0
-549 -4563 0
-463 549 4563 0
656 -4564 0
-383 -4564 0
-656 383 4564 0
-65 -4565 0
699 -4565 0
65 -699 4565 0
-8 -4566 0
709 -4566 0
8 -709 4566 0
-418 -4567 0
436 -4567 0
418 -436 4567 0
-960 -4568 0
292 -4568 0
960 -292 4568 0
-641 -4569 0
628 -4569 0
641 -628 4569 0
124 -4570 0
553 -4570 0
-124 -553 4570 0
35 -4571 0
-631 -4571 0
-35 631 4571 0
860 -4572 0
1 -4572 0
-860 -1 4572 0
-586 -4573 0
444 -4573 0
586 -444 4573 0
989 -4574 0
-981 -4574 0
-989 981 4574 0
141 -4575 0
657 -4575 0
-141 -657 4575 0
-152 -4576 0
123 -4576 0
152 -123 4576 0
-922 -4577 0
254 -4577 0
922 -254 4577 0
-527 -4578 0
681 -4578 0
527 -681 4578 0
-27 -4579 0
953 -4579 0
27 -953 4579 0
860 -4580 0
130 -4580 0
-860 -130 4580 0
-416 -4581 0
203 -4581 0
416 -203 4581 0
262 -4582 0
-997 -4582 0
-262 997 4582 0
-937 -4583 0
633 -4583 0
937 -633 4583 0
610 -4584 0
-294 -4584 0
-610 294 4584 0
654 -4585 0
44 -4585 0
-654 -44 4585 0
952 -4586 0
-93 -4586 0
-952 93 4586 0
398 -4587 0
942 -4587 0
-398 -942 4587 0
205 -4588 0
3 -4588 0
-205 -3 4588 0
361 -4589 0
897 -4589 0
-361 -897 4589 0
639 -4590 0
751 -4590 0
-639 -751 4590 0
-193 -4591 0
14 -4591 0
193 -14 4591 0
-835 -4592 0
763 -4592 0
835 -763 4592 0
434 -4593 0
594 -4593 0
-434 -594 4593 0
392 -4594 0
995 -4594 0
-392 -995 4594 0
270 -4595 0
1 -4595 0
-270 -1 4595 0
-72 -4596 0
407 -4596 0
72 -407 4596 0
-299 -4597 0
339 -4597 0
299 -339 4597 0
727 -4598 0
90 -4598 0
-727 -90 4598 0
-100 -4599 0
812 -4599 0
100 -812 4599 0
-249 -4600 0
339 -4600 0
249 -339 4600 0
-313 -4601 0
652 -4601 0
313 -652 4601 0
961 -4602 0
9 -4602 0
-961 -9 4602 0
70 -4603 0
454 -4603 0
-70 -454 4603 0
-188 -4604 0
266 -4604 0
188 -266 4604 0
236 -4605 0
218 -4605 0
-236 -218 4605 0
298 -4606 0
-502 -4606 0
-298 502 4606 0
19 -4607 0
18 -4607 0
-19 -18 4607 0
-33 -4608 0
700 -4608 0
33 -700 4608 0
-802 -4609 0
771 -4609 0
802 -771 4609 0
-197 -4610 0
642 -4610 0
197 -642 4610 0
916 -4611 0
-175 -4611 0
-916 175 4611 0
-321 -4612 0
266 -4612 0
321 -266 4612 0
685 -4613 0
333 -4613 0
-685 -333 4613 0
-722 -4614 0
428 -4614 0
722 -428 4614 0
939 -4615 0
-189 -4615 0
-939 189 4615 0
688 -4616 0
-715 -4616 0
-688 715 4616 0
-536 -4617 0
702 -4617 0
536 -702 4617 0
525 -4618 0
-140 -4618 0
-525 140 4618 0
63 -4619 0
701 -4619 0
-63 -701 4619 0
766 -4620 0
-15 -4620 0
-766 15 4620 0
-346 -4621 0
802 -4621 0
346 -802 4621 0
347 -4622 0
-118 -4622 0
-347 118 4622 0
604 -4623 0
-469 -4623 0
-604 469 4623 0
-996 -4624 0
465 -4624 0
996 -465 4624 0
620 -4625 0
-757 -4625 0
-620 757 4625 0
-504 -4626 0
71 -4626 0
504 -71 4626 0
-337 -4627 0
58 -4627 0
337 -58 4627 0
-492 -4628 0
546 -4628 0
492 -546 4628 0
494 -4629 0
925 -4629 0
-494 -925 4629 0
-763 -4630 0
409 -4630 0
763 -409 4630 0
-152 -4631 0
206 -4631 0
152 -206 4631 0
855 -4632 0
342 -4632 0
-855 -342 4632 0
217 -4633 0
-775 -4633 0
-217 775 4633 0
695 -4634 0
-35 -4634 0
-695 35 4634 0
-811 -4635 0
410 -4635 0
811 -410 4635 0
941 -4636 0
-150 -4636 0
-941 150 4636 0
-288 -4637 0
701 -4637 0
288 -701 4637 0
-145 -4638 0
708 -4638 0
145 -708 4638 0
294 -4639 0
-668 -4639 0
-294 668 4639 0
349 -4640 0
-358 -4640 0
-349 358 4640 0
152 -4641 0
701 -4641 0
-152 -701 4641 0
510 -4642 0
-406 -4642 0
-510 406 4642 0
-468 -4643 0
618 -4643 0
468 -618 4643 0
765 -4644 0
148 -4644 0
-765 -148 4644 0
168 -4645 0
236 -4645 0
-168 -236 4645 0
685 -4646 0
-150 -4646 0
-685 150 4646 0
863 -4647 0
-54 -4647 0
-863 54 4647 0
30 -4648 0
-829 -4648 0
-30 829 4648 0
991 -4649 0
442 -4649 0
-991 -442 4649 0
808 -4650 0
173 -4650 0
-808 -173 4650 0
-597 -4651 0
482 -4651 0
597 -482 4651 0
435 -4652 0
-799 -4652 0
-435 799 4652 0
7 -4653 0
-557 -4653 0
-7 557 4653 0
109 -4654 0
467 -4654 0
-109 -467 4654 0
672 -4655 0
-400 -4655 0
-672 400 4655 0
331 -4656 0
897 -4656 0
-331 -897 4656 0
855 -4657 0
-413 -4657 0
-855 413 4657 0
-676 -4658 0
220 -4658 0
676 -220 4658 0
667 -4659 0
161 -4659 0
-667 -161 4659 0
-312 -4660 0
877 -4660 0
312 -877 4660 0
576 -4661 0
806 -4661 0
-576 -806 4661 0
-46 -4662 0
433 -4662 0
46 -433 4662 0
-201 -4663 0
180 -4663 0
201 -180 4663 0
476 -4664 0
403 -4664 0
-476 -403 4664 0
903 -4665 0
-167 -4665 0
-903 167 4665 0
791 -4666 0
-394 -4666 0
-791 394 4666 0
-865 -4667 0
958 -4667 0
865 -958 4667 0
-961 -4668 0
567 -4668 0
961 -567 4668 0
483 -4669 0
-238 -4669 0
-483 238 4669 0
588 -4670 0
-772 -4670 0
-588 772 4670 0
203 -4671 0
433 -4671 0
-203 -433 4671 0
-424 -4672 0
370 -4672 0
424 -370 4672 0
-190 -4673 0
945 -4673 0
190 -945 4673 0
176 -4674 0
-667 -4674 0
-176 667 4674 0
734 -4675 0
467 -4675 0
-734 -467 4675 0
-512 -4676 0
161 -4676 0
512 -161 4676 0
-234 -4677 0
884 -4677 0
234 -884 4677 0
62 -4678 0
-132 -4678 0
-62 132 4678 0
-264 -4679 0
903 -4679 0
264 -903 4679 0
-866 -4680 0
321 -4680 0
866 -321 4680 0
147 -4681 0
-254 -4681 0
-147 254 4681 0
927 -4682 0
206 -4682 0
-927 -206 4682 0
-24 -4683 0
391 -4683 0
24 -391 4683 0
350 -4684 0
-522 -4684 0
-350 522 4684 0
607 -4685 0
-949 -4685 0
-607 949 4685 0
101 -4686 0
-532 -4686 0
-101 532 4686 0
-613 -4687 0
507 -4687 0
613 -507 4687 0
38 -4688 0
-813 -4688 0
-38 813 4688 0
-984 -4689 0
249 -4689 0
984 -249 4689 0
104 -4690 0
-866 -4690 0
-104 866 4690 0
278 -4691 0
-546 -4691 0
-278 546 4691 0
962 -4692 0
-95 -4692 0
-962 95 4692 0
559 -4693 0
187 -4693 0
-559 -187 4693 0
974 -4694 0
412 -4694 0
-974 -412 4694 0
16 -4695 0
-97 -4695 0
-16 97 4695 0
-137 -4696 0
339 -4696 0
137 -339 4696 0
-93 -4697 0
697 -4697 0
93 -697 4697 0
294 -4698 0
852 -4698 0
-294 -852 4698 0
910 -4699 0
906 -4699 0
-910 -906 4699 0
808 -4700 0
-83 -4700 0
-808 83 4700 0
7 -4701 0
-733 -4701 0
-7 733 4701 0
-664 -4702 0
753 -4702 0
664 -753 4702 0
79 -4703 0
-859 -4703 0
-79 859 4703 0
-188 -4704 0
787 -4704 0
188 -787 4704 0
782 -4705 0
-867 -4705 0
-782 867 4705 0
567 -4706 0
-994 -4706 0
-567 994 4706 0
752 -4707 0
-65 -4707 0
-752 65 4707 0
-506 -4708 0
706 -4708 0
506 -706 4708 0
309 -4709 0
-965 -4709 0
-309 965 4709 0
-129 -4710 0
258 -4710 0
129 -258 4710 0
906 -4711 0
-318 -4711 0
-906 318 4711 0
-752 -4712 0
696 -4712 0
752 -696 4712 0
-746 -4713 0
522 -4713 0
746 -522 4713 0
616 -4714 0
-384 -4714 0
-616 384 4714 0
-245 -4715 0
633 -4715 0
245 -633 4715 0
977 -4716 0
649 -4716 0
-977 -649 4716 0
434 -4717 0
633 -4717 0
-434 -633 4717 0
234 -4718 0
-79 -4718 0
-234 79 4718 0
-483 -4719 0
436 -4719 0
483 -436 4719 0
563 -4720 0
785 -4720 0
-563 -785 4720 0
-697 -4721 0
100 -4721 0
697 -100 4721 0
-120 -4722 0
493 -4722 0
120 -493 4722 0
-339 -4723 0
475 -4723 0
339 -475 4723 0
62 -4724 0
-491 -4724 0
-62 491 4724 0
76 -4725 0
74 -4725 0
-76 -74 4725 0
292 -4726 0
618 -4726 0
-292 -618 4726 0
979 -4727 0
-367 -4727 0
-979 367 4727 0
408 -4728 0
706 -4728 0
-408 -706 4728 0
33 -4729 0
825 -4729 0
-33 -825 4729 0
243 -4730 0
-239 -4730 0
-243 239 4730 0
520 -4731 0
798 -4731 0
-520 -798 4731 0
-274 -4732 0
353 -4732 0
274 -353 4732 0
399 -4733 0
734 -4733 0
-399 -734 4733 0
-855 -4734 0
97 -4734 0
855 -97 4734 0
463 -4735 0
361 -4735 0
-463 -361 4735 0
-260 -4736 0
835 -4736 0
260 -835 4736 0
-121 -4737 0
597 -4737 0
121 -597 4737 0
822 -4738 0
277 -4738 0
-822 -277 4738 0
-344 -4739 0
125 -4739 0
344 -125 4739 0
-570 -4740 0
301 -4740 0
570 -301 4740 0
854 -4741 0
610 -4741 0
-854 -610 4741 0
120 -4742 0
285 -4742 0
-120 -285 4742 0
-11 -4743 0
953 -4743 0
11 -953 4743 0
919 -4744 0
-846 -4744 0
-919 846 4744 0
-488 -4745 0
536 -4745 0
488 -536 4745 0
167 -4746 0
158 -4747 0
-372 -4747 0
-158 372 4747 0
-874 -4748 0
189 -4748 0
874 -189 4748 0
-397 -4749 0
170 -4749 0
397 -170 4749 0
726 -4750 0
898 -4750 0
-726 -898 4750 0
863 -4751 0
850 -4751 0
-863 -850 4751 0
-940 -4752 0
315 -4752 0
940 -315 4752 0
182 -4753 0
485 -4753 0
-182 -485 4753 0
87 -4754 0
-286 -4754 0
-87 286 4754 0
499 -4755 0
-46 -4755 0
-499 46 4755 0
87 -4756 0
-980 -4756 0
-87 980 4756 0
26 -4757 0
41 -4757 0
-26 -41 4757 0
396 -4758 0
-414 -4758 0
-396 414 4758 0
115 -4759 0
-279 -4759 0
-115 279 4759 0
447 -4760 0
414 -4760 0
-447 -414 4760 0
-201 -4761 0
556 -4761 0
201 -556 4761 0
-946 -4762 0
558 -4762 0
946 -558 4762 0
354 -4763 0
-519 -4763 0
-354 519 4763 0
503 -4764 0
-108 -4764 0
-503 108 4764 0
64 -4765 0
609 -4765 0
-64 -609 4765 0
637 -4766 0
41 -4766 0
-637 -41 4766 0
679 -4767 0
948 -4767 0
-679 -948 4767 0
191 -4768 0
108 -4768 0
-191 -108 4768 0
46 -4769 0
273 -4769 0
-46 -273 4769 0
408 -4770 0
993 -4770 0
-408 -993 4770 0
-169 -4771 0
446 -4771 0
169 -446 4771 0
959 -4772 0
-893 -4772 0
-959 893 4772 0
967 -4773 0
-158 -4773 0
-967 158 4773 0
704 -4774 0
569 -4774 0
-704 -569 4774 0
-72 -4775 0
695 -4775 0
72 -695 4775 0
821 -4776 0
-935 -4776 0
-821 935 4776 0
832 -4777 0
-258 -4777 0
-832 258 4777 0
839 -4778 0
665 -4778 0
-839 -665 4778 0
-442 -4779 0
626 -4779 0
442 -626 4779 0
-893 -4780 0
891 -4780 0
893 -891 4780 0
731 -4781 0
-183 -4781 0
-731 183 4781 0
-775 -4782 0
433 -4782 0
775 -433 4782 0
-587 -4783 0
673 -4783 0
587 -673 4783 0
460 -4784 0
921 -4784 0
-460 -921 4784 0
416 -4785 0
413 -4785 0
-416 -413 4785 0
191 -4786 0
123 -4786 0
-191 -123 4786 0
-680 -4787 0
962 -4787 0
680 -962 4787 0
974 -4788 0
939 -4788 0
-974 -939 4788 0
-771 -4789 0
218 -4789 0
771 -218 4789 0
984 -4790 0
757 -4790 0
-984 -757 4790 0
-548 -4791 0
674 -4791 0
548 -674 4791 0
-285 -4792 0
835 -4792 0
285 -835 4792 0
870 -4793 0
-391 -4793 0
-870 391 4793 0
29 -4794 0
-45 -4794 0
-29 45 4794 0
558 -4795 0
25 -4795 0
-558 -25 4795 0
880 -4796 0
-41 -4796 0
-880 41 4796 0
366 -4797 0
108 -4797 0
-366 -108 4797 0
624 -4798 0
-428 -4798 0
-624 428 4798 0
91 -4799 0
377 -4799 0
-91 -377 4799 0
804 -4800 0
716 -4800 0
-804 -716 4800 0
583 -4801 0
755 -4801 0
-583 -755 4801 0
416 -4802 0
739 -4802 0
-416 -739 4802 0
-814 -4803 0
841 -4803 0
814 -841 4803 0
734 -4804 0
9 -4804 0
-734 -9 4804 0
-84 -4805 0
58 -4805 0
84 -58 4805 0
-594 -4806 0
747 -4806 0
594 -747 4806 0
594 -4807 0
665 -4807 0
-594 -665 4807 0
455 -4808 0
701 -4808 0
-455 -701 4808 0
950 -4809 0
-307 -4809 0
-950 307 4809 0
658 -4810 0
-863 -4810 0
-658 863 4810 0
-232 -4811 0
995 -4811 0
232 -995 4811 0
835 -4812 0
-758 -4812 0
-835 758 4812 0
400 -4813 0
-69 -4813 0
-400 69 4813 0
390 -4814 0
201 -4814 0
-390 -201 4814 0
977 -4815 0
649 -4815 0
-977 -649 4815 0
975 -4816 0
-589 -4816 0
-975 589 4816 0
32 -4817 0
127 -4817 0
-32 -127 4817 0
936 -4818 0
-755 -4818 0
-936 755 4818 0
639 -4819 0
307 -4819 0
-639 -307 4819 0
-763 -4820 0
242 -4820 0
763 -242 4820 0
-841 -4821 0
642 -4821 0
841 -642 4821 0
-609 -4822 0
393 -4822 0
609 -393 4822 0
-131 -4823 0
73 -4823 0
131 -73 4823 0
392 -4824 0
826 -4824 0
-392 -826 4824 0
-571 -4825 0
418 -4825 0
571 -418 4825 0
-812 -4826 0
650 -4826 0
812 -650 4826 0
29 -4827 0
916 -4827 0
-29 -916 4827 0
-618 -4828 0
476 -4828 0
618 -476 4828 0
230 -4829 0
-636 -4829 0
-230 636 4829 0
-484 -4830 0
105 -4830 0
484 -105 4830 0
217 -4831 0
-887 -4831 0
-217 887 4831 0
-981 -4832 0
298 -4832 0
981 -298 4832 0
727 -4833 0
-479 -4833 0
-727 479 4833 0
833 -4834 0
-215 -4834 0
-833 215 4834 0
-825 -4835 0
258 -4835 0
825 -258 4835 0
112 -4836 0
-958 -4836 0
-112 958 4836 0
-314 -4837 0
252 -4837 0
314 -252 4837 0
-85 -4838 0
890 -4838 0
85 -890 4838 0
115 -4839 0
-654 -4839 0
-115 654 4839 0
975 -4840 0
643 -4840 0
-975 -643 4840 0
-170 -4841 0
874 -4841 0
170 -874 4841 0
272 -4842 0
126 -4842 0
-272 -126 4842 0
-144 -4843 0
164 -4843 0
144 -164 4843 0
-731 -4844 0
867 -4844 0
731 -867 4844 0
408 -4845 0
319 -4845 0
-408 -319 4845 0
519 -4846 0
-870 -4846 0
-519 870 4846 0
-717 -4847 0
490 -4847 0
717 -490 4847 0
535 -4848 0
553 -4848 0
-535 -553 4848 0
735 -4849 0
471 -4849 0
-735 -471 4849 0
133 -4850 0
-251 -4850 0
-133 251 4850 0
144 -4851 0
137 -4851 0
-144 -137 4851 0
703 -4852 0
446 -4852 0
-703 -446 4852 0
887 -4853 0
-937 -4853 0
-887 937 4853 0
115 -4854 0
-382 -4854 0
-115 382 4854 0
262 -4855 0
44 -4855 0
-262 -44 4855 0
-490 -4856 0
77 -4856 0
490 -77 4856 0
-410 -4857 0
844 -4857 0
410 -844 4857 0
-765 -4858 0
291 -4858 0
765 -291 4858 0
791 -4859 0
946 -4859 0
-791 -946 4859 0
150 -4860 0
-351 -4860 0
-150 351 4860 0
863 -4861 0
-26 -4861 0
-863 26 4861 0
893 -4862 0
105 -4862 0
-893 -105 4862 0
861 -4863 0
300 -4863 0
-861 -300 4863 0
182 -4864 0
-902 -4864 0
-182 902 4864 0
309 -4865 0
812 -4865 0
-309 -812 4865 0
806 -4866 0
986 -4866 0
-806 -986 4866 0
446 -4867 0
516 -4867 0
-446 -516 4867 0
32 -4868 0
-135 -4868 0
-32 135 4868 0
758 -4869 0
-342 -4869 0
-758 342 4869 0
79 -4870 0
-365 -4870 0
-79 365 4870 0
303 -4871 0
-730 -4871 0
-303 730 4871 0
951 -4872 0
916 -4872 0
-951 -916 4872 0
156 -4873 0
411 -4873 0
-156 -411 4873 0
264 -4874 0
-257 -4874 0
-264 257 4874 0
-988 -4875 0
635 -4875 0
988 -635 4875 0
317 -4876 0
-47 -4876 0
-317 47 4876 0
184 -4877 0
-373 -4877 0
-184 373 4877 0
959 -4878 0
-846 -4878 0
-959 846 4878 0
-278 -4879 0
433 -4879 0
278 -433 4879 0
-961 -4880 0
932 -4880 0
961 -932 4880 0
32 -4881 0
-508 -4881 0
-32 508 4881 0
-186 -4882 0
539 -4882 0
186 -539 4882 0
130 -4883 0
793 -4883 0
-130 -793 4883 0
338 -4884 0
-526 -4884 0
-338 526 4884 0
-498 -4885 0
163 -4885 0
498 -163 4885 0
-472 -4886 0
824 -4886 0
472 -824 4886 0
-1000 -4887 0
662 -4887 0
1000 -662 4887 0
604 -4888 0
700 -4888 0
-604 -700 4888 0
-441 -4889 0
797 -4889 0
441 -797 4889 0
64 -4890 0
491 -4890 0
-64 -491 4890 0
-545 -4891 0
790 -4891 0
545 -790 4891 0
212 -4892 0
-701 -4892 0
-212 701 4892 0
-619 -4893 0
973 -4893 0
619 -973 4893 0
460 -4894 0
708 -4894 0
-460 -708 4894 0
719 -4895 0
-5 -4895 0
-719 5 4895 0
957 -4896 0
485 -4896 0
-957 -485 4896 0
546 -4897 0
353 -4897 0
-546 -353 4897 0
-485 -4898 0
34 -4898 0
485 -34 4898 0
246 -4899 0
489 -4899 0
-246 -489 4899 0
-386 -4900 0
52 -4900 0
386 -52 4900 0
-995 -4901 0
409 -4901 0
995 -409 4901 0
72 -4902 0
-931 -4902 0
-72 931 4902 0
-129 -4903 0
825 -4903 0
129 -825 4903 0
511 -4904 0
521 -4904 0
-511 -521 4904 0
-402 -4905 0
266 -4905 0
402 -266 4905 0
844 -4906 0
849 -4906 0
-844 -849 4906 0
-890 -4907 0
481 -4907 0
890 -481 4907 0
908 -4908 0
-990 -4908 0
-908 990 4908 0
853 -4909 0
754 -4909 0
-853 -754 4909 0
-660 -4910 0
26 -4910 0
660 -26 4910 0
645 -4911 0
-727 -4911 0
-645 727 4911 0
715 -4912 0
130 -4912 0
-715 -130 4912 0
-857 -4913 0
589 -4913 0
857 -589 4913 0
878 -4914 0
-773 -4914 0
-878 773 4914 0
382 -4915 0
602 -4915 0
-382 -602 4915 0
612 -4916 0
-790 -4916 0
-612 790 4916 0
828 -4917 0
-591 -4917 0
-828 591 4917 0
-944 -4918 0
572 -4918 0
944 -572 4918 0
182 -4919 0
-39 -4919 0
-182 39 4919 0
84 -4920 0
732 -4920 0
-84 -732 4920 0
44 -4921 0
202 -4921 0
-44 -202 4921 0
335 -4922 0
-426 -4922 0
-335 426 4922 0
-478 -4923 0
193 -4923 0
478 -193 4923 0
-712 -4924 0
593 -4924 0
712 -593 4924 0
517 -4925 0
291 -4925 0
-517 -291 4925 0
-804 -4926 0
137 -4926 0
804 -137 4926 0
368 -4927 0
388 -4927 0
-368 -388 4927 0
699 -4928 0
554 -4928 0
-699 -554 4928 0
264 -4929 0
579 -4929 0
-264 -579 4929 0
964 -4930 0
-501 -4930 0
-964 501 4930 0
764 -4931 0
259 -4931 0
-764 -259 4931 0
623 -4932 0
-778 -4932 0
-623 778 4932 0
-954 -4933 0
115 -4933 0
954 -115 4933 0
843 -4934 0
761 -4934 0
-843 -761 4934 0
725 -4935 0
-215 -4935 0
-725 215 4935 0
966 -4936 0
-38 -4936 0
-966 38 4936 0
579 -4937 0
175 -4938 0
-821 -4938 0
-175 821 4938 0
941 -4939 0
850 -4939 0
-941 -850 4939 0
-160 -4940 0
170 -4940 0
160 -170 4940 0
871 -4941 0
962 -4941 0
-871 -962 4941 0
-624 -4942 0
128 -4942 0
624 -128 4942 0
376 -4943 0
250 -4943 0
-376 -250 4943 0
723 -4944 0
265 -4944 0
-723 -265 4944 0
968 -4945 0
-949 -4945 0
-968 949 4945 0
-809 -4946 0
950 -4946 0
809 -950 4946 0
-433 -4947 0
243 -4947 0
433 -243 4947 0
-608 -4948 0
972 -4948 0
608 -972 4948 0
520 -4949 0
-667 -4949 0
-520 667 4949 0
778 -4950 0
-996 -4951 0
417 -4951 0
996 -417 4951 0
174 -4952 0
507 -4952 0
-174 -507 4952 0
144 -4953 0
621 -4953 0
-144 -621 4953 0
-891 -4954 0
738 -4954 0
891 -738 4954 0
606 -4955 0
917 -4955 0
-606 -917 4955 0
485 -4956 0
995 -4956 0
-485 -995 4956 0
124 -4957 0
452 -4957 0
-124 -452 4957 0
-729 -4958 0
999 -4958 0
729 -999 4958 0
408 -4959 0
540 -4959 0
-408 -540 4959 0
127 -4960 0
-658 -4960 0
-127 658 4960 0
-504 -4961 0
285 -4961 0
504 -285 4961 0
391 -4962 0
-981 -4962 0
-391 981 4962 0
166 -4963 0
-333 -4963 0
-166 333 4963 0
701 -4964 0
-675 -4964 0
-701 675 4964 0
382 -4965 0
394 -4965 0
-382 -394 4965 0
920 -4966 0
970 -4966 0
-920 -970 4966 0
216 -4967 0
993 -4967 0
-216 -993 4967 0
218 -4968 0
225 -4968 0
-218 -225 4968 0
-424 -4969 0
829 -4969 0
424 -829 4969 0
590 -4970 0
202 -4970 0
-590 -202 4970 0
757 -4971 0
621 -4971 0
-757 -621 4971 0
312 -4972 0
437 -4972 0
-312 -437 4972 0
504 -4973 0
-117 -4973 0
-504 117 4973 0
614 -4974 0
-12 -4974 0
-614 12 4974 0
829 -4975 0
-436 -4975 0
-829 436 4975 0
-907 -4976 0
994 -4976 0
907 -994 4976 0
247 -4977 0
-702 -4977 0
-247 702 4977 0
431 -4978 0
70 -4978 0
-431 -70 4978 0
624 -4979 0
-61 -4979 0
-624 61 4979 0
47 -4980 0
-26 -4980 0
-47 26 4980 0
272 -4981 0
486 -4981 0
-272 -486 4981 0
788 -4982 0
-454 -4982 0
-788 454 4982 0
709 -4983 0
-499 -4983 0
-709 499 4983 0
679 -4984 0
7 -4984 0
-679 -7 4984 0
295 -4985 0
929 -4985 0
-295 -929 4985 0
-921 -4986 0
278 -4986 0
921 -278 4986 0
749 -4987 0
403 -4987 0
-749 -403 4987 0
807 -4988 0
-316 -4988 0
-807 316 4988 0
683 -4989 0
602 -4989 0
-683 -602 4989 0
-588 -4990 0
732 -4990 0
588 -732 4990 0
234 -4991 0
762 -4991 0
-234 -762 4991 0
280 -4992 0
803 -4992 0
-280 -803 4992 0
-614 -4993 0
729 -4993 0
614 -729 4993 0
-800 -4994 0
873 -4994 0
800 -873 4994 0
197 -4995 0
618 -4995 0
-197 -618 4995 0
303 -4996 0
-628 -4996 0
-303 628 4996 0
-777 -4997 0
382 -4997 0
777 -382 4997 0
192 -4998 0
59 -4998 0
-192 -59 4998 0
695 -4999 0
-295 -4999 0
-695 295 4999 0
936 -5000 0
56 -5000 0
-936 -56 5000 0
949 -5001 0
138 -5001 0
-949 -138 5001 0
726 -5002 0
449 -5002 0
-726 -449 5002 0
630 -5003 0
-7 -5003 0
-630 7 5003 0
976 -5004 0
483 -5004 0
-976 -483 5004 0
112 -5005 0
661 -5005 0
-112 -661 5005 0
524 -5006 0
-726 -5006 0
-524 726 5006 0
767 -5007 0
-694 -5007 0
-767 694 5007 0
63 -5008 0
356 -5008 0
-63 -356 5008 0
144 -5009 0
-76 -5009 0
-144 76 5009 0
672 -5010 0
-993 -5010 0
-672 993 5010 0
-806 -5011 0
90 -5011 0
806 -90 5011 0
693 -5012 0
98 -5012 0
-693 -98 5012 0
-232 -5013 0
671 -5013 0
232 -671 5013 0
216 -5014 0
730 -5014 0
-216 -730 5014 0
237 -5015 0
-238 -5015 0
-237 238 5015 0
-800 -5016 0
621 -5016 0
800 -621 5016 0
648 -5017 0
624 -5017 0
-648 -624 5017 0
350 -5018 0
996 -5018 0
-350 -996 5018 0
-833 -5019 0
265 -5019 0
833 -265 5019 0
765 -5020 0
338 -5020 0
-765 -338 5020 0
-185 -5021 0
331 -5021 0
185 -331 5021 0
-418 -5022 0
413 -5022 0
418 -413 5022 0
414 -5023 0
829 -5023 0
-414 -829 5023 0
-715 -5024 0
617 -5024 0
715 -617 5024 0
376 -5025 0
-687 -5025 0
-376 687 5025 0
-507 -5026 0
380 -5026 0
507 -380 5026 0
406 -5027 0
-421 -5027 0
-406 421 5027 0
-322 -5028 0
18 -5028 0
322 -18 5028 0
196 -5029 0
-470 -5029 0
-196 470 5029 0
880 -5030 0
-49 -5030 0
-880 49 5030 0
871 -5031 0
1 -5031 0
-871 -1 5031 0
187 -5032 0
635 -5032 0
-187 -635 5032 0
6 -5033 0
-874 -5033 0
-6 874 5033 0
831 -5034 0
-652 -5034 0
-831 652 5034 0
848 -5035 0
828 -5035 0
-848 -828 5035 0
951 -5036 0
-627 -5036 0
-951 627 5036 0
-241 -5037 0
94 -5037 0
241 -94 5037 0
790 -5038 0
629 -5038 0
-790 -629 5038 0
64 -5039 0
-461 -5039 0
-64 461 5039 0
-344 -5040 0
592 -5040 0
344 -592 5040 0
-613 -5041 0
657 -5041 0
613 -657 5041 0
743 -5042 0
523 -5042 0
-743 -523 5042 0
296 -5043 0
255 -5043 0
-296 -255 5043 0
120 -5044 0
830 -5044 0
-120 -830 5044 0
574 -5045 0
-26 -5045 0
-574 26 5045 0
600 -5046 0
195 -5046 0
-600 -195 5046 0
726 -5047 0
-229 -5047 0
-726 229 5047 0
487 -5048 0
822 -5048 0
-487 -822 5048 0
508 -5049 0
809 -5049 0
-508 -809 5049 0
-225 -5050 0
468 -5050 0
225 -468 5050 0
-991 -5051 0
217 -5051 0
991 -217 5051 0
507 -5052 0
-670 -5052 0
-507 670 5052 0
-792 -5053 0
637 -5053 0
792 -637 5053 0
318 -5054 0
204 -5054 0
-318 -204 5054 0
708 -5055 0
-279 -5055 0
-708 279 5055 0
-354 -5056 0
317 -5056 0
354 -317 5056 0
1000 -5057 0
-547 -5057 0
-1000 547 5057 0
14 -5058 0
633 -5058 0
-14 -633 5058 0
243 -5059 0
-854 -5059 0
-243 854 5059 0
-452 -5060 0
668 -5060 0
452 -668 5060 0
840 -5061 0
438 -5061 0
-840 -438 5061 0
149 -5062 0
837 -5062 0
-149 -837 5062 0
-791 -5063 0
25 -5063 0
791 -25 5063 0
520 -5064 0
-329 -5064 0
-520 329 5064 0
-896 -5065 0
600 -5065 0
896 -600 5065 0
-201 -5066 0
870 -5066 0
201 -870 5066 0
976 -5067 0
854 -5067 0
-976 -854 5067 0
-861 -5068 0
2 -5068 0
861 -2 5068 0
-330 -5069 0
641 -5069 0
330 -641 5069 0
979 -5070 0
-463 -5070 0
-979 463 5070 0
535 -5071 0
-897 -5071 0
-535 897 5071 0
76 -5072 0
-725 -5072 0
-76 725 5072 0
392 -5073 0
837 -5073 0
-392 -837 5073 0
502 -5074 0
286 -5074 0
-502 -286 5074 0
-672 -5075 0
30 -5075 0
672 -30 5075 0
335 -5076 0
194 -5076 0
-335 -194 5076 0
902 -5077 0
660 -5077 0
-902 -660 5077 0
460 -5078 0
-118 -5078 0
-460 118 5078 0
279 -5079 0
-989 -5079 0
-279 989 5079 0
896 -5080 0
-552 -5080 0
-896 552 5080 0
986 -5081 0
897 -5081 0
-986 -897 5081 0
300 -5082 0
113 -5082 0
-300 -113 5082 0
284 -5083 0
193 -5083 0
-284 -193 5083 0
-616 -5084 0
645 -5084 0
616 -645 5084 0
549 -5085 0
658 -5085 0
-549 -658 5085 0
887 -5086 0
-154 -5086 0
-887 154 5086 0
-482 -5087 0
5 -5087 0
482 -5 5087 0
-413 -5088 0
17 -5088 0
413 -17 5088 0
-621 -5089 0
42 -5089 0
621 -42 5089 0
919 -5090 0
166 -5090 0
-919 -166 5090 0
220 -5091 0
252 -5091 0
-220 -252 5091 0
-481 -5092 0
284 -5092 0
481 -284 5092 0
199 -5093 0
83 -5093 0
-199 -83 5093 0
198 -5094 0
516 -5094 0
-198 -516 5094 0
140 -5095 0
-316 -5095 0
-140 316 5095 0
78 -5096 0
793 -5096 0
-78 -793 5096 0
-477 -5097 0
48 -5098 0
846 -5098 0
-48 -846 5098 0
376 -5099 0
-618 -5099 0
-376 618 5099 0
902 -5100 0
-37 -5100 0
-902 37 5100 0
-987 -5101 0
276 -5101 0
987 -276 5101 0
-728 -5102 0
256 -5102 0
728 -256 5102 0
-586 -5103 0
620 -5103 0
586 -620 5103 0
-356 -5104 0
73 -5104 0
356 -73 5104 0
878 -5105 0
-372 -5105 0
-878 372 5105 0
199 -5106 0
657 -5106 0
-199 -657 5106 0
-152 -5107 0
706 -5107 0
152 -706 5107 0
271 -5108 0
154 -5108 0
-271 -154 5108 0
402 -5109 0
-415 -5109 0
-402 415 5109 0
-654 -5110 0
394 -5110 0
654 -394 5110 0
-635 -5111 0
452 -5111 0
635 -452 5111 0
-593 -5112 0
454 -5112 0
593 -454 5112 0
102 -5113 0
972 -5113 0
-102 -972 5113 0
-938 -5114 0
770 -5114 0
938 -770 5114 0
-590 -5115 0
905 -5115 0
590 -905 5115 0
-724 -5116 0
483 -5116 0
724 -483 5116 0
-801 -5117 0
42 -5117 0
801 -42 5117 0
508 -5118 0
874 -5118 0
-508 -874 5118 0
-632 -5119 0
473 -5119 0
632 -473 5119 0
-17 -5120 0
385 -5120 0
17 -385 5120 0
-586 -5121 0
994 -5121 0
586 -994 5121 0
16 -5122 0
-75 -5122 0
-16 75 5122 0
-18 -5123 0
733 -5123 0
18 -733 5123 0
255 -5124 0
-599 -5124 0
-255 599 5124 0
-777 -5125 0
675 -5125 0
777 -675 5125 0
950 -5126 0
93 -5126 0
-950 -93 5126 0
928 -5127 0
-865 -5127 0
-928 865 5127 0
670 -5128 0
138 -5128 0
-670 -138 5128 0
35 -5129 0
147 -5129 0
-35 -147 5129 0
-41 -5130 0
445 -5130 0
41 -445 5130 0
199 -5131 0
-566 -5131 0
-199 566 5131 0
-913 -5132 0
65 -5132 0
913 -65 5132 0
-192 -5133 0
966 -5133 0
192 -966 5133 0
718 -5134 0
-878 -5134 0
-718 878 5134 0
-562 -5135 0
710 -5135 0
562 -710 5135 0
190 -5136 0
-267 -5136 0
-190 267 5136 0
678 -5137 0
435 -5137 0
-678 -435 5137 0
29 -5138 0
-483 -5138 0
-29 483 5138 0
-960 -5139 0
278 -5139 0
960 -278 5139 0
952 -5140 0
-497 -5140 0
-952 497 5140 0
692 -5141 0
641 -5141 0
-692 -641 5141 0
528 -5142 0
30 -5142 0
-528 -30 5142 0
272 -5143 0
79 -5143 0
-272 -79 5143 0
-496 -5144 0
601 -5144 0
496 -601 5144 0
944 -5145 0
-239 -5145 0
-944 239 5145 0
-451 -5146 0
51 -5146 0
451 -51 5146 0
212 -5147 0
297 -5147 0
-212 -297 5147 0
475 -5148 0
411 -5148 0
-475 -411 5148 0
-258 -5149 0
649 -5149 0
258 -649 5149 0
-472 -5150 0
331 -5150 0
472 -331 5150 0
-54 -5151 0
857 -5151 0
54 -857 5151 0
125 -5152 0
-813 -5152 0
-125 813 5152 0
1 -5153 0
449 -5153 0
-1 -449 5153 0
422 -5154 0
-524 -5154 0
-422 524 5154 0
16 -5155 0
-375 -5155 0
-16 375 5155 0
391 -5156 0
209 -5156 0
-391 -209 5156 0
732 -5157 0
428 -5157 0
-732 -428 5157 0
312 -5158 0
-547 -5158 0
-312 547 5158 0
478 -5159 0
-732 -5159 0
-478 732 5159 0
599 -5160 0
-860 -5160 0
-599 860 5160 0
-146 -5161 0
803 -5161 0
146 -803 5161 0
958 -5162 0
-414 -5162 0
-958 414 5162 0
-496 -5163 0
686 -5163 0
496 -686 5163 0
876 -5164 0
-478 -5164 0
-876 478 5164 0
557 -5165 0
-406 -5165 0
-557 406 5165 0
-968 -5166 0
557 -5166 0
968 -557 5166 0
528 -5167 0
766 -5167 0
-528 -766 5167 0
612 -5168 0
209 -5168 0
-612 -209 5168 0
-114 -5169 0
150 -5169 0
114 -150 5169 0
-810 -5170 0
508 -5170 0
810 -508 5170 0
-470 -5171 0
209 -5171 0
470 -209 5171 0
-584 -5172 0
171 -5172 0
584 -171 5172 0
-361 -5173 0
694 -5173 0
361 -694 5173 0
847 -5174 0
26 -5174 0
-847 -26 5174 0
-197 -5175 0
570 -5175 0
197 -570 5175 0
455 -5176 0
-39 -5176 0
-455 39 5176 0
-904 -5177 0
862 -5177 0
904 -862 5177 0
924 -5178 0
444 -5178 0
-924 -444 5178 0
-874 -5179 0
828 -5179 0
874 -828 5179 0
-833 -5180 0
22 -5180 0
833 -22 5180 0
-16 -5181 0
607 -5181 0
16 -607 5181 0
827 -5182 0
75 -5182 0
-827 -75 5182 0
658 -5183 0
586 -5183 0
-658 -586 5183 0
196 -5184 0
-693 -5184 0
-196 693 5184 0
-189 -5185 0
914 -5185 0
189 -914 5185 0
463 -5186 0
-997 -5186 0
-463 997 5186 0
792 -5187 0
170 -5187 0
-792 -170 5187 0
-137 -5188 0
889 -5188 0
137 -889 5188 0
775 -5189 0
199 -5189 0
-775 -199 5189 0
-426 -5190 0
587 -5190 0
426 -587 5190 0
-337 -5191 0
74 -5191 0
337 -74 5191 0
-836 -5192 0
657 -5192 0
836 -657 5192 0
334 -5193 0
-614 -5193 0
-334 614 5193 0
-844 -5194 0
946 -5194 0
844 -946 5194 0
852 -5195 0
297 -5195 0
-852 -297 5195 0
-545 -5196 0
779 -5196 0
545 -779 5196 0
640 -5197 0
748 -5197 0
-640 -748 5197 0
926 -5198 0
-774 -5198 0
-926 774 5198 0
552 -5199 0
2 -5199 0
-552 -2 5199 0
101 -5200 0
-63 -5200 0
-101 63 5200 0
540 -5201 0
-508 -5201 0
-540 508 5201 0
-336 -5202 0
907 -5202 0
336 -907 5202 0
-416 -5203 0
805 -5203 0
416 -805 5203 0
251 -5204 0
331 -5204 0
-251 -331 5204 0
459 -5205 0
-79 -5205 0
-459 79 5205 0
965 -5206 0
628 -5206 0
-965 -628 5206 0
663 -5207 0
-211 -5207 0
-663 211 5207 0
398 -5208 0
-854 -5208 0
-398 854 5208 0
-699 -5209 0
645 -5209 0
699 -645 5209 0
946 -5210 0
-774 -5210 0
-946 774 5210 0
-40 -5211 0
185 -5211 0
40 -185 5211 0
134 -5212 0
977 -5212 0
-134 -977 5212 0
723 -5213 0
809 -5213 0
-723 -809 5213 0
-131 -5214 0
829 -5214 0
131 -829 5214 0
70 -5215 0
-499 -5215 0
-70 499 5215 0
555 -5216 0
330 -5216 0
-555 -330 5216 0
906 -5217 0
-623 -5217 0
-906 623 5217 0
444 -5218 0
-39 -5218 0
-444 39 5218 0
724 -5219 0
131 -5219 0
-724 -131 5219 0
723 -5220 0
322 -5220 0
-723 -322 5220 0
675 -5221 0
666 -5221 0
-675 -666 5221 0
14 -5222 0
-612 -5222 0
-14 612 5222 0
574 -5223 0
251 -5223 0
-574 -251 5223 0
-936 -5224 0
11 -5224 0
936 -11 5224 0
-267 -5225 0
836 -5225 0
267 -836 5225 0
-290 -5226 0
787 -5226 0
290 -787 5226 0
8 -5227 0
-398 -5227 0
-8 398 5227 0
-771 -5228 0
3 -5228 0
771 -3 5228 0
222 -5229 0
164 -5229 0
-222 -164 5229 0
100 -5230 0
145 -5230 0
-100 -145 5230 0
656 -5231 0
165 -5231 0
-656 -165 5231 0
847 -5232 0
-925 -5232 0
-847 925 5232 0
491 -5233 0
-94 -5233 0
-491 94 5233 0
-949 -5234 0
722 -5234 0
949 -722 5234 0
-218 -5235 0
60 -5235 0
218 -60 5235 0
821 -5236 0
380 -5236 0
-821 -380 5236 0
437 -5237 0
892 -5237 0
-437 -892 5237 0
451 -5238 0
946 -5238 0
-451 -946 5238 0
63 -5239 0
307 -5239 0
-63 -307 5239 0
776 -5240 0
-276 -5240 0
-776 276 5240 0
960 -5241 0
697 -5241 0
-960 -697 5241 0
630 -5242 0
-151 -5242 0
-630 151 5242 0
-178 -5243 0
236 -5243 0
178 -236 5243 0
832 -5244 0
-676 -5244 0
-832 676 5244 0
831 -5245 0
279 -5245 0
-831 -279 5245 0
790 -5246 0
666 -5246 0
-790 -666 5246 0
867 -5247 0
-998 -5247 0
-867 998 5247 0
352 -5248 0
-669 -5248 0
-352 669 5248 0
920 -5249 0
-28 -5249 0
-920 28 5249 0
571 -5250 0
-365 -5250 0
-571 365 5250 0
773 -5251 0
-902 -5251 0
-773 902 5251 0
-145 -5252 0
265 -5252 0
145 -265 5252 0
111 -5253 0
-143 -5253 0
-111 143 5253 0
935 -5254 0
954 -5254 0
-935 -954 5254 0
172 -5255 0
-878 -5255 0
-172 878 5255 0
213 -5256 0
180 -5256 0
-213 -180 5256 0
510 -5257 0
333 -5257 0
-510 -333 5257 0
639 -5258 0
817 -5258 0
-639 -817 5258 0
472 -5259 0
886 -5259 0
-472 -886 5259 0
-361 -5260 0
438 -5260 0
361 -438 5260 0
440 -5261 0
229 -5261 0
-440 -229 5261 0
-275 -5262 0
474 -5262 0
275 -474 5262 0
839 -5263 0
-667 -5263 0
-839 667 5263 0
64 -5264 0
599 -5264 0
-64 -599 5264 0
-618 -5265 0
709 -5265 0
618 -709 5265 0
-104 -5266 0
117 -5266 0
104 -117 5266 0
477 -5267 0
-799 -5267 0
-477 799 5267 0
766 -5268 0
222 -5268 0
-766 -222 5268 0
616 -5269 0
-269 -5269 0
-616 269 5269 0
-109 -5270 0
649 -5270 0
109 -649 5270 0
286 -5271 0
-267 -5271 0
-286 267 5271 0
78 -5272 0
-75 -5272 0
-78 75 5272 0
542 -5273 0
451 -5273 0
-542 -451 5273 0
552 -5274 0
-196 -5274 0
-552 196 5274 0
141 -5275 0
-223 -5275 0
-141 223 5275 0
743 -5276 0
-817 -5276 0
-743 817 5276 0
-636 -5277 0
444 -5277 0
636 -444 5277 0
200 -5278 0
41 -5278 0
-200 -41 5278 0
-982 -5279 0
50 -5279 0
982 -50 5279 0
784 -5280 0
-621 -5280 0
-784 621 5280 0
984 -5281 0
-35 -5281 0
-984 35 5281 0
-91 -5282 0
626 -5282 0
91 -626 5282 0
499 -5283 0
921 -5283 0
-499 -921 5283 0
-576 -5284 0
914 -5284 0
576 -914 5284 0
894 -5285 0
-36 -5285 0
-894 36 5285 0
-746 -5286 0
997 -5286 0
746 -997 5286 0
304 -5287 0
-779 -5287 0
-304 779 5287 0
759 -5288 0
292 -5288 0
-759 -292 5288 0
-292 -5289 0
433 -5289 0
292 -433 5289 0
149 -5290 0
-998 -5290 0
-149 998 5290 0
624 -5291 0
-725 -5291 0
-624 725 5291 0
-188 -5292 0
356 -5292 0
188 -356 5292 0
572 -5293 0
514 -5293 0
-572 -514 5293 0
296 -5294 0
811 -5294 0
-296 -811 5294 0
-312 -5295 0
804 -5295 0
312 -804 5295 0
119 -5296 0
-777 -5296 0
-119 777 5296 0
991 -5297 0
-487 -5297 0
-991 487 5297 0
808 -5298 0
595 -5298 0
-808 -595 5298 0
216 -5299 0
94 -5299 0
-216 -94 5299 0
-939 -5300 0
924 -5300 0
939 -924 5300 0
75 -5301 0
587 -5301 0
-75 -587 5301 0
470 -5302 0
-580 -5302 0
-470 580 5302 0
-208 -5303 0
246 -5303 0
208 -246 5303 0
414 -5304 0
-837 -5304 0
-414 837 5304 0
651 -5305 0
9 -5305 0
-651 -9 5305 0
231 -5306 0
81 -5306 0
-231 -81 5306 0
280 -5307 0
461 -5307 0
-280 -461 5307 0
732 -5308 0
-887 -5308 0
-732 887 5308 0
-634 -5309 0
873 -5309 0
634 -873 5309 0
55 -5310 0
-79 -5310 0
-55 79 5310 0
517 -5311 0
-732 -5311 0
-517 732 5311 0
184 -5312 0
-634 -5312 0
-184 634 5312 0
192 -5313 0
-597 -5313 0
-192 597 5313 0
-558 -5314 0
890 -5314 0
558 -890 5314 0
981 -5315 0
306 -5315 0
-981 -306 5315 0
222 -5316 0
-171 -5316 0
-222 171 5316 0
238 -5317 0
-479 -5317 0
-238 479 5317 0
328 -5318 0
-859 -5318 0
-328 859 5318 0
-826 -5319 0
493 -5319 0
826 -493 5319 0
917 -5320 0
-829 -5320 0
-917 829 5320 0
615 -5321 0
-804 -5321 0
-615 804 5321 0
176 -5322 0
-823 -5322 0
-176 823 5322 0
-611 -5323 0
883 -5323 0
611 -883 5323 0
558 -5324 0
-939 -5324 0
-558 939 5324 0
463 -5325 0
-986 -5325 0
-463 986 5325 0
79 -5326 0
129 -5326 0
-79 -129 5326 0
942 -5327 0
-934 -5327 0
-942 934 5327 0
704 -5328 0
180 -5328 0
-704 -180 5328 0
487 -5329 0
969 -5329 0
-487 -969 5329 0
-273 -5330 0
933 -5330 0
273 -933 5330 0
-529 -5331 0
674 -5331 0
529 -674 5331 0
844 -5332 0
-974 -5332 0
-844 974 5332 0
640 -5333 0
598 -5333 0
-640 -598 5333 0
590 -5334 0
-101 -5334 0
-590 101 5334 0
-960 -5335 0
540 -5335 0
960 -540 5335 0
47 -5336 0
412 -5336 0
-47 -412 5336 0
-713 -5337 0
639 -5337 0
713 -639 5337 0
-884 -5338 0
12 -5338 0
884 -12 5338 0
566 -5339 0
-747 -5339 0
-566 747 5339 0
780 -5340 0
915 -5340 0
-780 -915 5340 0
660 -5341 0
-629 -5341 0
-660 629 5341 0
646 -5342 0
436 -5342 0
-646 -436 5342 0
967 -5343 0
596 -5343 0
-967 -596 5343 0
966 -5344 0
-755 -5344 0
-966 755 5344 0
776 -5345 0
181 -5345 0
-776 -181 5345 0
72 -5346 0
-627 -5346 0
-72 627 5346 0
-633 -5347 0
322 -5347 0
633 -322 5347 0
295 -5348 0
537 -5348 0
-295 -537 5348 0
593 -5349 0
105 -5349 0
-593 -105 5349 0
-175 -5350 0
401 -5350 0
175 -401 5350 0
631 -5351 0
-111 -5351 0
-631 111 5351 0
788 -5352 0
932 -5352 0
-788 -932 5352 0
-829 -5353 0
99 -5353 0
829 -99 5353 0
411 -5354 0
-711 -5354 0
-411 711 5354 0
652 -5355 0
-70 -5355 0
-652 70 5355 0
664 -5356 0
661 -5356 0
-664 -661 5356 0
-72 -5357 0
377 -5357 0
72 -377 5357 0
826 -5358 0
689 -5358 0
-826 -689 5358 0
-237 -5359 0
354 -5359 0
237 -354 5359 0
-512 -5360 0
262 -5360 0
512 -262 5360 0
400 -5361 0
477 -5361 0
-400 -477 5361 0
152 -5362 0
-998 -5362 0
-152 998 5362 0
620 -5363 0
-901 -5363 0
-620 901 5363 0
63 -5364 0
377 -5364 0
-63 -377 5364 0
-946 -5365 0
834 -5365 0
946 -834 5365 0
368 -5366 0
-481 -5366 0
-368 481 5366 0
828 -5367 0
404 -5367 0
-828 -404 5367 0
544 -5368 0
-159 -5368 0
-544 159 5368 0
366 -5369 0
30 -5369 0
-366 -30 5369 0
672 -5370 0
28 -5370 0
-672 -28 5370 0
655 -5371 0
-279 -5371 0
-655 279 5371 0
616 -5372 0
869 -5372 0
-616 -869 5372 0
-884 -5373 0
835 -5373 0
884 -835 5373 0
229 -5374 0
-5 -5374 0
-229 5 5374 0
182 -5375 0
773 -5375 0
-182 -773 5375 0
719 -5376 0
-134 -5376 0
-719 134 5376 0
696 -5377 0
318 -5377 0
-696 -318 5377 0
846 -5378 0
-446 -5378 0
-846 446 5378 0
-24 -5379 0
865 -5379 0
24 -865 5379 0
127 -5380 0
689 -5380 0
-127 -689 5380 0
-546 -5381 0
417 -5381 0
546 -417 5381 0
-539 -5382 0
11 -5382 0
539 -11 5382 0
179 -5383 0
-574 -5383 0
-179 574 5383 0
788 -5384 0
497 -5384 0
-788 -497 5384 0
616 -5385 0
586 -5385 0
-616 -586 5385 0
302 -5386 0
-691 -5386 0
-302 691 5386 0
-156 -5387 0
283 -5387 0
156 -283 5387 0
96 -5388 0
-230 -5388 0
-96 230 5388 0
776 -5389 0
-516 -5389 0
-776 516 5389 0
671 -5390 0
164 -5390 0
-671 -164 5390 0
-521 -5391 0
301 -5391 0
521 -301 5391 0
624 -5392 0
604 -5392 0
-624 -604 5392 0
863 -5393 0
-190 -5393 0
-863 190 5393 0
-307 -5394 0
148 -5394 0
307 -148 5394 0
-340 -5395 0
948 -5395 0
340 -948 5395 0
207 -5396 0
-135 -5396 0
-207 135 5396 0
-856 -5397 0
886 -5397 0
856 -886 5397 0
-146 -5398 0
77 -5398 0
146 -77 5398 0
-433 -5399 0
361 -5399 0
433 -361 5399 0
213 -5400 0
-126 -5400 0
-213 126 5400 0
581 -5401 0
835 -5401 0
-581 -835 5401 0
254 -5402 0
801 -5402 0
-254 -801 5402 0
568 -5403 0
-78 -5403 0
-568 78 5403 0
-608 -5404 0
791 -5404 0
608 -791 5404 0
-226 -5405 0
786 -5405 0
226 -786 5405 0
352 -5406 0
-180 -5406 0
-352 180 5406 0
-554 -5407 0
833 -5407 0
554 -833 5407 0
-594 -5408 0
901 -5408 0
594 -901 5408 0
-73 -5409 0
762 -5409 0
73 -762 5409 0
622 -5410 0
906 -5410 0
-622 -906 5410 0
440 -5411 0
-923 -5411 0
-440 923 5411 0
968 -5412 0
907 -5412 0
-968 -907 5412 0
863 -5413 0
-399 -5413 0
-863 399 5413 0
174 -5414 0
292 -5414 0
-174 -292 5414 0
606 -5415 0
-412 -5415 0
-606 412 5415 0
-69 -5416 0
42 -5416 0
69 -42 5416 0
-808 -5417 0
528 -5417 0
808 -528 5417 0
-595 -5418 0
868 -5418 0
595 -868 5418 0
-66 -5419 0
798 -5419 0
66 -798 5419 0
-298 -5420 0
843 -5420 0
298 -843 5420 0
278 -5421 0
-949 -5421 0
-278 949 5421 0
-528 -5422 0
354 -5422 0
528 -354 5422 0
117 -5423 0
836 -5423 0
-117 -836 5423 0
-922 -5424 0
843 -5424 0
922 -843 5424 0
48 -5425 0
-513 -5425 0
-48 513 5425 0
544 -5426 0
-102 -5426 0
-544 102 5426 0
126 -5427 0
157 -5427 0
-126 -157 5427 0
447 -5428 0
-110 -5428 0
-447 110 5428 0
959 -5429 0
-181 -5429 0
-959 181 5429 0
714 -5430 0
-6 -5430 0
-714 6 5430 0
139 -5431 0
-941 -5431 0
-139 941 5431 0
25 -5432 0
745 -5432 0
-25 -745 5432 0
-384 -5433 0
464 -5433 0
384 -464 5433 0
680 -5434 0
-12 -5434 0
-680 12 5434 0
972 -5435 0
-382 -5435 0
-972 382 5435 0
774 -5436 0
35 -5436 0
-774 -35 5436 0
476 -5437 0
-998 -5437 0
-476 998 5437 0
-937 -5438 0
299 -5438 0
937 -299 5438 0
52 -5439 0
-855 -5439 0
-52 855 5439 0
884 -5440 0
809 -5440 0
-884 -809 5440 0
509 -5441 0
-631 -5441 0
-509 631 5441 0
-789 -5442 0
881 -5442 0
789 -881 5442 0
848 -5443 0
-514 -5443 0
-848 514 5443 0
-825 -5444 0
491 -5444 0
825 -491 5444 0
268 -5445 0
-566 -5445 0
-268 566 5445 0
-625 -5446 0
413 -5446 0
625 -413 5446 0
228 -5447 0
420 -5447 0
-228 -420 5447 0
317 -5448 0
-932 -5448 0
-317 932 5448 0
795 -5449 0
-175 -5449 0
-795 175 5449 0
-267 -5450 0
265 -5450 0
267 -265 5450 0
234 -5451 0
329 -5451 0
-234 -329 5451 0
-784 -5452 0
723 -5452 0
784 -723 5452 0
-909 -5453 0
905 -5453 0
909 -905 5453 0
-797 -5454 0
298 -5454 0
797 -298 5454 0
-56 -5455 0
933 -5455 0
56 -933 5455 0
228 -5456 0
-327 -5456 0
-228 327 5456 0
918 -5457 0
-252 -5457 0
-918 252 5457 0
-680 -5458 0
465 -5458 0
680 -465 5458 0
454 -5459 0
-906 -5459 0
-454 906 5459 0
824 -5460 0
700 -5460 0
-824 -700 5460 0
333 -5461 0
913 -5461 0
-333 -913 5461 0
-170 -5462 0
525 -5462 0
170 -525 5462 0
447 -5463 0
-3 -5463 0
-447 3 5463 0
-173 -5464 0
313 -5464 0
173 -313 5464 0
164 -5465 0
441 -5465 0
-164 -441 5465 0
503 -5466 0
103 -5466 0
-503 -103 5466 0
909 -5467 0
-485 -5467 0
-909 485 5467 0
528 -5468 0
673 -5468 0
-528 -673 5468 0
-809 -5469 0
537 -5469 0
809 -537 5469 0
54 -5470 0
92 -5470 0
-54 -92 5470 0
596 -5471 0
-710 -5471 0
-596 710 5471 0
463 -5472 0
286 -5472 0
-463 -286 5472 0
940 -5473 0
-820 -5473 0
-940 820 5473 0
304 -5474 0
698 -5474 0
-304 -698 5474 0
-434 -5475 0
922 -5475 0
434 -922 5475 0
360 -5476 0
281 -5476 0
-360 -281 5476 0
712 -5477 0
781 -5477 0
-712 -781 5477 0
-104 -5478 0
702 -5478 0
104 -702 5478 0
949 -5479 0
595 -5479 0
-949 -595 5479 0
986 -5480 0
-574 -5480 0
-986 574 5480 0
-370 -5481 0
269 -5481 0
370 -269 5481 0
20 -5482 0
-263 -5482 0
-20 263 5482 0
88 -5483 0
-952 -5483 0
-88 952 5483 0
983 -5484 0
78 -5484 0
-983 -78 5484 0
822 -5485 0
204 -5485 0
-822 -204 5485 0
128 -5486 0
-544 -5486 0
-128 544 5486 0
-584 -5487 0
875 -5487 0
584 -875 5487 0
687 -5488 0
-961 -5488 0
-687 961 5488 0
77 -5489 0
122 -5489 0
-77 -122 5489 0
680 -5490 0
-534 -5490 0
-680 534 5490 0
736 -5491 0
-39 -5491 0
-736 39 5491 0
-296 -5492 0
33 -5492 0
296 -33 5492 0
-440 -5493 0
181 -5493 0
440 -181 5493 0
615 -5494 0
-295 -5494 0
-615 295 5494 0
429 -5495 0
-742 -5495 0
-429 742 5495 0
807 -5496 0
-172 -5496 0
-807 172 5496 0
-555 -5497 0
985 -5497 0
555 -985 5497 0
-498 -5498 0
41 -5498 0
498 -41 5498 0
-716 -5499 0
753 -5499 0
716 -753 5499 0
-480 -5500 0
543 -5500 0
480 -543 5500 0
-216 -5501 0
235 -5501 0
216 -235 5501 0
970 -5502 0
-223 -5502 0
-970 223 5502 0
452 -5503 0
-645 -5503 0
-452 645 5503 0
-394 -5504 0
803 -5504 0
394 -803 5504 0
-666 -5505 0
989 -5505 0
666 -989 5505 0
-843 -5506 0
330 -5506 0
843 -330 5506 0
76 -5507 0
-228 -5507 0
-76 228 5507 0
995 -5508 0
-319 -5508 0
-995 319 5508 0
-426 -5509 0
613 -5509 0
426 -613 5509 0
-481 -5510 0
654 -5510 0
481 -654 5510 0
168 -5511 0
-634 -5511 0
-168 634 5511 0
959 -5512 0
-437 -5512 0
-959 437 5512 0
212 -5513 0
-725 -5513 0
-212 725 5513 0
880 -5514 0
470 -5514 0
-880 -470 5514 0
773 -5515 0
-263 -5515 0
-773 263 5515 0
-978 -5516 0
556 -5516 0
978 -556 5516 0
584 -5517 0
-306 -5517 0
-584 306 5517 0
-556 -5518 0
195 -5518 0
556 -195 5518 0
-431 -5519 0
553 -5519 0
431 -553 5519 0
800 -5520 0
-587 -5520 0
-800 587 5520 0
142 -5521 0
-679 -5521 0
-142 679 5521 0
-816 -5522 0
801 -5522 0
816 -801 5522 0
987 -5523 0
297 -5523 0
-987 -297 5523 0
552 -5524 0
264 -5524 0
-552 -264 5524 0
-89 -5525 0
325 -5525 0
89 -325 5525 0
-938 -5526 0
33 -5526 0
938 -33 5526 0
-507 -5527 0
459 -5527 0
507 -459 5527 0
677 -5528 0
-308 -5528 0
-677 308 5528 0
53 -5529 0
818 -5529 0
-53 -818 5529 0
-243 -5530 0
202 -5530 0
243 -202 5530 0
-539 -5531 0
281 -5531 0
539 -281 5531 0
322 -5532 0
346 -5532 0
-322 -346 5532 0
-566 -5533 0
906 -5533 0
566 -906 5533 0
389 -5534 0
-759 -5534 0
-389 759 5534 0
808 -5535 0
586 -5535 0
-808 -586 5535 0
896 -5536 0
-223 -5536 0
-896 223 5536 0
47 -5537 0
836 -5537 0
-47 -836 5537 0
-633 -5538 0
297 -5538 0
633 -297 5538 0
-129 -5539 0
63 -5539 0
129 -63 5539 0
536 -5540 0
-35 -5540 0
-536 35 5540 0
917 -5541 0
-421 -5541 0
-917 421 5541 0
197 -5542 0
-76 -5542 0
-197 76 5542 0
478 -5543 0
-542 -5543 0
-478 542 5543 0
-848 -5544 0
143 -5544 0
848 -143 5544 0
256 -5545 0
-895 -5545 0
-256 895 5545 0
447 -5546 0
-842 -5546 0
-447 842 5546 0
-906 -5547 0
478 -5547 0
906 -478 5547 0
-360 -5548 0
577 -5548 0
360 -577 5548 0
756 -5549 0
209 -5549 0
-756 -209 5549 0
736 -5550 0
953 -5550 0
-736 -953 5550 0
-556 -5551 0
17 -5551 0
556 -17 5551 0
277 -5552 0
785 -5552 0
-277 -785 5552 0
-386 -5553 0
267 -5553 0
386 -267 5553 0
-546 -5554 0
579 -5554 0
546 -579 5554 0
-296 -5555 0
686 -5555 0
296 -686 5555 0
358 -5556 0
-338 -5556 0
-358 338 5556 0
-160 -5557 0
780 -5557 0
160 -780 5557 0
814 -5558 0
995 -5558 0
-814 -995 5558 0
-723 -5559 0
785 -5559 0
723 -785 5559 0
703 -5560 0
-341 -5560 0
-703 341 5560 0
879 -5561 0
-199 -5561 0
-879 199 5561 0
262 -5562 0
329 -5562 0
-262 -329 5562 0
520 -5563 0
489 -5563 0
-520 -489 5563 0
-858 -5564 0
308 -5564 0
858 -308 5564 0
-38 -5565 0
465 -5565 0
38 -465 5565 0
991 -5566 0
213 -5566 0
-991 -213 5566 0
48 -5567 0
-461 -5567 0
-48 461 5567 0
272 -5568 0
47 -5568 0
-272 -47 5568 0
368 -5569 0
-270 -5569 0
-368 270 5569 0
623 -5570 0
-809 -5570 0
-623 809 5570 0
380 -5571 0
-159 -5571 0
-380 159 5571 0
-722 -5572 0
766 -5572 0
722 -766 5572 0
336 -5573 0
315 -5573 0
-336 -315 5573 0
-41 -5574 0
337 -5574 0
41 -337 5574 0
-196 -5575 0
860 -5575 0
196 -860 5575 0
919 -5576 0
-282 -5576 0
-919 282 5576 0
576 -5577 0
433 -5577 0
-576 -433 5577 0
-664 -5578 0
761 -5578 0
664 -761 5578 0
-930 -5579 0
251 -5579 0
930 -251 5579 0
902 -5580 0
-479 -5580 0
-902 479 5580 0
-387 -5581 0
729 -5581 0
387 -729 5581 0
-958 -5582 0
137 -5582 0
958 -137 5582 0
-481 -5583 0
691 -5583 0
481 -691 5583 0
564 -5584 0
803 -5584 0
-564 -803 5584 0
728 -5585 0
165 -5585 0
-728 -165 5585 0
-115 -5586 0
365 -5586 0
115 -365 5586 0
196 -5587 0
-750 -5587 0
-196 750 5587 0
646 -5588 0
-455 -5588 0
-646 455 5588 0
-634 -5589 0
81 -5589 0
634 -81 5589 0
-317 -5590 0
129 -5590 0
317 -129 5590 0
-328 -5591 0
38 -5591 0
328 -38 5591 0
967 -5592 0
-194 -5592 0
-967 194 5592 0
207 -5593 0
-167 -5593 0
-207 167 5593 0
983 -5594 0
554 -5594 0
-983 -554 5594 0
-850 -5595 0
841 -5595 0
850 -841 5595 0
303 -5596 0
962 -5596 0
-303 -962 5596 0
-614 -5597 0
994 -5597 0
614 -994 5597 0
85 -5598 0
433 -5598 0
-85 -433 5598 0
336 -5599 0
-999 -5599 0
-336 999 5599 0
330 -5600 0
505 -5600 0
-330 -505 5600 0
144 -5601 0
468 -5601 0
-144 -468 5601 0
511 -5602 0
-718 -5602 0
-511 718 5602 0
440 -5603 0
364 -5603 0
-440 -364 5603 0
-594 -5604 0
892 -5604 0
594 -892 5604 0
111 -5605 0
-262 -5605 0
-111 262 5605 0
-659 -5606 0
571 -5606 0
659 -571 5606 0
99 -5607 0
-702 -5607 0
-99 702 5607 0
584 -5608 0
-397 -5608 0
-584 397 5608 0
236 -5609 0
658 -5609 0
-236 -658 5609 0
744 -5610 0
-554 -5610 0
-744 554 5610 0
767 -5611 0
316 -5611 0
-767 -316 5611 0
354 -5612 0
-87 -5612 0
-354 87 5612 0
653 -5613 0
243 -5613 0
-653 -243 5613 0
63 -5614 0
-734 -5614 0
-63 734 5614 0
-31 -5615 0
284 -5616 0
-223 -5616 0
-284 223 5616 0
252 -5617 0
-781 -5617 0
-252 781 5617 0
16 -5618 0
55 -5618 0
-16 -55 5618 0
-933 -5619 0
347 -5619 0
933 -347 5619 0
-210 -5620 0
285 -5620 0
210 -285 5620 0
-384 -5621 0
224 -5621 0
384 -224 5621 0
-816 -5622 0
413 -5622 0
816 -413 5622 0
632 -5623 0
-468 -5623 0
-632 468 5623 0
-98 -5624 0
529 -5624 0
98 -529 5624 0
-346 -5625 0
653 -5625 0
346 -653 5625 0
38 -5626 0
-907 -5626 0
-38 907 5626 0
-154 -5627 0
754 -5627 0
154 -754 5627 0
-163 -5628 0
449 -5628 0
163 -449 5628 0
-480 -5629 0
436 -5630 0
-549 -5630 0
-436 549 5630 0
-58 -5631 0
269 -5631 0
58 -269 5631 0
-865 -5632 0
668 -5632 0
865 -668 5632 0
500 -5633 0
-989 -5633 0
-500 989 5633 0
975 -5634 0
-118 -5634 0
-975 118 5634 0
469 -5635 0
665 -5635 0
-469 -665 5635 0
86 -5636 0
-531 -5636 0
-86 531 5636 0
844 -5637 0
-702 -5637 0
-844 702 5637 0
602 -5638 0
-807 -5638 0
-602 807 5638 0
845 -5639 0
-943 -5639 0
-845 943 5639 0
783 -5640 0
-987 -5640 0
-783 987 5640 0
-536 -5641 0
714 -5641 0
536 -714 5641 0
-424 -5642 0
510 -5642 0
424 -510 5642 0
-107 -5643 0
259 -5643 0
107 -259 5643 0
744 -5644 0
-15 -5644 0
-744 15 5644 0
-709 -5645 0
323 -5645 0
709 -323 5645 0
-552 -5646 0
518 -5646 0
552 -518 5646 0
512 -5647 0
831 -5647 0
-512 -831 5647 0
-958 -5648 0
65 -5648 0
958 -65 5648 0
-169 -5649 0
70 -5649 0
169 -70 5649 0
-701 -5650 0
217 -5650 0
701 -217 5650 0
180 -5651 0
809 -5651 0
-180 -809 5651 0
855 -5652 0
267 -5652 0
-855 -267 5652 0
-353 -5653 0
986 -5653 0
353 -986 5653 0
37 -5654 0
-524 -5654 0
-37 524 5654 0
683 -5655 0
946 -5655 0
-683 -946 5655 0
720 -5656 0
-612 -5656 0
-720 612 5656 0
48 -5657 0
523 -5657 0
-48 -523 5657 0
375 -5658 0
-628 -5658 0
-375 628 5658 0
143 -5659 0
-571 -5659 0
-143 571 5659 0
40 -5660 0
-925 -5660 0
-40 925 5660 0
923 -5661 0
361 -5661 0
-923 -361 5661 0
885 -5662 0
924 -5662 0
-885 -924 5662 0
-522 -5663 0
979 -5663 0
522 -979 5663 0
766 -5664 0
-414 -5664 0
-766 414 5664 0
256 -5665 0
-574 -5665 0
-256 574 5665 0
-240 -5666 0
288 -5666 0
240 -288 5666 0
759 -5667 0
350 -5667 0
-759 -350 5667 0
247 -5668 0
764 -5668 0
-247 -764 5668 0
326 -5669 0
873 -5669 0
-326 -873 5669 0
-520 -5670 0
263 -5670 0
520 -263 5670 0
448 -5671 0
-196 -5671 0
-448 196 5671 0
282 -5672 0
-255 -5672 0
-282 255 5672 0
-376 -5673 0
341 -5673 0
376 -341 5673 0
823 -5674 0
762 -5674 0
-823 -762 5674 0
-582 -5675 0
522 -5675 0
582 -522 5675 0
-275 -5676 0
122 -5676 0
275 -122 5676 0
-1 -5677 0
218 -5677 0
1 -218 5677 0
98 -5678 0
57 -5678 0
-98 -57 5678 0
447 -5679 0
333 -5679 0
-447 -333 5679 0
270 -5680 0
913 -5680 0
-270 -913 5680 0
943 -5681 0
350 -5681 0
-943 -350 5681 0
-769 -5682 0
601 -5682 0
769 -601 5682 0
8 -5683 0
860 -5683 0
-8 -860 5683 0
406 -5684 0
-670 -5684 0
-406 670 5684 0
822 -5685 0
956 -5685 0
-822 -956 5685 0
-842 -5686 0
971 -5686 0
842 -971 5686 0
604 -5687 0
937 -5687 0
-604 -937 5687 0
-665 -5688 0
372 -5688 0
665 -372 5688 0
-962 -5689 0
174 -5689 0
962 -174 5689 0
480 -5690 0
65 -5690 0
-480 -65 5690 0
-916 -5691 0
177 -5691 0
916 -177 5691 0
208 -5692 0
-418 -5692 0
-208 418 5692 0
350 -5693 0
-526 -5693 0
-350 526 5693 0
350 -5694 0
-157 -5694 0
-350 157 5694 0
648 -5695 0
-812 -5695 0
-648 812 5695 0
896 -5696 0
349 -5696 0
-896 -349 5696 0
7 -5697 0
-629 -5697 0
-7 629 5697 0
848 -5698 0
-509 -5698 0
-848 509 5698 0
967 -5699 0
-20 -5699 0
-967 20 5699 0
-621 -5700 0
370 -5700 0
621 -370 5700 0
887 -5701 0
-271 -5701 0
-887 271 5701 0
-551 -5702 0
969 -5702 0
551 -969 5702 0
78 -5703 0
394 -5703 0
-78 -394 5703 0
112 -5704 0
201 -5704 0
-112 -201 5704 0
935 -5705 0
-61 -5705 0
-935 61 5705 0
99 -5706 0
-774 -5706 0
-99 774 5706 0
87 -5707 0
-523 -5707 0
-87 523 5707 0
422 -5708 0
-980 -5708 0
-422 980 5708 0
750 -5709 0
666 -5709 0
-750 -666 5709 0
-826 -5710 0
19 -5710 0
826 -19 5710 0
992 -5711 0
-884 -5711 0
-992 884 5711 0
626 -5712 0
753 -5712 0
-626 -753 5712 0
564 -5713 0
-966 -5713 0
-564 966 5713 0
-888 -5714 0
395 -5714 0
888 -395 5714 0
-570 -5715 0
513 -5715 0
570 -513 5715 0
688 -5716 0
-468 -5716 0
-688 468 5716 0
237 -5717 0
-887 -5717 0
-237 887 5717 0
527 -5718 0
-829 -5718 0
-527 829 5718 0
588 -5719 0
-454 -5719 0
-588 454 5719 0
768 -5720 0
-253 -5720 0
-768 253 5720 0
-696 -5721 0
77 -5721 0
696 -77 5721 0
-948 -5722 0
417 -5722 0
948 -417 5722 0
-818 -5723 0
630 -5723 0
818 -630 5723 0
756 -5724 0
-589 -5724 0
-756 589 5724 0
-313 -5725 0
275 -5725 0
313 -275 5725 0
-61 -5726 0
459 -5726 0
61 -459 5726 0
-674 -5727 0
858 -5727 0
674 -858 5727 0
23 -5728 0
-715 -5728 0
-23 715 5728 0
-939 -5729 0
524 -5729 0
939 -524 5729 0
816 -5730 0
-685 -5730 0
-816 685 5730 0
-440 -5731 0
803 -5731 0
440 -803 5731 0
229 -5732 0
739 -5732 0
-229 -739 5732 0
719 -5733 0
-876 -5733 0
-719 876 5733 0
-66 -5734 0
165 -5734 0
66 -165 5734 0
223 -5735 0
644 -5735 0
-223 -644 5735 0
632 -5736 0
729 -5736 0
-632 -729 5736 0
618 -5737 0
586 -5737 0
-618 -586 5737 0
-889 -5738 0
770 -5738 0
889 -770 5738 0
527 -5739 0
-556 -5739 0
-527 556 5739 0
-616 -5740 0
527 -5740 0
616 -527 5740 0
328 -5741 0
127 -5741 0
-328 -127 5741 0
796 -5742 0
-358 -5742 0
-796 358 5742 0
703 -5743 0
-807 -5743 0
-703 807 5743 0
-322 -5744 0
873 -5744 0
322 -873 5744 0
318 -5745 0
132 -5745 0
-318 -132 5745 0
941 -5746 0
-774 -5746 0
-941 774 5746 0
91 -5747 0
-175 -5747 0
-91 175 5747 0
430 -5748 0
-931 -5748 0
-430 931 5748 0
536 -5749 0
410 -5749 0
-536 -410 5749 0
560 -5750 0
-110 -5750 0
-560 110 5750 0
-377 -5751 0
503 -5751 0
377 -503 5751 0
338 -5752 0
-903 -5752 0
-338 903 5752 0
352 -5753 0
-711 -5753 0
-352 711 5753 0
136 -5754 0
-710 -5754 0
-136 710 5754 0
957 -5755 0
-45 -5755 0
-957 45 5755 0
727 -5756 0
-339 -5756 0
-727 339 5756 0
-361 -5757 0
610 -5757 0
361 -610 5757 0
312 -5758 0
222 -5758 0
-312 -222 5758 0
795 -5759 0
617 -5759 0
-795 -617 5759 0
276 -5760 0
-967 -5760 0
-276 967 5760 0
685 -5761 0
-428 -5761 0
-685 428 5761 0
184 -5762 0
934 -5762 0
-184 -934 5762 0
-933 -5763 0
851 -5763 0
933 -851 5763 0
-267 -5764 0
235 -5764 0
267 -235 5764 0
174 -5765 0
564 -5765 0
-174 -564 5765 0
639 -5766 0
941 -5766 0
-639 -941 5766 0
270 -5767 0
-107 -5767 0
-270 107 5767 0
-347 -5768 0
731 -5768 0
347 -731 5768 0
-250 -5769 0
233 -5769 0
250 -233 5769 0
-329 -5770 0
757 -5770 0
329 -757 5770 0
-57 -5771 0
494 -5771 0
57 -494 5771 0
-980 -5772 0
578 -5772 0
980 -578 5772 0
308 -5773 0
241 -5773 0
-308 -241 5773 0
735 -5774 0
-413 -5774 0
-735 413 5774 0
-610 -5775 0
490 -5775 0
610 -490 5775 0
21 -5776 0
-837 -5776 0
-21 837 5776 0
-997 -5777 0
737 -5777 0
997 -737 5777 0
960 -5778 0
556 -5778 0
-960 -556 5778 0
206 -5779 0
982 -5779 0
-206 -982 5779 0
31 -5780 0
-956 -5780 0
-31 956 5780 0
146 -5781 0
521 -5781 0
-146 -521 5781 0
13 -5782 0
-366 -5782 0
-13 366 5782 0
318 -5783 0
634 -5783 0
-318 -634 5783 0
-587 -5784 0
716 -5784 0
587 -716 5784 0
40 -5785 0
953 -5785 0
-40 -953 5785 0
-760 -5786 0
695 -5786 0
760 -695 5786 0
550 -5787 0
-93 -5787 0
-550 93 5787 0
-49 -5788 0
123 -5788 0
49 -123 5788 0
-480 -5789 0
939 -5789 0
480 -939 5789 0
319 -5790 0
316 -5790 0
-319 -316 5790 0
-488 -5791 0
959 -5791 0
488 -959 5791 0
867 -5792 0
9 -5792 0
-867 -9 5792 0
709 -5793 0
-459 -5793 0
-709 459 5793 0
671 -5794 0
205 -5794 0
-671 -205 5794 0
134 -5795 0
-338 -5795 0
-134 338 5795 0
408 -5796 0
289 -5796 0
-408 -289 5796 0
694 -5797 0
829 -5797 0
-694 -829 5797 0
-342 -5798 0
353 -5798 0
342 -353 5798 0
-384 -5799 0
568 -5799 0
384 -568 5799 0
-690 -5800 0
189 -5800 0
690 -189 5800 0
575 -5801 0
100 -5801 0
-575 -100 5801 0
702 -5802 0
-967 -5802 0
-702 967 5802 0
743 -5803 0
988 -5803 0
-743 -988 5803 0
327 -5804 0
372 -5804 0
-327 -372 5804 0
-104 -5805 0
155 -5805 0
104 -155 5805 0
83 -5806 0
178 -5806 0
-83 -178 5806 0
-170 -5807 0
598 -5807 0
170 -598 5807 0
404 -5808 0
444 -5808 0
-404 -444 5808 0
284 -5809 0
-502 -5809 0
-284 502 5809 0
997 -5810 0
-726 -5810 0
-997 726 5810 0
-121 -5811 0
925 -5811 0
121 -925 5811 0
414 -5812 0
-831 -5812 0
-414 831 5812 0
-299 -5813 0
204 -5813 0
299 -204 5813 0
715 -5814 0
907 -5814 0
-715 -907 5814 0
-216 -5815 0
381 -5815 0
216 -381 5815 0
830 -5816 0
-532 -5816 0
-830 532 5816 0
471 -5817 0
524 -5817 0
-471 -524 5817 0
396 -5818 0
-535 -5818 0
-396 535 5818 0
112 -5819 0
-597 -5819 0
-112 597 5819 0
877 -5820 0
-252 -5820 0
-877 252 5820 0
727 -5821 0
-919 -5821 0
-727 919 5821 0
806 -5822 0
494 -5822 0
-806 -494 5822 0
487 -5823 0
-932 -5823 0
-487 932 5823 0
943 -5824 0
-209 -5824 0
-943 209 5824 0
227 -5825 0
219 -5825 0
-227 -219 5825 0
558 -5826 0
925 -5826 0
-558 -925 5826 0
616 -5827 0
-325 -5827 0
-616 325 5827 0
184 -5828 0
-521 -5828 0
-184 521 5828 0
650 -5829 0
562 -5829 0
-650 -562 5829 0
661 -5830 0
-327 -5830 0
-661 327 5830 0
-549 -5831 0
666 -5831 0
549 -666 5831 0
-931 -5832 0
491 -5832 0
931 -491 5832 0
-723 -5833 0
955 -5833 0
723 -955 5833 0
437 -5834 0
-260 -5834 0
-437 260 5834 0
-168 -5835 0
190 -5835 0
168 -190 5835 0
607 -5836 0
620 -5836 0
-607 -620 5836 0
-195 -5837 0
490 -5837 0
195 -490 5837 0
-611 -5838 0
113 -5838 0
611 -113 5838 0
23 -5839 0
691 -5839 0
-23 -691 5839 0
-924 -5840 0
91 -5840 0
924 -91 5840 0
308 -5841 0
35 -5841 0
-308 -35 5841 0
-165 -5842 0
83 -5842 0
165 -83 5842 0
554 -5843 0
353 -5843 0
-554 -353 5843 0
-569 -5844 0
491 -5844 0
569 -491 5844 0
564 -5845 0
-349 -5845 0
-564 349 5845 0
944 -5846 0
-699 -5846 0
-944 699 5846 0
-370 -5847 0
510 -5847 0
370 -510 5847 0
257 -5848 0
-847 -5848 0
-257 847 5848 0
839 -5849 0
101 -5849 0
-839 -101 5849 0
254 -5850 0
-507 -5850 0
-254 507 5850 0
88 -5851 0
-95 -5851 0
-88 95 5851 0
-563 -5852 0
353 -5852 0
563 -353 5852 0
350 -5853 0
300 -5853 0
-350 -300 5853 0
696 -5854 0
-949 -5854 0
-696 949 5854 0
731 -5855 0
697 -5855 0
-731 -697 5855 0
-630 -5856 0
594 -5856 0
630 -594 5856 0
344 -5857 0
673 -5857 0
-344 -673 5857 0
32 -5858 0
-305 -5858 0
-32 305 5858 0
-121 -5859 0
425 -5859 0
121 -425 5859 0
-201 -5860 0
773 -5860 0
201 -773 5860 0
215 -5861 0
836 -5861 0
-215 -836 5861 0
-970 -5862 0
181 -5862 0
970 -181 5862 0
374 -5863 0
694 -5863 0
-374 -694 5863 0
-316 -5864 0
266 -5864 0
316 -266 5864 0
822 -5865 0
-215 -5865 0
-822 215 5865 0
-574 -5866 0
1 -5866 0
574 -1 5866 0
824 -5867 0
-615 -5867 0
-824 615 5867 0
864 -5868 0
-283 -5868 0
-864 283 5868 0
952 -5869 0
911 -5869 0
-952 -911 5869 0
-213 -5870 0
425 -5870 0
213 -425 5870 0
-914 -5871 0
465 -5871 0
914 -465 5871 0
118 -5872 0
529 -5872 0
-118 -529 5872 0
-818 -5873 0
493 -5873 0
818 -493 5873 0
69 -5874 0
330 -5874 0
-69 -330 5874 0
344 -5875 0
916 -5875 0
-344 -916 5875 0
632 -5876 0
708 -5876 0
-632 -708 5876 0
720 -5877 0
39 -5877 0
-720 -39 5877 0
974 -5878 0
924 -5878 0
-974 -924 5878 0
46 -5879 0
-698 -5879 0
-46 698 5879 0
176 -5880 0
655 -5880 0
-176 -655 5880 0
562 -5881 0
282 -5881 0
-562 -282 5881 0
815 -5882 0
93 -5882 0
-815 -93 5882 0
72 -5883 0
-437 -5883 0
-72 437 5883 0
-261 -5884 0
961 -5884 0
261 -961 5884 0
347 -5885 0
-814 -5885 0
-347 814 5885 0
656 -5886 0
997 -5886 0
-656 -997 5886 0
321 -5887 0
729 -5887 0
-321 -729 5887 0
326 -5888 0
449 -5888 0
-326 -449 5888 0
-27 -5889 0
322 -5889 0
27 -322 5889 0
-170 -5890 0
53 -5890 0
170 -53 5890 0
-112 -5891 0
781 -5891 0
112 -781 5891 0
124 -5892 0
-389 -5892 0
-124 389 5892 0
-979 -5893 0
123 -5893 0
979 -123 5893 0
496 -5894 0
844 -5894 0
-496 -844 5894 0
389 -5895 0
410 -5895 0
-389 -410 5895 0
631 -5896 0
314 -5896 0
-631 -314 5896 0
-242 -5897 0
937 -5897 0
242 -937 5897 0
902 -5898 0
698 -5898 0
-902 -698 5898 0
-856 -5899 0
860 -5899 0
856 -860 5899 0
-612 -5900 0
219 -5900 0
612 -219 5900 0
-345 -5901 0
844 -5901 0
345 -844 5901 0
367 -5902 0
-114 -5902 0
-367 114 5902 0
176 -5903 0
-802 -5903 0
-176 802 5903 0
710 -5904 0
-86 -5904 0
-710 86 5904 0
559 -5905 0
791 -5905 0
-559 -791 5905 0
663 -5906 0
578 -5906 0
-663 -578 5906 0
-601 -5907 0
999 -5907 0
601 -999 5907 0
373 -5908 0
34 -5908 0
-373 -34 5908 0
688 -5909 0
540 -5909 0
-688 -540 5909 0
-473 -5910 0
87 -5910 0
473 -87 5910 0
-896 -5911 0
561 -5911 0
896 -561 5911 0
679 -5912 0
108 -5912 0
-679 -108 5912 0
-634 -5913 0
354 -5913 0
634 -354 5913 0
-243 -5914 0
523 -5914 0
243 -523 5914 0
386 -5915 0
266 -5915 0
-386 -266 5915 0
691 -5916 0
115 -5916 0
-691 -115 5916 0
479 -5917 0
-90 -5917 0
-479 90 5917 0
132 -5918 0
-998 -5918 0
-132 998 5918 0
878 -5919 0
916 -5919 0
-878 -916 5919 0
339 -5920 0
985 -5920 0
-339 -985 5920 0
416 -5921 0
605 -5921 0
-416 -605 5921 0
710 -5922 0
-717 -5922 0
-710 717 5922 0
926 -5923 0
225 -5923 0
-926 -225 5923 0
-289 -5924 0
615 -5924 0
289 -615 5924 0
-320 -5925 0
161 -5925 0
320 -161 5925 0
-634 -5926 0
493 -5926 0
634 -493 5926 0
-208 -5927 0
520 -5927 0
208 -520 5927 0
-426 -5928 0
107 -5928 0
426 -107 5928 0
167 -5929 0
-253 -5929 0
-167 253 5929 0
283 -5930 0
-879 -5930 0
-283 879 5930 0
-66 -5931 0
250 -5931 0
66 -250 5931 0
-281 -5932 0
219 -5932 0
281 -219 5932 0
-467 -5933 0
737 -5933 0
467 -737 5933 0
983 -5934 0
527 -5934 0
-983 -527 5934 0
-168 -5935 0
443 -5935 0
168 -443 5935 0
-433 -5936 0
198 -5936 0
433 -198 5936 0
639 -5937 0
522 -5937 0
-639 -522 5937 0
487 -5938 0
-139 -5938 0
-487 139 5938 0
583 -5939 0
-362 -5939 0
-583 362 5939 0
699 -5940 0
290 -5940 0
-699 -290 5940 0
536 -5941 0
85 -5941 0
-536 -85 5941 0
-415 -5942 0
177 -5942 0
415 -177 5942 0
663 -5943 0
-855 -5943 0
-663 855 5943 0
52 -5944 0
-718 -5944 0
-52 718 5944 0
800 -5945 0
-252 -5945 0
-800 252 5945 0
224 -5946 0
-598 -5946 0
-224 598 5946 0
-34 -5947 0
924 -5947 0
34 -924 5947 0
462 -5948 0
473 -5948 0
-462 -473 5948 0
-720 -5949 0
19 -5949 0
720 -19 5949 0
-24 -5950 0
159 -5950 0
24 -159 5950 0
904 -5951 0
9 -5951 0
-904 -9 5951 0
48 -5952 0
172 -5952 0
-48 -172 5952 0
653 -5953 0
-612 -5953 0
-653 612 5953 0
125 -5954 0
-662 -5954 0
-125 662 5954 0
-488 -5955 0
828 -5955 0
488 -828 5955 0
-440 -5956 0
470 -5956 0
440 -470 5956 0
-654 -5957 0
425 -5957 0
654 -425 5957 0
616 -5958 0
326 -5958 0
-616 -326 5958 0
-102 -5959 0
585 -5959 0
102 -585 5959 0
-65 -5960 0
649 -5960 0
65 -649 5960 0
436 -5961 0
-334 -5961 0
-436 334 5961 0
895 -5962 0
-993 -5962 0
-895 993 5962 0
423 -5963 0
-805 -5963 0
-423 805 5963 0
117 -5964 0
-447 -5964 0
-117 447 5964 0
735 -5965 0
-118 -5965 0
-735 118 5965 0
191 -5966 0
438 -5966 0
-191 -438 5966 0
189 -5967 0
258 -5967 0
-189 -258 5967 0
45 -5968 0
940 -5968 0
-45 -940 5968 0
-829 -5969 0
834 -5969 0
829 -834 5969 0
-689 -5970 0
115 -5970 0
689 -115 5970 0
-616 -5971 0
77 -5971 0
616 -77 5971 0
407 -5972 0
42 -5972 0
-407 -42 5972 0
864 -5973 0
-791 -5973 0
-864 791 5973 0
803 -5974 0
298 -5974 0
-803 -298 5974 0
326 -5975 0
-277 -5975 0
-326 277 5975 0
-576 -5976 0
961 -5976 0
576 -961 5976 0
493 -5977 0
884 -5977 0
-493 -884 5977 0
-169 -5978 0
178 -5978 0
169 -178 5978 0
-692 -5979 0
252 -5979 0
692 -252 5979 0
-476 -5980 0
956 -5980 0
476 -956 5980 0
551 -5981 0
-198 -5981 0
-551 198 5981 0
-232 -5982 0
510 -5982 0
232 -510 5982 0
-632 -5983 0
337 -5983 0
632 -337 5983 0
750 -5984 0
241 -5984 0
-750 -241 5984 0
-19 -5985 0
609 -5985 0
19 -609 5985 0
633 -5986 0
-343 -5986 0
-633 343 5986 0
-979 -5987 0
772 -5987 0
979 -772 5987 0
27 -5988 0
-95 -5988 0
-27 95 5988 0
-940 -5989 0
433 -5989 0
940 -433 5989 0
-61 -5990 0
610 -5990 0
61 -610 5990 0
-925 -5991 0
793 -5991 0
925 -793 5991 0
-986 -5992 0
700 -5992 0
986 -700 5992 0
36 -5993 0
-309 -5993 0
-36 309 5993 0
370 -5994 0
-983 -5994 0
-370 983 5994 0
-854 -5995 0
33 -5995 0
854 -33 5995 0
-926 -5996 0
474 -5996 0
926 -474 5996 0
165 -5997 0
353 -5997 0
-165 -353 5997 0
709 -5998 0
76 -5998 0
-709 -76 5998 0
590 -5999 0
365 -5999 0
-590 -365 5999 0
760 -6000 0
990 -6000 0
-760 -990 6000 0
7 -6001 0
947 -6001 0
-7 -947 6001 0
103 -6002 0
791 -6002 0
-103 -791 6002 0
595 -6003 0
-638 -6003 0
-595 638 6003 0
469 -6004 0
-102 -6004 0
-469 102 6004 0
-124 -6005 0
532 -6005 0
124 -532 6005 0
-331 -6006 0
905 -6006 0
331 -905 6006 0
-808 -6007 0
446 -6007 0
808 -446 6007 0
667 -6008 0
906 -6008 0
-667 -906 6008 0
336 -6009 0
-26 -6009 0
-336 26 6009 0
-152 -6010 0
94 -6010 0
152 -94 6010 0
-350 -6011 0
474 -6011 0
350 -474 6011 0
960 -6012 0
869 -6012 0
-960 -869 6012 0
248 -6013 0
-732 -6013 0
-248 732 6013 0
-730 -6014 0
229 -6014 0
730 -229 6014 0
56 -6015 0
535 -6015 0
-56 -535 6015 0
42 -6016 0
-230 -6016 0
-42 230 6016 0
-195 -6017 0
60 -6017 0
195 -60 6017 0
-96 -6018 0
645 -6018 0
96 -645 6018 0
-337 -6019 0
308 -6019 0
337 -308 6019 0
123 -6020 0
-79 -6020 0
-123 79 6020 0
328 -6021 0
13 -6021 0
-328 -13 6021 0
-146 -6022 0
821 -6022 0
146 -821 6022 0
980 -6023 0
515 -6023 0
-980 -515 6023 0
896 -6024 0
-346 -6024 0
-896 346 6024 0
734 -6025 0
-439 -6025 0
-734 439 6025 0
-268 -6026 0
593 -6026 0
268 -593 6026 0
616 -6027 0
-730 -6027 0
-616 730 6027 0
632 -6028 0
233 -6028 0
-632 -233 6028 0
699 -6029 0
681 -6029 0
-699 -681 6029 0
744 -6030 0
378 -6030 0
-744 -378 6030 0
554 -6031 0
865 -6031 0
-554 -865 6031 0
723 -6032 0
-358 -6032 0
-723 358 6032 0
958 -6033 0
-381 -6033 0
-958 381 6033 0
429 -6034 0
329 -6034 0
-429 -329 6034 0
784 -6035 0
53 -6035 0
-784 -53 6035 0
686 -6036 0
-260 -6036 0
-686 260 6036 0
-64 -6037 0
349 -6037 0
64 -349 6037 0
814 -6038 0
588 -6038 0
-814 -588 6038 0
440 -6039 0
-485 -6039 0
-440 485 6039 0
936 -6040 0
-871 -6040 0
-936 871 6040 0
-846 -6041 0
113 -6041 0
846 -113 6041 0
-188 -6042 0
825 -6042 0
188 -825 6042 0
831 -6043 0
614 -6043 0
-831 -614 6043 0
-942 -6044 0
817 -6044 0
942 -817 6044 0
-445 -6045 0
905 -6045 0
445 -905 6045 0
344 -6046 0
998 -6046 0
-344 -998 6046 0
392 -6047 0
108 -6047 0
-392 -108 6047 0
-763 -6048 0
500 -6048 0
763 -500 6048 0
936 -6049 0
449 -6049 0
-936 -449 6049 0
600 -6050 0
590 -6050 0
-600 -590 6050 0
-976 -6051 0
628 -6051 0
976 -628 6051 0
34 -6052 0
169 -6052 0
-34 -169 6052 0
991 -6053 0
-921 -6053 0
-991 921 6053 0
-90 -6054 0
925 -6054 0
90 -925 6054 0
54 -6055 0
140 -6055 0
-54 -140 6055 0
-635 -6056 0
195 -6056 0
635 -195 6056 0
152 -6057 0
-137 -6057 0
-152 137 6057 0
-153 -6058 0
628 -6058 0
153 -628 6058 0
963 -6059 0
210 -6059 0
-963 -210 6059 0
-59 -6060 0
658 -6060 0
59 -658 6060 0
647 -6061 0
-126 -6061 0
-647 126 6061 0
240 -6062 0
685 -6062 0
-240 -685 6062 0
-90 -6063 0
554 -6063 0
90 -554 6063 0
16 -6064 0
-76 -6064 0
-16 76 6064 0
195 -6065 0
129 -6065 0
-195 -129 6065 0
605 -6066 0
187 -6066 0
-605 -187 6066 0
453 -6067 0
853 -6067 0
-453 -853 6067 0
765 -6068 0
66 -6068 0
-765 -66 6068 0
216 -6069 0
-569 -6069 0
-216 569 6069 0
-126 -6070 0
889 -6070 0
126 -889 6070 0
-992 -6071 0
844 -6071 0
992 -844 6071 0
471 -6072 0
721 -6072 0
-471 -721 6072 0
655 -6073 0
346 -6073 0
-655 -346 6073 0
32 -6074 0
-610 -6074 0
-32 610 6074 0
684 -6075 0
74 -6075 0
-684 -74 6075 0
630 -6076 0
716 -6076 0
-630 -716 6076 0
174 -6077 0
-779 -6077 0
-174 779 6077 0
85 -6078 0
-126 -6078 0
-85 126 6078 0
-204 -6079 0
604 -6079 0
204 -604 6079 0
771 -6080 0
987 -6080 0
-771 -987 6080 0
336 -6081 0
-180 -6081 0
-336 180 6081 0
800 -6082 0
950 -6082 0
-800 -950 6082 0
-928 -6083 0
599 -6083 0
928 -599 6083 0
-616 -6084 0
384 -6084 0
616 -384 6084 0
-550 -6085 0
81 -6085 0
550 -81 6085 0
611 -6086 0
-87 -6086 0
-611 87 6086 0
31 -6087 0
205 -6087 0
-31 -205 6087 0
60 -6088 0
842 -6088 0
-60 -842 6088 0
-244 -6089 0
834 -6089 0
244 -834 6089 0
950 -6090 0
-627 -6090 0
-950 627 6090 0
478 -6091 0
58 -6091 0
-478 -58 6091 0
292 -6092 0
298 -6092 0
-292 -298 6092 0
-880 -6093 0
430 -6093 0
880 -430 6093 0
583 -6094 0
147 -6094 0
-583 -147 6094 0
655 -6095 0
-909 -6095 0
-655 909 6095 0
-176 -6096 0
491 -6096 0
176 -491 6096 0
704 -6097 0
-741 -6097 0
-704 741 6097 0
503 -6098 0
-261 -6098 0
-503 261 6098 0
-336 -6099 0
359 -6099 0
336 -359 6099 0
583 -6100 0
-885 -6100 0
-583 885 6100 0
336 -6101 0
-36 -6101 0
-336 36 6101 0
382 -6102 0
37 -6102 0
-382 -37 6102 0
526 -6103 0
-510 -6103 0
-526 510 6103 0
239 -6104 0
732 -6104 0
-239 -732 6104 0
69 -6105 0
-165 -6105 0
-69 165 6105 0
955 -6106 0
-910 -6106 0
-955 910 6106 0
536 -6107 0
-965 -6107 0
-536 965 6107 0
-209 -6108 0
475 -6108 0
209 -475 6108 0
-557 -6109 0
730 -6109 0
557 -730 6109 0
142 -6110 0
-547 -6110 0
-142 547 6110 0
927 -6111 0
850 -6111 0
-927 -850 6111 0
349 -6112 0
-956 -6112 0
-349 956 6112 0
-133 -6113 0
410 -6113 0
133 -410 6113 0
-897 -6114 0
300 -6114 0
897 -300 6114 0
503 -6115 0
965 -6115 0
-503 -965 6115 0
630 -6116 0
-82 -6116 0
-630 82 6116 0
904 -6117 0
-878 -6117 0
-904 878 6117 0
750 -6118 0
109 -6118 0
-750 -109 6118 0
-138 -6119 0
913 -6119 0
138 -913 6119 0
146 -6120 0
-790 -6120 0
-146 790 6120 0
511 -6121 0
-787 -6121 0
-511 787 6121 0
48 -6122 0
-242 -6122 0
-48 242 6122 0
32 -6123 0
-709 -6123 0
-32 709 6123 0
693 -6124 0
513 -6124 0
-693 -513 6124 0
-30 -6125 0
905 -6125 0
30 -905 6125 0
-586 -6126 0
866 -6126 0
586 -866 6126 0
-681 -6127 0
75 -6127 0
681 -75 6127 0
575 -6128 0
299 -6128 0
-575 -299 6128 0
750 -6129 0
561 -6129 0
-750 -561 6129 0
367 -6130 0
-716 -6130 0
-367 716 6130 0
-872 -6131 0
276 -6131 0
872 -276 6131 0
-968 -6132 0
420 -6132 0
968 -420 6132 0
764 -6133 0
529 -6133 0
-764 -529 6133 0
-632 -6134 0
9 -6134 0
632 -9 6134 0
928 -6135 0
83 -6135 0
-928 -83 6135 0
599 -6136 0
497 -6136 0
-599 -497 6136 0
653 -6137 0
-975 -6137 0
-653 975 6137 0
212 -6138 0
249 -6138 0
-212 -249 6138 0
-760 -6139 0
980 -6139 0
760 -980 6139 0
718 -6140 0
321 -6140 0
-718 -321 6140 0
-810 -6141 0
740 -6141 0
810 -740 6141 0
533 -6142 0
-335 -6142 0
-533 335 6142 0
697 -6143 0
-887 -6143 0
-697 887 6143 0
374 -6144 0
621 -6144 0
-374 -621 6144 0
-28 -6145 0
777 -6145 0
28 -777 6145 0
-688 -6146 0
425 -6146 0
688 -425 6146 0
-720 -6147 0
546 -6147 0
720 -546 6147 0
613 -6148 0
537 -6148 0
-613 -537 6148 0
-589 -6149 0
474 -6149 0
589 -474 6149 0
894 -6150 0
-437 -6150 0
-894 437 6150 0
-932 -6151 0
771 -6151 0
932 -771 6151 0
-435 -6152 0
892 -6152 0
435 -892 6152 0
895 -6153 0
743 -6153 0
-895 -743 6153 0
926 -6154 0
-114 -6154 0
-926 114 6154 0
580 -6155 0
268 -6155 0
-580 -268 6155 0
791 -6156 0
-420 -6156 0
-791 420 6156 0
-726 -6157 0
273 -6157 0
726 -273 6157 0
469 -6158 0
706 -6158 0
-469 -706 6158 0
-592 -6159 0
268 -6159 0
592 -268 6159 0
-816 -6160 0
533 -6160 0
816 -533 6160 0
302 -6161 0
782 -6161 0
-302 -782 6161 0
968 -6162 0
-476 -6162 0
-968 476 6162 0
-264 -6163 0
142 -6163 0
264 -142 6163 0
45 -6164 0
859 -6164 0
-45 -859 6164 0
848 -6165 0
885 -6165 0
-848 -885 6165 0
332 -6166 0
315 -6166 0
-332 -315 6166 0
-443 -6167 0
987 -6167 0
443 -987 6167 0
-12 -6168 0
281 -6168 0
12 -281 6168 0
327 -6169 0
-866 -6169 0
-327 866 6169 0
190 -6170 0
-510 -6170 0
-190 510 6170 0
-177 -6171 0
665 -6171 0
177 -665 6171 0
-761 -6172 0
532 -6172 0
761 -532 6172 0
872 -6173 0
-434 -6173 0
-872 434 6173 0
4 -6174 0
763 -6174 0
-4 -763 6174 0
899 -6175 0
201 -6175 0
-899 -201 6175 0
583 -6176 0
324 -6176 0
-583 -324 6176 0
57 -6177 0
937 -6177 0
-57 -937 6177 0
248 -6178 0
662 -6178 0
-248 -662 6178 0
911 -6179 0
-877 -6179 0
-911 877 6179 0
214 -6180 0
860 -6180 0
-214 -860 6180 0
239 -6181 0
333 -6181 0
-239 -333 6181 0
-468 -6182 0
820 -6182 0
468 -820 6182 0
-827 -6183 0
425 -6183 0
827 -425 6183 0
383 -6184 0
-762 -6184 0
-383 762 6184 0
-72 -6185 0
360 -6185 0
72 -360 6185 0
-769 -6186 0
158 -6186 0
769 -158 6186 0
207 -6187 0
-28 -6187 0
-207 28 6187 0
312 -6188 0
730 -6188 0
-312 -730 6188 0
-474 -6189 0
444 -6189 0
474 -444 6189 0
-516 -6190 0
683 -6190 0
516 -683 6190 0
739 -6191 0
-917 -6191 0
-739 917 6191 0
683 -6192 0
-742 -6192 0
-683 742 6192 0
984 -6193 0
-876 -6193 0
-984 876 6193 0
456 -6194 0
-774 -6194 0
-456 774 6194 0
-346 -6195 0
237 -6195 0
346 -237 6195 0
-161 -6196 0
723 -6196 0
161 -723 6196 0
872 -6197 0
625 -6197 0
-872 -625 6197 0
104 -6198 0
-675 -6198 0
-104 675 6198 0
283 -6199 0
969 -6199 0
-283 -969 6199 0
204 -6200 0
827 -6200 0
-204 -827 6200 0
15 -6201 0
275 -6201 0
-15 -275 6201 0
-811 -6202 0
3 -6202 0
811 -3 6202 0
303 -6203 0
948 -6203 0
-303 -948 6203 0
-465 -6204 0
365 -6204 0
465 -365 6204 0
392 -6205 0
-739 -6205 0
-392 739 6205 0
-83 -6206 0
260 -6206 0
83 -260 6206 0
-914 -6207 0
421 -6207 0
914 -421 6207 0
616 -6208 0
-942 -6208 0
-616 942 6208 0
124 -6209 0
-548 -6209 0
-124 548 6209 0
-792 -6210 0
796 -6210 0
792 -796 6210 0
190 -6211 0
930 -6211 0
-190 -930 6211 0
976 -6212 0
-364 -6212 0
-976 364 6212 0
976 -6213 0
733 -6213 0
-976 -733 6213 0
731 -6214 0
411 -6214 0
-731 -411 6214 0
-35 -6215 0
525 -6215 0
35 -525 6215 0
349 -6216 0
867 -6216 0
-349 -867 6216 0
159 -6217 0
-521 -6217 0
-159 521 6217 0
641 -6218 0
-983 -6218 0
-641 983 6218 0
223 -6219 0
921 -6219 0
-223 -921 6219 0
800 -6220 0
146 -6220 0
-800 -146 6220 0
-464 -6221 0
911 -6221 0
464 -911 6221 0
-45 -6222 0
553 -6222 0
45 -553 6222 0
407 -6223 0
299 -6223 0
-407 -299 6223 0
551 -6224 0
990 -6224 0
-551 -990 6224 0
199 -6225 0
972 -6225 0
-199 -972 6225 0
532 -6226 0
-437 -6226 0
-532 437 6226 0
973 -6227 0
956 -6227 0
-973 -956 6227 0
-530 -6228 0
508 -6228 0
530 -508 6228 0
701 -6229 0
49 -6229 0
-701 -49 6229 0
539 -6230 0
963 -6230 0
-539 -963 6230 0
-548 -6231 0
113 -6231 0
548 -113 6231 0
-963 -6232 0
161 -6232 0
963 -161 6232 0
173 -6233 0
59 -6233 0
-173 -59 6233 0
573 -6234 0
956 -6234 0
-573 -956 6234 0
-602 -6235 0
82 -6235 0
602 -82 6235 0
728 -6236 0
133 -6236 0
-728 -133 6236 0
543 -6237 0
150 -6237 0
-543 -150 6237 0
572 -6238 0
-590 -6238 0
-572 590 6238 0
439 -6239 0
839 -6239 0
-439 -839 6239 0
-605 -6240 0
993 -6240 0
605 -993 6240 0
-872 -6241 0
530 -6241 0
872 -530 6241 0
7 -6242 0
699 -6242 0
-7 -699 6242 0
215 -6243 0
-389 -6243 0
-215 389 6243 0
-942 -6244 0
329 -6244 0
942 -329 6244 0
-970 -6245 0
612 -6245 0
970 -612 6245 0
-267 -6246 0
308 -6246 0
267 -308 6246 0
974 -6247 0
411 -6247 0
-974 -411 6247 0
826 -6248 0
666 -6248 0
-826 -666 6248 0
165 -6249 0
-639 -6249 0
-165 639 6249 0
358 -6250 0
-191 -6250 0
-358 191 6250 0
972 -6251 0
-37 -6251 0
-972 37 6251 0
440 -6252 0
342 -6252 0
-440 -342 6252 0
135 -6253 0
-882 -6253 0
-135 882 6253 0
763 -6254 0
946 -6254 0
-763 -946 6254 0
933 -6255 0
660 -6255 0
-933 -660 6255 0
765 -6256 0
-396 -6256 0
-765 396 6256 0
-505 -6257 0
795 -6257 0
505 -795 6257 0
-113 -6258 0
986 -6258 0
113 -986 6258 0
968 -6259 0
-684 -6259 0
-968 684 6259 0
463 -6260 0
-92 -6260 0
-463 92 6260 0
-405 -6261 0
329 -6261 0
405 -329 6261 0
944 -6262 0
292 -6262 0
-944 -292 6262 0
183 -6263 0
-729 -6263 0
-183 729 6263 0
840 -6264 0
398 -6264 0
-840 -398 6264 0
366 -6265 0
-940 -6265 0
-366 940 6265 0
-458 -6266 0
809 -6266 0
458 -809 6266 0
702 -6267 0
626 -6267 0
-702 -626 6267 0
464 -6268 0
-596 -6268 0
-464 596 6268 0
172 -6269 0
523 -6269 0
-172 -523 6269 0
613 -6270 0
-647 -6270 0
-613 647 6270 0
101 -6271 0
-357 -6271 0
-101 357 6271 0
-748 -6272 0
274 -6272 0
748 -274 6272 0
453 -6273 0
-903 -6273 0
-453 903 6273 0
624 -6274 0
491 -6274 0
-624 -491 6274 0
301 -6275 0
275 -6275 0
-301 -275 6275 0
-845 -6276 0
810 -6276 0
845 -810 6276 0
864 -6277 0
-666 -6277 0
-864 666 6277 0
32 -6278 0
-785 -6278 0
-32 785 6278 0
-569 -6279 0
353 -6279 0
569 -353 6279 0
342 -6280 0
-221 -6280 0
-342 221 6280 0
-441 -6281 0
677 -6281 0
441 -677 6281 0
308 -6282 0
866 -6282 0
-308 -866 6282 0
96 -6283 0
846 -6283 0
-96 -846 6283 0
-524 -6284 0
969 -6284 0
524 -969 6284 0
-856 -6285 0
852 -6285 0
856 -852 6285 0
783 -6286 0
142 -6286 0
-783 -142 6286 0
-668 -6287 0
826 -6287 0
668 -826 6287 0
175 -6288 0
421 -6288 0
-175 -421 6288 0
-425 -6289 0
196 -6289 0
425 -196 6289 0
656 -6290 0
971 -6290 0
-656 -971 6290 0
-531 -6291 0
27 -6291 0
531 -27 6291 0
768 -6292 0
783 -6292 0
-768 -783 6292 0
228 -6293 0
-260 -6293 0
-228 260 6293 0
528 -6294 0
40 -6294 0
-528 -40 6294 0
307 -6295 0
-78 -6295 0
-307 78 6295 0
232 -6296 0
71 -6296 0
-232 -71 6296 0
855 -6297 0
-465 -6297 0
-855 465 6297 0
516 -6298 0
-119 -6298 0
-516 119 6298 0
919 -6299 0
68 -6299 0
-919 -68 6299 0
597 -6300 0
-382 -6300 0
-597 382 6300 0
-769 -6301 0
705 -6301 0
769 -705 6301 0
664 -6302 0
-74 -6302 0
-664 74 6302 0
-784 -6303 0
339 -6303 0
784 -339 6303 0
190 -6304 0
-61 -6304 0
-190 61 6304 0
829 -6305 0
-486 -6305 0
-829 486 6305 0
-865 -6306 0
314 -6306 0
865 -314 6306 0
494 -6307 0
147 -6307 0
-494 -147 6307 0
-572 -6308 0
922 -6308 0
572 -922 6308 0
649 -6309 0
33 -6309 0
-649 -33 6309 0
-822 -6310 0
954 -6310 0
822 -954 6310 0
118 -6311 0
-223 -6311 0
-118 223 6311 0
-745 -6312 0
229 -6312 0
745 -229 6312 0
500 -6313 0
-175 -6313 0
-500 175 6313 0
350 -6314 0
829 -6314 0
-350 -829 6314 0
214 -6315 0
627 -6315 0
-214 -627 6315 0
-987 -6316 0
948 -6316 0
987 -948 6316 0
-808 -6317 0
1 -6317 0
808 -1 6317 0
111 -6318 0
-508 -6318 0
-111 508 6318 0
959 -6319 0
-295 -6319 0
-959 295 6319 0
60 -6320 0
-157 -6320 0
-60 157 6320 0
236 -6321 0
-759 -6321 0
-236 759 6321 0
272 -6322 0
-890 -6322 0
-272 890 6322 0
61 -6323 0
-982 -6323 0
-61 982 6323 0
261 -6324 0
-388 -6324 0
-261 388 6324 0
-659 -6325 0
313 -6325 0
659 -313 6325 0
-748 -6326 0
618 -6326 0
748 -618 6326 0
-572 -6327 0
385 -6327 0
572 -385 6327 0
680 -6328 0
243 -6328 0
-680 -243 6328 0
-734 -6329 0
298 -6329 0
734 -298 6329 0
-316 -6330 0
121 -6330 0
316 -121 6330 0
992 -6331 0
493 -6331 0
-992 -493 6331 0
35 -6332 0
826 -6332 0
-35 -826 6332 0
230 -6333 0
-165 -6333 0
-230 165 6333 0
-305 -6334 0
673 -6334 0
305 -673 6334 0
853 -6335 0
-863 -6335 0
-853 863 6335 0
511 -6336 0
-778 -6336 0
-511 778 6336 0
-490 -6337 0
785 -6337 0
490 -785 6337 0
158 -6338 0
-219 -6338 0
-158 219 6338 0
207 -6339 0
114 -6339 0
-207 -114 6339 0
920 -6340 0
950 -6340 0
-920 -950 6340 0
-896 -6341 0
961 -6341 0
896 -961 6341 0
667 -6342 0
-685 -6342 0
-667 685 6342 0
322 -6343 0
-14 -6343 0
-322 14 6343 0
704 -6344 0
783 -6344 0
-704 -783 6344 0
-441 -6345 0
834 -6345 0
441 -834 6345 0
405 -6346 0
939 -6346 0
-405 -939 6346 0
496 -6347 0
961 -6347 0
-496 -961 6347 0
407 -6348 0
-858 -6348 0
-407 858 6348 0
-619 -6349 0
979 -6349 0
619 -979 6349 0
791 -6350 0
358 -6350 0
-791 -358 6350 0
678 -6351 0
178 -6351 0
-678 -178 6351 0
760 -6352 0
554 -6352 0
-760 -554 6352 0
-200 -6353 0
972 -6353 0
200 -972 6353 0
200 -6354 0
935 -6354 0
-200 -935 6354 0
951 -6355 0
-82 -6355 0
-951 82 6355 0
-411 -6356 0
164 -6356 0
411 -164 6356 0
60 -6357 0
-805 -6357 0
-60 805 6357 0
735 -6358 0
83 -6358 0
-735 -83 6358 0
388 -6359 0
-221 -6359 0
-388 221 6359 0
349 -6360 0
-222 -6360 0
-349 222 6360 0
688 -6361 0
-382 -6361 0
-688 382 6361 0
78 -6362 0
-214 -6362 0
-78 214 6362 0
710 -6363 0
-996 -6363 0
-710 996 6363 0
-932 -6364 0
17 -6364 0
932 -17 6364 0
-457 -6365 0
172 -6365 0
457 -172 6365 0
188 -6366 0
145 -6366 0
-188 -145 6366 0
-732 -6367 0
500 -6367 0
732 -500 6367 0
152 -6368 0
-752 -6368 0
-152 752 6368 0
695 -6369 0
-444 -6369 0
-695 444 6369 0
46 -6370 0
-495 -6370 0
-46 495 6370 0
-93 -6371 0
34 -6371 0
93 -34 6371 0
-145 -6372 0
910 -6372 0
145 -910 6372 0
947 -6373 0
-278 -6373 0
-947 278 6373 0
518 -6374 0
-439 -6374 0
-518 439 6374 0
485 -6375 0
-267 -6375 0
-485 267 6375 0
864 -6376 0
972 -6376 0
-864 -972 6376 0
894 -6377 0
-508 -6377 0
-894 508 6377 0
493 -6378 0
-565 -6378 0
-493 565 6378 0
-659 -6379 0
956 -6379 0
659 -956 6379 0
-785 -6380 0
836 -6380 0
785 -836 6380 0
-370 -6381 0
587 -6381 0
370 -587 6381 0
640 -6382 0
-13 -6382 0
-640 13 6382 0
558 -6383 0
489 -6383 0
-558 -489 6383 0
582 -6384 0
37 -6384 0
-582 -37 6384 0
-320 -6385 0
888 -6385 0
320 -888 6385 0
-69 -6386 0
529 -6386 0
69 -529 6386 0
232 -6387 0
697 -6387 0
-232 -697 6387 0
-251 -6388 0
803 -6388 0
251 -803 6388 0
-528 -6389 0
332 -6389 0
528 -332 6389 0
-744 -6390 0
756 -6390 0
744 -756 6390 0
227 -6391 0
977 -6391 0
-227 -977 6391 0
408 -6392 0
-114 -6392 0
-408 114 6392 0
-545 -6393 0
251 -6393 0
545 -251 6393 0
368 -6394 0
-467 -6394 0
-368 467 6394 0
452 -6395 0
-583 -6395 0
-452 583 6395 0
-586 -6396 0
700 -6396 0
586 -700 6396 0
-318 -6397 0
105 -6397 0
318 -105 6397 0
-392 -6398 0
506 -6398 0
392 -506 6398 0
686 -6399 0
780 -6399 0
-686 -780 6399 0
187 -6400 0
233 -6400 0
-187 -233 6400 0
704 -6401 0
-693 -6401 0
-704 693 6401 0
198 -6402 0
962 -6402 0
-198 -962 6402 0
-636 -6403 0
651 -6403 0
636 -651 6403 0
13 -6404 0
-614 -6404 0
-13 614 6404 0
300 -6405 0
428 -6405 0
-300 -428 6405 0
-416 -6406 0
949 -6406 0
416 -949 6406 0
795 -6407 0
786 -6407 0
-795 -786 6407 0
965 -6408 0
979 -6408 0
-965 -979 6408 0
288 -6409 0
-994 -6409 0
-288 994 6409 0
-345 -6410 0
82 -6410 0
345 -82 6410 0
-633 -6411 0
349 -6411 0
633 -349 6411 0
-528 -6412 0
139 -6412 0
528 -139 6412 0
701 -6413 0
-44 -6413 0
-701 44 6413 0
658 -6414 0
-687 -6414 0
-658 687 6414 0
231 -6415 0
25 -6415 0
-231 -25 6415 0
896 -6416 0
-233 -6416 0
-896 233 6416 0
16 -6417 0
848 -6417 0
-16 -848 6417 0
528 -6418 0
-415 -6418 0
-528 415 6418 0
-382 -6419 0
785 -6419 0
382 -785 6419 0
882 -6420 0
273 -6420 0
-882 -273 6420 0
-648 -6421 0
846 -6421 0
648 -846 6421 0
291 -6422 0
27 -6422 0
-291 -27 6422 0
29 -6423 0
-236 -6423 0
-29 236 6423 0
-797 -6424 0
17 -6424 0
797 -17 6424 0
691 -6425 0
89 -6425 0
-691 -89 6425 0
-568 -6426 0
428 -6426 0
568 -428 6426 0
340 -6427 0
804 -6427 0
-340 -804 6427 0
910 -6428 0
442 -6428 0
-910 -442 6428 0
730 -6429 0
921 -6429 0
-730 -921 6429 0
255 -6430 0
516 -6430 0
-255 -516 6430 0
429 -6431 0
-12 -6431 0
-429 12 6431 0
38 -6432 0
860 -6432 0
-38 -860 6432 0
-988 -6433 0
538 -6433 0
988 -538 6433 0
-226 -6434 0
258 -6434 0
226 -258 6434 0
-355 -6435 0
10 -6435 0
355 -10 6435 0
253 -6436 0
-134 -6436 0
-253 134 6436 0
-296 -6437 0
769 -6437 0
296 -769 6437 0
-66 -6438 0
11 -6438 0
66 -11 6438 0
-245 -6439 0
786 -6439 0
245 -786 6439 0
-888 -6440 0
321 -6440 0
888 -321 6440 0
116 -6441 0
675 -6441 0
-116 -675 6441 0
-686 -6442 0
689 -6442 0
686 -689 6442 0
779 -6443 0
258 -6443 0
-779 -258 6443 0
240 -6444 0
-417 -6444 0
-240 417 6444 0
127 -6445 0
139 -6445 0
-127 -139 6445 0
787 -6446 0
178 -6446 0
-787 -178 6446 0
100 -6447 0
-508 -6447 0
-100 508 6447 0
463 -6448 0
-526 -6448 0
-463 526 6448 0
967 -6449 0
-213 -6449 0
-967 213 6449 0
390 -6450 0
171 -6450 0
-390 -171 6450 0
511 -6451 0
-772 -6451 0
-511 772 6451 0
747 -6452 0
11 -6452 0
-747 -11 6452 0
223 -6453 0
606 -6453 0
-223 -606 6453 0
-376 -6454 0
951 -6454 0
376 -951 6454 0
-841 -6455 0
211 -6455 0
841 -211 6455 0
857 -6456 0
873 -6456 0
-857 -873 6456 0
820 -6457 0
-727 -6457 0
-820 727 6457 0
791 -6458 0
250 -6458 0
-791 -250 6458 0
-404 -6459 0
723 -6459 0
404 -723 6459 0
-653 -6460 0
953 -6460 0
653 -953 6460 0
219 -6461 0
865 -6461 0
-219 -865 6461 0
-676 -6462 0
178 -6462 0
676 -178 6462 0
685 -6463 0
988 -6463 0
-685 -988 6463 0
366 -6464 0
489 -6464 0
-366 -489 6464 0
564 -6465 0
779 -6465 0
-564 -779 6465 0
205 -6466 0
483 -6466 0
-205 -483 6466 0
733 -6467 0
-548 -6467 0
-733 548 6467 0
854 -6468 0
-270 -6468 0
-854 270 6468 0
384 -6469 0
-239 -6469 0
-384 239 6469 0
-298 -6470 0
291 -6470 0
298 -291 6470 0
992 -6471 0
-373 -6471 0
-992 373 6471 0
877 -6472 0
380 -6472 0
-877 -380 6472 0
64 -6473 0
-315 -6473 0
-64 315 6473 0
-58 -6474 0
668 -6474 0
58 -668 6474 0
568 -6475 0
165 -6475 0
-568 -165 6475 0
-50 -6476 0
889 -6476 0
50 -889 6476 0
-235 -6477 0
489 -6477 0
235 -489 6477 0
-792 -6478 0
588 -6478 0
792 -588 6478 0
-873 -6479 0
942 -6479 0
873 -942 6479 0
-523 -6480 0
733 -6480 0
523 -733 6480 0
659 -6481 0
18 -6481 0
-659 -18 6481 0
-177 -6482 0
899 -6482 0
177 -899 6482 0
-946 -6483 0
458 -6483 0
946 -458 6483 0
-8 -6484 0
130 -6484 0
8 -130 6484 0
792 -6485 0
-346 -6485 0
-792 346 6485 0
571 -6486 0
129 -6486 0
-571 -129 6486 0
-874 -6487 0
683 -6487 0
874 -683 6487 0
496 -6488 0
827 -6488 0
-496 -827 6488 0
584 -6489 0
-470 -6489 0
-584 470 6489 0
-792 -6490 0
151 -6490 0
792 -151 6490 0
208 -6491 0
-419 -6491 0
-208 419 6491 0
755 -6492 0
-199 -6492 0
-755 199 6492 0
588 -6493 0
-149 -6493 0
-588 149 6493 0
-433 -6494 0
511 -6494 0
433 -511 6494 0
-568 -6495 0
869 -6495 0
568 -869 6495 0
-700 -6496 0
484 -6496 0
700 -484 6496 0
768 -6497 0
572 -6497 0
-768 -572 6497 0
687 -6498 0
983 -6498 0
-687 -983 6498 0
332 -6499 0
387 -6499 0
-332 -387 6499 0
322 -6500 0
-735 -6500 0
-322 735 6500 0
-331 -6501 0
932 -6501 0
331 -932 6501 0
-440 -6502 0
676 -6502 0
440 -676 6502 0
981 -6503 0
137 -6503 0
-981 -137 6503 0
574 -6504 0
-469 -6504 0
-574 469 6504 0
-296 -6505 0
55 -6505 0
296 -55 6505 0
641 -6506 0
153 -6506 0
-641 -153 6506 0
752 -6507 0
161 -6507 0
-752 -161 6507 0
676 -6508 0
-389 -6508 0
-676 389 6508 0
519 -6509 0
-14 -6509 0
-519 14 6509 0
358 -6510 0
593 -6510 0
-358 -593 6510 0
911 -6511 0
94 -6511 0
-911 -94 6511 0
68 -6512 0
436 -6512 0
-68 -436 6512 0
512 -6513 0
379 -6513 0
-512 -379 6513 0
229 -6514 0
323 -6514 0
-229 -323 6514 0
259 -6515 0
954 -6515 0
-259 -954 6515 0
-560 -6516 0
29 -6516 0
560 -29 6516 0
-546 -6517 0
569 -6517 0
546 -569 6517 0
463 -6518 0
121 -6518 0
-463 -121 6518 0
754 -6519 0
-71 -6519 0
-754 71 6519 0
791 -6520 0
804 -6520 0
-791 -804 6520 0
238 -6521 0
874 -6521 0
-238 -874 6521 0
547 -6522 0
-502 -6522 0
-547 502 6522 0
39 -6523 0
-509 -6523 0
-39 509 6523 0
-634 -6524 0
426 -6524 0
634 -426 6524 0
983 -6525 0
274 -6525 0
-983 -274 6525 0
842 -6526 0
-831 -6526 0
-842 831 6526 0
959 -6527 0
-93 -6527 0
-959 93 6527 0
-786 -6528 0
674 -6528 0
786 -674 6528 0
376 -6529 0
486 -6529 0
-376 -486 6529 0
591 -6530 0
578 -6530 0
-591 -578 6530 0
-764 -6531 0
834 -6531 0
764 -834 6531 0
127 -6532 0
-38 -6532 0
-127 38 6532 0
-256 -6533 0
793 -6533 0
256 -793 6533 0
105 -6534 0
353 -6534 0
-105 -353 6534 0
296 -6535 0
-732 -6535 0
-296 732 6535 0
-355 -6536 0
354 -6536 0
355 -354 6536 0
807 -6537 0
855 -6537 0
-807 -855 6537 0
567 -6538 0
-639 -6538 0
-567 639 6538 0
-708 -6539 0
755 -6539 0
708 -755 6539 0
643 -6540 0
969 -6540 0
-643 -969 6540 0
-72 -6541 0
125 -6541 0
72 -125 6541 0
-905 -6542 0
771 -6542 0
905 -771 6542 0
694 -6543 0
-507 -6543 0
-694 507 6543 0
360 -6544 0
331 -6544 0
-360 -331 6544 0
127 -6545 0
244 -6545 0
-127 -244 6545 0
-976 -6546 0
682 -6546 0
976 -682 6546 0
384 -6547 0
-577 -6547 0
-384 577 6547 0
622 -6548 0
226 -6548 0
-622 -226 6548 0
-752 -6549 0
628 -6549 0
752 -628 6549 0
384 -6550 0
28 -6550 0
-384 -28 6550 0
469 -6551 0
107 -6551 0
-469 -107 6551 0
327 -6552 0
683 -6552 0
-327 -683 6552 0
911 -6553 0
766 -6553 0
-911 -766 6553 0
720 -6554 0
-586 -6554 0
-720 586 6554 0
-842 -6555 0
12 -6555 0
842 -12 6555 0
-291 -6556 0
26 -6556 0
291 -26 6556 0
164 -6557 0
595 -6557 0
-164 -595 6557 0
-498 -6558 0
731 -6558 0
498 -731 6558 0
-945 -6559 0
922 -6559 0
945 -922 6559 0
-66 -6560 0
748 -6560 0
66 -748 6560 0
23 -6561 0
-510 -6561 0
-23 510 6561 0
767 -6562 0
-900 -6562 0
-767 900 6562 0
-490 -6563 0
211 -6563 0
490 -211 6563 0
-56 -6564 0
622 -6564 0
56 -622 6564 0
-977 -6565 0
845 -6565 0
977 -845 6565 0
-577 -6566 0
734 -6566 0
577 -734 6566 0
654 -6567 0
-762 -6567 0
-654 762 6567 0
-512 -6568 0
338 -6568 0
512 -338 6568 0
808 -6569 0
284 -6569 0
-808 -284 6569 0
870 -6570 0
-646 -6570 0
-870 646 6570 0
64 -6571 0
622 -6571 0
-64 -622 6571 0
608 -6572 0
943 -6572 0
-608 -943 6572 0
622 -6573 0
308 -6573 0
-622 -308 6573 0
261 -6574 0
522 -6574 0
-261 -522 6574 0
995 -6575 0
-847 -6575 0
-995 847 6575 0
940 -6576 0
521 -6576 0
-940 -521 6576 0
496 -6577 0
-903 -6577 0
-496 903 6577 0
287 -6578 0
-18 -6578 0
-287 18 6578 0
26 -6579 0
-542 -6579 0
-26 542 6579 0
494 -6580 0
865 -6580 0
-494 -865 6580 0
-291 -6581 0
785 -6581 0
291 -785 6581 0
293 -6582 0
-203 -6582 0
-293 203 6582 0
-792 -6583 0
42 -6583 0
792 -42 6583 0
-433 -6584 0
463 -6584 0
433 -463 6584 0
568 -6585 0
-196 -6585 0
-568 196 6585 0
-275 -6586 0
659 -6586 0
275 -659 6586 0
782 -6587 0
-110 -6587 0
-782 110 6587 0
960 -6588 0
-995 -6588 0
-960 995 6588 0
877 -6589 0
570 -6589 0
-877 -570 6589 0
173 -6590 0
132 -6590 0
-173 -132 6590 0
536 -6591 0
-54 -6591 0
-536 54 6591 0
224 -6592 0
-116 -6592 0
-224 116 6592 0
134 -6593 0
99 -6593 0
-134 -99 6593 0
-837 -6594 0
57 -6594 0
837 -57 6594 0
370 -6595 0
-999 -6595 0
-370 999 6595 0
-450 -6596 0
445 -6596 0
450 -445 6596 0
192 -6597 0
-408 -6597 0
-192 408 6597 0
272 -6598 0
76 -6598 0
-272 -76 6598 0
-40 -6599 0
798 -6599 0
40 -798 6599 0
-944 -6600 0
594 -6600 0
944 -594 6600 0
368 -6601 0
226 -6601 0
-368 -226 6601 0
487 -6602 0
-68 -6602 0
-487 68 6602 0
184 -6603 0
245 -6603 0
-184 -245 6603 0
-884 -6604 0
114 -6604 0
884 -114 6604 0
976 -6605 0
-967 -6605 0
-976 967 6605 0
758 -6606 0
-124 -6606 0
-758 124 6606 0
756 -6607 0
426 -6607 0
-756 -426 6607 0
335 -6608 0
241 -6608 0
-335 -241 6608 0
211 -6609 0
-678 -6609 0
-211 678 6609 0
566 -6610 0
865 -6610 0
-566 -865 6610 0
-249 -6611 0
834 -6611 0
249 -834 6611 0
915 -6612 0
577 -6612 0
-915 -577 6612 0
64 -6613 0
-588 -6613 0
-64 588 6613 0
48 -6614 0
-449 -6614 0
-48 449 6614 0
376 -6615 0
-351 -6615 0
-376 351 6615 0
264 -6616 0
412 -6616 0
-264 -412 6616 0
-644 -6617 0
1 -6617 0
644 -1 6617 0
45 -6618 0
-670 -6618 0
-45 670 6618 0
-82 -6619 0
196 -6619 0
82 -196 6619 0
232 -6620 0
527 -6620 0
-232 -527 6620 0
146 -6621 0
458 -6621 0
-146 -458 6621 0
207 -6622 0
-502 -6622 0
-207 502 6622 0
-585 -6623 0
890 -6623 0
585 -890 6623 0
607 -6624 0
836 -6624 0
-607 -836 6624 0
79 -6625 0
662 -6625 0
-79 -662 6625 0
735 -6626 0
548 -6626 0
-735 -548 6626 0
621 -6627 0
162 -6627 0
-621 -162 6627 0
367 -6628 0
370 -6628 0
-367 -370 6628 0
696 -6629 0
213 -6629 0
-696 -213 6629 0
208 -6630 0
681 -6630 0
-208 -681 6630 0
-259 -6631 0
779 -6631 0
259 -779 6631 0
952 -6632 0
962 -6632 0
-952 -962 6632 0
944 -6633 0
117 -6633 0
-944 -117 6633 0
178 -6634 0
-998 -6634 0
-178 998 6634 0
-497 -6635 0
684 -6635 0
497 -684 6635 0
933 -6636 0
-76 -6636 0
-933 76 6636 0
-992 -6637 0
174 -6637 0
992 -174 6637 0
87 -6638 0
-990 -6638 0
-87 990 6638 0
831 -6639 0
860 -6639 0
-831 -860 6639 0
254 -6640 0
-292 -6640 0
-254 292 6640 0
191 -6641 0
436 -6641 0
-191 -436 6641 0
-904 -6642 0
153 -6642 0
904 -153 6642 0
328 -6643 0
-222 -6643 0
-328 222 6643 0
-338 -6644 0
133 -6644 0
338 -133 6644 0
-730 -6645 0
739 -6645 0
730 -739 6645 0
-843 -6646 0
517 -6646 0
843 -517 6646 0
693 -6647 0
617 -6647 0
-693 -617 6647 0
-560 -6648 0
613 -6648 0
560 -613 6648 0
320 -6649 0
-581 -6649 0
-320 581 6649 0
254 -6650 0
-204 -6650 0
-254 204 6650 0
971 -6651 0
226 -6651 0
-971 -226 6651 0
530 -6652 0
-383 -6652 0
-530 383 6652 0
360 -6653 0
233 -6653 0
-360 -233 6653 0
140 -6654 0
196 -6654 0
-140 -196 6654 0
188 -6655 0
-758 -6655 0
-188 758 6655 0
334 -6656 0
476 -6656 0
-334 -476 6656 0
340 -6657 0
-61 -6657 0
-340 61 6657 0
-521 -6658 0
129 -6658 0
521 -129 6658 0
-777 -6659 0
578 -6659 0
777 -578 6659 0
245 -6660 0
964 -6660 0
-245 -964 6660 0
1000 -6661 0
607 -6661 0
-1000 -607 6661 0
931 -6662 0
57 -6662 0
-931 -57 6662 0
853 -6663 0
708 -6663 0
-853 -708 6663 0
-300 -6664 0
690 -6664 0
300 -690 6664 0
-14 -6665 0
794 -6665 0
14 -794 6665 0
764 -6666 0
434 -6666 0
-764 -434 6666 0
-467 -6667 0
924 -6667 0
467 -924 6667 0
-452 -6668 0
692 -6668 0
452 -692 6668 0
797 -6669 0
988 -6669 0
-797 -988 6669 0
64 -6670 0
-668 -6670 0
-64 668 6670 0
886 -6671 0
-394 -6671 0
-886 394 6671 0
578 -6672 0
289 -6672 0
-578 -289 6672 0
856 -6673 0
1000 -6673 0
-856 -1000 6673 0
-48 -6674 0
754 -6674 0
48 -754 6674 0
224 -6675 0
-284 -6675 0
-224 284 6675 0
-180 -6676 0
417 -6676 0
180 -417 6676 0
365 -6677 0
593 -6677 0
-365 -593 6677 0
-194 -6678 0
946 -6678 0
194 -946 6678 0
376 -6679 0
-707 -6679 0
-376 707 6679 0
253 -6680 0
723 -6680 0
-253 -723 6680 0
-200 -6681 0
849 -6681 0
200 -849 6681 0
-129 -6682 0
166 -6682 0
129 -166 6682 0
284 -6683 0
298 -6683 0
-284 -298 6683 0
246 -6684 0
972 -6684 0
-246 -972 6684 0
899 -6685 0
155 -6685 0
-899 -155 6685 0
432 -6686 0
765 -6686 0
-432 -765 6686 0
520 -6687 0
-268 -6687 0
-520 268 6687 0
468 -6688 0
98 -6688 0
-468 -98 6688 0
659 -6689 0
-118 -6689 0
-659 118 6689 0
93 -6690 0
-695 -6690 0
-93 695 6690 0
980 -6691 0
28 -6691 0
-980 -28 6691 0
207 -6692 0
-765 -6692 0
-207 765 6692 0
716 -6693 0
-254 -6693 0
-716 254 6693 0
333 -6694 0
-750 -6694 0
-333 750 6694 0
775 -6695 0
-828 -6695 0
-775 828 6695 0
32 -6696 0
-169 -6696 0
-32 169 6696 0
688 -6697 0
627 -6697 0
-688 -627 6697 0
663 -6698 0
983 -6698 0
-663 -983 6698 0
518 -6699 0
980 -6699 0
-518 -980 6699 0
-848 -6700 0
242 -6700 0
848 -242 6700 0
511 -6701 0
777 -6701 0
-511 -777 6701 0
708 -6702 0
-534 -6702 0
-708 534 6702 0
-474 -6703 0
938 -6703 0
474 -938 6703 0
-953 -6704 0
716 -6704 0
953 -716 6704 0
638 -6705 0
-12 -6705 0
-638 12 6705 0
-184 -6706 0
680 -6706 0
184 -680 6706 0
704 -6707 0
193 -6707 0
-704 -193 6707 0
-192 -6708 0
294 -6708 0
192 -294 6708 0
758 -6709 0
-788 -6709 0
-758 788 6709 0
399 -6710 0
-513 -6710 0
-399 513 6710 0
-426 -6711 0
755 -6711 0
426 -755 6711 0
-459 -6712 0
524 -6712 0
459 -524 6712 0
-97 -6713 0
618 -6713 0
97 -618 6713 0
789 -6714 0
-13 -6714 0
-789 13 6714 0
318 -6715 0
474 -6715 0
-318 -474 6715 0
623 -6716 0
-478 -6716 0
-623 478 6716 0
705 -6717 0
257 -6717 0
-705 -257 6717 0
67 -6718 0
-270 -6718 0
-67 270 6718 0
351 -6719 0
493 -6719 0
-351 -493 6719 0
-589 -6720 0
787 -6720 0
589 -787 6720 0
822 -6721 0
-387 -6721 0
-822 387 6721 0
589 -6722 0
611 -6722 0
-589 -611 6722 0
7 -6723 0
-31 -6723 0
-7 31 6723 0
-729 -6724 0
222 -6724 0
729 -222 6724 0
816 -6725 0
-447 -6725 0
-816 447 6725 0
378 -6726 0
-62 -6726 0
-378 62 6726 0
207 -6727 0
-434 -6727 0
-207 434 6727 0
-224 -6728 0
450 -6728 0
224 -450 6728 0
783 -6729 0
925 -6729 0
-783 -925 6729 0
-66 -6730 0
252 -6730 0
66 -252 6730 0
-472 -6731 0
314 -6731 0
472 -314 6731 0
832 -6732 0
-959 -6732 0
-832 959 6732 0
303 -6733 0
660 -6733 0
-303 -660 6733 0
-835 -6734 0
460 -6734 0
835 -460 6734 0
591 -6735 0
565 -6735 0
-591 -565 6735 0
939 -6736 0
851 -6736 0
-939 -851 6736 0
-928 -6737 0
426 -6737 0
928 -426 6737 0
102 -6738 0
258 -6738 0
-102 -258 6738 0
38 -6739 0
268 -6739 0
-38 -268 6739 0
196 -6740 0
-607 -6740 0
-196 607 6740 0
965 -6741 0
-293 -6741 0
-965 293 6741 0
-849 -6742 0
841 -6742 0
849 -841 6742 0
424 -6743 0
-831 -6743 0
-424 831 6743 0
638 -6744 0
821 -6744 0
-638 -821 6744 0
-689 -6745 0
913 -6745 0
689 -913 6745 0
759 -6746 0
-975 -6746 0
-759 975 6746 0
300 -6747 0
771 -6747 0
-300 -771 6747 0
742 -6748 0
-149 -6748 0
-742 149 6748 0
984 -6749 0
-994 -6749 0
-984 994 6749 0
816 -6750 0
395 -6750 0
-816 -395 6750 0
124 -6751 0
-815 -6751 0
-124 815 6751 0
-467 -6752 0
907 -6752 0
467 -907 6752 0
986 -6753 0
394 -6753 0
-986 -394 6753 0
-868 -6754 0
434 -6754 0
868 -434 6754 0
124 -6755 0
314 -6755 0
-124 -314 6755 0
-113 -6756 0
545 -6756 0
113 -545 6756 0
-808 -6757 0
108 -6757 0
808 -108 6757 0
431 -6758 0
-318 -6758 0
-431 318 6758 0
-787 -6759 0
595 -6759 0
787 -595 6759 0
207 -6760 0
993 -6760 0
-207 -993 6760 0
85 -6761 0
481 -6761 0
-85 -481 6761 0
414 -6762 0
-269 -6762 0
-414 269 6762 0
466 -6763 0
738 -6763 0
-466 -738 6763 0
168 -6764 0
-988 -6764 0
-168 988 6764 0
859 -6765 0
809 -6765 0
-859 -809 6765 0
-409 -6766 0
618 -6766 0
409 -618 6766 0
-1000 -6767 0
173 -6767 0
1000 -173 6767 0
-413 -6768 0
201 -6768 0
413 -201 6768 0
950 -6769 0
-267 -6769 0
-950 267 6769 0
-525 -6770 0
58 -6770 0
525 -58 6770 0
26 -6771 0
-359 -6771 0
-26 359 6771 0
325 -6772 0
-887 -6772 0
-325 887 6772 0
-874 -6773 0
681 -6773 0
874 -681 6773 0
448 -6774 0
-188 -6774 0
-448 188 6774 0
-662 -6775 0
249 -6775 0
662 -249 6775 0
221 -6776 0
180 -6776 0
-221 -180 6776 0
711 -6777 0
23 -6777 0
-711 -23 6777 0
45 -6778 0
-950 -6778 0
-45 950 6778 0
359 -6779 0
398 -6779 0
-359 -398 6779 0
516 -6780 0
-599 -6780 0
-516 599 6780 0
19 -6781 0
611 -6781 0
-19 -611 6781 0
-733 -6782 0
321 -6782 0
733 -321 6782 0
240 -6783 0
6 -6783 0
-240 -6 6783 0
223 -6784 0
-386 -6784 0
-223 386 6784 0
-810 -6785 0
442 -6785 0
810 -442 6785 0
147 -6786 0
-197 -6786 0
-147 197 6786 0
590 -6787 0
-685 -6787 0
-590 685 6787 0
-528 -6788 0
107 -6788 0
528 -107 6788 0
632 -6789 0
620 -6789 0
-632 -620 6789 0
198 -6790 0
-573 -6790 0
-198 573 6790 0
-161 -6791 0
956 -6791 0
161 -956 6791 0
850 -6792 0
242 -6792 0
-850 -242 6792 0
508 -6793 0
-71 -6793 0
-508 71 6793 0
-554 -6794 0
165 -6794 0
554 -165 6794 0
388 -6795 0
-431 -6795 0
-388 431 6795 0
616 -6796 0
-771 -6796 0
-616 771 6796 0
24 -6797 0
-602 -6797 0
-24 602 6797 0
221 -6798 0
281 -6798 0
-221 -281 6798 0
414 -6799 0
396 -6799 0
-414 -396 6799 0
-281 -6800 0
748 -6800 0
281 -748 6800 0
524 -6801 0
459 -6801 0
-524 -459 6801 0
108 -6802 0
18 -6802 0
-108 -18 6802 0
-24 -6803 0
674 -6803 0
24 -674 6803 0
291 -6804 0
385 -6804 0
-291 -385 6804 0
96 -6805 0
526 -6805 0
-96 -526 6805 0
796 -6806 0
313 -6806 0
-796 -313 6806 0
-392 -6807 0
104 -6807 0
392 -104 6807 0
-641 -6808 0
563 -6808 0
641 -563 6808 0
-194 -6809 0
666 -6809 0
194 -666 6809 0
500 -6810 0
-430 -6810 0
-500 430 6810 0
69 -6811 0
-45 -6811 0
-69 45 6811 0
368 -6812 0
-15 -6812 0
-368 15 6812 0
181 -6813 0
269 -6813 0
-181 -269 6813 0
855 -6814 0
-803 -6814 0
-855 803 6814 0
-712 -6815 0
305 -6815 0
712 -305 6815 0
816 -6816 0
548 -6816 0
-816 -548 6816 0
498 -6817 0
817 -6817 0
-498 -817 6817 0
620 -6818 0
537 -6818 0
-620 -537 6818 0
-816 -6819 0
487 -6819 0
816 -487 6819 0
603 -6820 0
378 -6820 0
-603 -378 6820 0
567 -6821 0
-962 -6821 0
-567 962 6821 0
204 -6822 0
724 -6822 0
-204 -724 6822 0
536 -6823 0
499 -6823 0
-536 -499 6823 0
-41 -6824 0
625 -6824 0
41 -625 6824 0
-530 -6825 0
786 -6825 0
530 -786 6825 0
635 -6826 0
-431 -6826 0
-635 431 6826 0
240 -6827 0
123 -6827 0
-240 -123 6827 0
-130 -6828 0
925 -6828 0
130 -925 6828 0
531 -6829 0
-357 -6829 0
-531 357 6829 0
-676 -6830 0
428 -6830 0
676 -428 6830 0
-45 -6831 0
265 -6831 0
45 -265 6831 0
799 -6832 0
387 -6832 0
-799 -387 6832 0
47 -6833 0
-719 -6833 0
-47 719 6833 0
-16 -6834 0
391 -6834 0
16 -391 6834 0
447 -6835 0
-877 -6835 0
-447 877 6835 0
937 -6836 0
97 -6836 0
-937 -97 6836 0
907 -6837 0
666 -6837 0
-907 -666 6837 0
430 -6838 0
-91 -6838 0
-430 91 6838 0
741 -6839 0
370 -6839 0
-741 -370 6839 0
-643 -6840 0
121 -6840 0
643 -121 6840 0
-598 -6841 0
345 -6841 0
598 -345 6841 0
74 -6842 0
249 -6842 0
-74 -249 6842 0
939 -6843 0
-646 -6843 0
-939 646 6843 0
620 -6844 0
491 -6844 0
-620 -491 6844 0
-817 -6845 0
394 -6845 0
817 -394 6845 0
-448 -6846 0
394 -6846 0
448 -394 6846 0
198 -6847 0
-123 -6847 0
-198 123 6847 0
-37 -6848 0
458 -6848 0
37 -458 6848 0
-331 -6849 0
220 -6849 0
331 -220 6849 0
-795 -6850 0
684 -6850 0
795 -684 6850 0
312 -6851 0
70 -6851 0
-312 -70 6851 0
156 -6852 0
-462 -6852 0
-156 462 6852 0
85 -6853 0
-324 -6853 0
-85 324 6853 0
440 -6854 0
-119 -6854 0
-440 119 6854 0
351 -6855 0
18 -6855 0
-351 -18 6855 0
-707 -6856 0
498 -6856 0
707 -498 6856 0
-192 -6857 0
868 -6857 0
192 -868 6857 0
-361 -6858 0
742 -6858 0
361 -742 6858 0
592 -6859 0
-520 -6859 0
-592 520 6859 0
884 -6860 0
-637 -6860 0
-884 637 6860 0
455 -6861 0
-927 -6861 0
-455 927 6861 0
-528 -6862 0
459 -6862 0
528 -459 6862 0
192 -6863 0
951 -6863 0
-192 -951 6863 0
836 -6864 0
-524 -6864 0
-836 524 6864 0
887 -6865 0
-628 -6865 0
-887 628 6865 0
974 -6866 0
499 -6866 0
-974 -499 6866 0
517 -6867 0
417 -6867 0
-517 -417 6867 0
680 -6868 0
798 -6868 0
-680 -798 6868 0
435 -6869 0
-279 -6869 0
-435 279 6869 0
939 -6870 0
297 -6870 0
-939 -297 6870 0
-705 -6871 0
798 -6871 0
705 -798 6871 0
722 -6872 0
-855 -6872 0
-722 855 6872 0
157 -6873 0
51 -6873 0
-157 -51 6873 0
-379 -6874 0
60 -6874 0
379 -60 6874 0
293 -6875 0
-508 -6875 0
-293 508 6875 0
389 -6876 0
-375 -6876 0
-389 375 6876 0
-24 -6877 0
744 -6877 0
24 -744 6877 0
830 -6878 0
-443 -6878 0
-830 443 6878 0
-250 -6879 0
996 -6879 0
250 -996 6879 0
326 -6880 0
-851 -6880 0
-326 851 6880 0
814 -6881 0
-732 -6881 0
-814 732 6881 0
16 -6882 0
18 -6882 0
-16 -18 6882 0
861 -6883 0
-606 -6883 0
-861 606 6883 0
-432 -6884 0
620 -6884 0
432 -620 6884 0
-179 -6885 0
522 -6885 0
179 -522 6885 0
-708 -6886 0
794 -6886 0
708 -794 6886 0
976 -6887 0
429 -6887 0
-976 -429 6887 0
944 -6888 0
-429 -6888 0
-944 429 6888 0
646 -6889 0
-701 -6889 0
-646 701 6889 0
503 -6890 0
-523 -6890 0
-503 523 6890 0
584 -6891 0
-299 -6891 0
-584 299 6891 0
368 -6892 0
273 -6892 0
-368 -273 6892 0
-790 -6893 0
769 -6893 0
790 -769 6893 0
957 -6894 0
-636 -6894 0
-957 636 6894 0
693 -6895 0
-606 -6895 0
-693 606 6895 0
-156 -6896 0
818 -6896 0
156 -818 6896 0
-539 -6897 0
26 -6897 0
539 -26 6897 0
284 -6898 0
227 -6898 0
-284 -227 6898 0
-165 -6899 0
305 -6899 0
165 -305 6899 0
-297 -6900 0
139 -6900 0
297 -139 6900 0
135 -6901 0
-775 -6901 0
-135 775 6901 0
511 -6902 0
-526 -6902 0
-511 526 6902 0
-945 -6903 0
882 -6903 0
945 -882 6903 0
151 -6904 0
-950 -6904 0
-151 950 6904 0
-186 -6905 0
75 -6905 0
186 -75 6905 0
-452 -6906 0
265 -6906 0
452 -265 6906 0
-768 -6907 0
137 -6907 0
768 -137 6907 0
935 -6908 0
286 -6908 0
-935 -286 6908 0
310 -6909 0
973 -6909 0
-310 -973 6909 0
-696 -6910 0
135 -6910 0
696 -135 6910 0
302 -6911 0
589 -6911 0
-302 -589 6911 0
-769 -6912 0
476 -6912 0
769 -476 6912 0
131 -6913 0
281 -6913 0
-131 -281 6913 0
-968 -6914 0
713 -6914 0
968 -713 6914 0
349 -6915 0
-126 -6915 0
-349 126 6915 0
384 -6916 0
-863 -6916 0
-384 863 6916 0
815 -6917 0
541 -6917 0
-815 -541 6917 0
853 -6918 0
-935 -6918 0
-853 935 6918 0
-776 -6919 0
442 -6919 0
776 -442 6919 0
11 -6920 0
465 -6920 0
-11 -465 6920 0
-420 -6921 0
17 -6921 0
420 -17 6921 0
402 -6922 0
-207 -6922 0
-402 207 6922 0
-384 -6923 0
951 -6923 0
384 -951 6923 0
868 -6924 0
-268 -6924 0
-868 268 6924 0
606 -6925 0
91 -6925 0
-606 -91 6925 0
-347 -6926 0
851 -6926 0
347 -851 6926 0
320 -6927 0
-138 -6927 0
-320 138 6927 0
979 -6928 0
866 -6928 0
-979 -866 6928 0
-476 -6929 0
788 -6929 0
476 -788 6929 0
952 -6930 0
443 -6930 0
-952 -443 6930 0
139 -6931 0
458 -6931 0
-139 -458 6931 0
84 -6932 0
732 -6932 0
-84 -732 6932 0
-658 -6933 0
453 -6933 0
658 -453 6933 0
60 -6934 0
971 -6934 0
-60 -971 6934 0
652 -6935 0
571 -6935 0
-652 -571 6935 0
335 -6936 0
286 -6936 0
-335 -286 6936 0
156 -6937 0
-822 -6937 0
-156 822 6937 0
224 -6938 0
851 -6938 0
-224 -851 6938 0
-885 -6939 0
666 -6939 0
885 -666 6939 0
646 -6940 0
597 -6940 0
-646 -597 6940 0
909 -6941 0
-108 -6941 0
-909 108 6941 0
748 -6942 0
-998 -6942 0
-748 998 6942 0
-750 -6943 0
522 -6943 0
750 -522 6943 0
826 -6944 0
641 -6944 0
-826 -641 6944 0
999 -6945 0
666 -6945 0
-999 -666 6945 0
-832 -6946 0
29 -6946 0
832 -29 6946 0
44 -6947 0
123 -6947 0
-44 -123 6947 0
133 -6948 0
36 -6948 0
-133 -36 6948 0
644 -6949 0
180 -6949 0
-644 -180 6949 0
589 -6950 0
394 -6950 0
-589 -394 6950 0
64 -6951 0
701 -6951 0
-64 -701 6951 0
-453 -6952 0
411 -6952 0
453 -411 6952 0
494 -6953 0
-838 -6953 0
-494 838 6953 0
502 -6954 0
-188 -6954 0
-502 188 6954 0
348 -6955 0
-287 -6955 0
-348 287 6955 0
-850 -6956 0
508 -6956 0
850 -508 6956 0
400 -6957 0
868 -6957 0
-400 -868 6957 0
517 -6958 0
-703 -6958 0
-517 703 6958 0
-552 -6959 0
706 -6959 0
552 -706 6959 0
20 -6960 0
115 -6960 0
-20 -115 6960 0
279 -6961 0
974 -6961 0
-279 -974 6961 0
744 -6962 0
924 -6962 0
-744 -924 6962 0
-604 -6963 0
508 -6963 0
604 -508 6963 0
365 -6964 0
268 -6964 0
-365 -268 6964 0
-121 -6965 0
92 -6965 0
121 -92 6965 0
-844 -6966 0
50 -6966 0
844 -50 6966 0
-916 -6967 0
386 -6967 0
916 -386 6967 0
639 -6968 0
-197 -6968 0
-639 197 6968 0
976 -6969 0
-849 -6969 0
-976 849 6969 0
-800 -6970 0
331 -6970 0
800 -331 6970 0
-678 -6971 0
250 -6971 0
678 -250 6971 0
448 -6972 0
-372 -6972 0
-448 372 6972 0
-829 -6973 0
377 -6973 0
829 -377 6973 0
-101 -6974 0
603 -6974 0
101 -603 6974 0
57 -6975 0
-119 -6975 0
-57 119 6975 0
519 -6976 0
-909 -6976 0
-519 909 6976 0
735 -6977 0
10 -6977 0
-735 -10 6977 0
48 -6978 0
-455 -6978 0
-48 455 6978 0
-448 -6979 0
660 -6979 0
448 -660 6979 0
-384 -6980 0
694 -6980 0
384 -694 6980 0
1000 -6981 0
-514 -6981 0
-1000 514 6981 0
384 -6982 0
207 -6982 0
-384 -207 6982 0
542 -6983 0
-379 -6983 0
-542 379 6983 0
199 -6984 0
-687 -6984 0
-199 687 6984 0
702 -6985 0
-855 -6985 0
-702 855 6985 0
638 -6986 0
-236 -6986 0
-638 236 6986 0
880 -6987 0
-694 -6987 0
-880 694 6987 0
611 -6988 0
-207 -6988 0
-611 207 6988 0
811 -6989 0
-422 -6989 0
-811 422 6989 0
-913 -6990 0
717 -6990 0
913 -717 6990 0
43 -6991 0
-93 -6991 0
-43 93 6991 0
199 -6992 0
-285 -6992 0
-199 285 6992 0
563 -6993 0
-591 -6993 0
-563 591 6993 0
175 -6994 0
905 -6994 0
-175 -905 6994 0
477 -6995 0
538 -6995 0
-477 -538 6995 0
638 -6996 0
186 -6996 0
-638 -186 6996 0
-564 -6997 0
698 -6997 0
564 -698 6997 0
-440 -6998 0
774 -6998 0
440 -774 6998 0
727 -6999 0
-315 -6999 0
-727 315 6999 0
-633 -7000 0
906 -7000 0
633 -906 7000 0
367 -7001 0
309 -7001 0
-367 -309 7001 0
698 -7002 0
-742 -7002 0
-698 742 7002 0
-906 -7003 0
410 -7003 0
906 -410 7003 0
663 -7004 0
2 -7004 0
-663 -2 7004 0
519 -7005 0
-625 -7005 0
-519 625 7005 0
-240 -7006 0
190 -7006 0
240 -190 7006 0
999 -7007 0
-978 -7007 0
-999 978 7007 0
358 -7008 0
-439 -7008 0
-358 439 7008 0
236 -7009 0
-516 -7009 0
-236 516 7009 0
259 -7010 0
-133 -7010 0
-259 133 7010 0
-700 -7011 0
937 -7011 0
700 -937 7011 0
214 -7012 0
-734 -7012 0
-214 734 7012 0
-237 -7013 0
833 -7013 0
237 -833 7013 0
672 -7014 0
816 -7014 0
-672 -816 7014 0
183 -7015 0
-487 -7015 0
-183 487 7015 0
975 -7016 0
756 -7016 0
-975 -756 7016 0
908 -7017 0
-780 -7017 0
-908 780 7017 0
318 -7018 0
963 -7018 0
-318 -963 7018 0
-385 -7019 0
86 -7019 0
385 -86 7019 0
704 -7020 0
591 -7020 0
-704 -591 7020 0
424 -7021 0
-932 -7021 0
-424 932 7021 0
573 -7022 0
-12 -7022 0
-573 12 7022 0
418 -7023 0
-727 -7023 0
-418 727 7023 0
296 -7024 0
274 -7024 0
-296 -274 7024 0
-76 -7025 0
121 -7025 0
76 -121 7025 0
206 -7026 0
-438 -7026 0
-206 438 7026 0
31 -7027 0
473 -7027 0
-31 -473 7027 0
505 -7028 0
961 -7028 0
-505 -961 7028 0
829 -7029 0
-527 -7029 0
-829 527 7029 0
-707 -7030 0
74 -7030 0
707 -74 7030 0
478 -7031 0
324 -7031 0
-478 -324 7031 0
-307 -7032 0
947 -7032 0
307 -947 7032 0
622 -7033 0
348 -7033 0
-622 -348 7033 0
-173 -7034 0
986 -7034 0
173 -986 7034 0
589 -7035 0
345 -7035 0
-589 -345 7035 0
118 -7036 0
268 -7036 0
-118 -268 7036 0
-209 -7037 0
529 -7037 0
209 -529 7037 0
64 -7038 0
327 -7038 0
-64 -327 7038 0
727 -7039 0
635 -7039 0
-727 -635 7039 0
751 -7040 0
902 -7040 0
-751 -902 7040 0
232 -7041 0
-886 -7041 0
-232 886 7041 0
-722 -7042 0
403 -7042 0
722 -403 7042 0
752 -7043 0
-723 -7043 0
-752 723 7043 0
100 -7044 0
-37 -7044 0
-100 37 7044 0
-436 -7045 0
521 -7045 0
436 -521 7045 0
232 -7046 0
-244 -7046 0
-232 244 7046 0
149 -7047 0
11 -7047 0
-149 -11 7047 0
220 -7048 0
-893 -7048 0
-220 893 7048 0
758 -7049 0
-564 -7049 0
-758 564 7049 0
-288 -7050 0
403 -7050 0
288 -403 7050 0
880 -7051 0
-492 -7051 0
-880 492 7051 0
-658 -7052 0
850 -7052 0
658 -850 7052 0
732 -7053 0
-397 -7053 0
-732 397 7053 0
800 -7054 0
210 -7054 0
-800 -210 7054 0
-99 -7055 0
626 -7055 0
99 -626 7055 0
287 -7056 0
531 -7056 0
-287 -531 7056 0
411 -7057 0
-391 -7057 0
-411 391 7057 0
-689 -7058 0
922 -7058 0
689 -922 7058 0
371 -7059 0
331 -7059 0
-371 -331 7059 0
158 -7060 0
-599 -7060 0
-158 599 7060 0
967 -7061 0
-820 -7061 0
-967 820 7061 0
-953 -7062 0
771 -7062 0
953 -771 7062 0
135 -7063 0
44 -7063 0
-135 -44 7063 0
923 -7064 0
-135 -7064 0
-923 135 7064 0
-713 -7065 0
638 -7065 0
713 -638 7065 0
221 -7066 0
-455 -7066 0
-221 455 7066 0
-266 -7067 0
257 -7067 0
266 -257 7067 0
69 -7068 0
596 -7068 0
-69 -596 7068 0
640 -7069 0
334 -7069 0
-640 -334 7069 0
-219 -7070 0
483 -7070 0
219 -483 7070 0
-832 -7071 0
483 -7071 0
832 -483 7071 0
932 -7072 0
-237 -7072 0
-932 237 7072 0
-532 -7073 0
753 -7073 0
532 -753 7073 0
78 -7074 0
138 -7074 0
-78 -138 7074 0
648 -7075 0
374 -7075 0
-648 -374 7075 0
669 -7076 0
505 -7076 0
-669 -505 7076 0
304 -7077 0
354 -7077 0
-304 -354 7077 0
279 -7078 0
-429 -7078 0
-279 429 7078 0
708 -7079 0
617 -7079 0
-708 -617 7079 0
847 -7080 0
-326 -7080 0
-847 326 7080 0
39 -7081 0
-170 -7081 0
-39 170 7081 0
640 -7082 0
993 -7082 0
-640 -993 7082 0
682 -7083 0
209 -7083 0
-682 -209 7083 0
40 -7084 0
790 -7084 0
-40 -790 7084 0
550 -7085 0
156 -7085 0
-550 -156 7085 0
76 -7086 0
-967 -7086 0
-76 967 7086 0
456 -7087 0
392 -7087 0
-456 -392 7087 0
24 -7088 0
285 -7088 0
-24 -285 7088 0
-965 -7089 0
337 -7089 0
965 -337 7089 0
724 -7090 0
284 -7090 0
-724 -284 7090 0
120 -7091 0
-428 -7091 0
-120 428 7091 0
740 -7092 0
-276 -7092 0
-740 276 7092 0
53 -7093 0
-847 -7093 0
-53 847 7093 0
-979 -7094 0
771 -7094 0
979 -771 7094 0
698 -7095 0
770 -7095 0
-698 -770 7095 0
726 -7096 0
-12 -7096 0
-726 12 7096 0
272 -7097 0
292 -7097 0
-272 -292 7097 0
-651 -7098 0
772 -7098 0
651 -772 7098 0
-464 -7099 0
793 -7099 0
464 -793 7099 0
-413 -7100 0
217 -7100 0
413 -217 7100 0
-336 -7101 0
818 -7101 0
336 -818 7101 0
439 -7102 0
659 -7102 0
-439 -659 7102 0
292 -7103 0
-501 -7103 0
-292 501 7103 0
-851 -7104 0
218 -7104 0
851 -218 7104 0
-648 -7105 0
209 -7105 0
648 -209 7105 0
168 -7106 0
161 -7106 0
-168 -161 7106 0
360 -7107 0
-19 -7107 0
-360 19 7107 0
-832 -7108 0
362 -7108 0
832 -362 7108 0
728 -7109 0
-938 -7109 0
-728 938 7109 0
-729 -7110 0
732 -7110 0
729 -732 7110 0
-28 -7111 0
385 -7111 0
28 -385 7111 0
-610 -7112 0
521 -7112 0
610 -521 7112 0
-345 -7113 0
387 -7113 0
345 -387 7113 0
-469 -7114 0
498 -7114 0
469 -498 7114 0
-801 -7115 0
457 -7115 0
801 -457 7115 0
-969 -7116 0
556 -7116 0
969 -556 7116 0
-648 -7117 0
369 -7117 0
648 -369 7117 0
740 -7118 0
-703 -7118 0
-740 703 7118 0
-325 -7119 0
362 -7119 0
325 -362 7119 0
184 -7120 0
470 -7120 0
-184 -470 7120 0
700 -7121 0
-671 -7121 0
-700 671 7121 0
703 -7122 0
-994 -7122 0
-703 994 7122 0
-281 -7123 0
649 -7123 0
281 -649 7123 0
21 -7124 0
234 -7124 0
-21 -234 7124 0
277 -7125 0
522 -7125 0
-277 -522 7125 0
-867 -7126 0
172 -7126 0
867 -172 7126 0
790 -7127 0
-981 -7127 0
-790 981 7127 0
-465 -7128 0
671 -7128 0
465 -671 7128 0
340 -7129 0
906 -7129 0
-340 -906 7129 0
316 -7130 0
-750 -7130 0
-316 750 7130 0
160 -7131 0
-678 -7131 0
-160 678 7131 0
868 -7132 0
260 -7132 0
-868 -260 7132 0
557 -7133 0
-622 -7133 0
-557 622 7133 0
968 -7134 0
183 -7134 0
-968 -183 7134 0
776 -7135 0
429 -7135 0
-776 -429 7135 0
916 -7136 0
300 -7136 0
-916 -300 7136 0
256 -7137 0
-675 -7137 0
-256 675 7137 0
127 -7138 0
37 -7138 0
-127 -37 7138 0
200 -7139 0
-822 -7139 0
-200 822 7139 0
847 -7140 0
541 -7140 0
-847 -541 7140 0
-139 -7141 0
170 -7141 0
139 -170 7141 0
804 -7142 0
-21 -7142 0
-804 21 7142 0
105 -7143 0
265 -7143 0
-105 -265 7143 0
-960 -7144 0
802 -7144 0
960 -802 7144 0
-681 -7145 0
886 -7145 0
681 -886 7145 0
688 -7146 0
465 -7146 0
-688 -465 7146 0
1000 -7147 0
749 -7147 0
-1000 -749 7147 0
-253 -7148 0
362 -7148 0
253 -362 7148 0
608 -7149 0
-962 -7149 0
-608 962 7149 0
277 -7150 0
161 -7150 0
-277 -161 7150 0
788 -7151 0
219 -7151 0
-788 -219 7151 0
551 -7152 0
-829 -7152 0
-551 829 7152 0
-186 -7153 0
366 -7153 0
186 -366 7153 0
947 -7154 0
963 -7154 0
-947 -963 7154 0
-290 -7155 0
205 -7155 0
290 -205 7155 0
810 -7156 0
137 -7156 0
-810 -137 7156 0
632 -7157 0
-734 -7157 0
-632 734 7157 0
-385 -7158 0
382 -7158 0
385 -382 7158 0
-160 -7159 0
60 -7159 0
160 -60 7159 0
812 -7160 0
139 -7160 0
-812 -139 7160 0
-794 -7161 0
516 -7161 0
794 -516 7161 0
-697 -7162 0
635 -7162 0
697 -635 7162 0
302 -7163 0
-87 -7163 0
-302 87 7163 0
934 -7164 0
-949 -7164 0
-934 949 7164 0
-425 -7165 0
730 -7165 0
425 -730 7165 0
27 -7166 0
-101 -7166 0
-27 101 7166 0
72 -7167 0
783 -7167 0
-72 -783 7167 0
247 -7168 0
-830 -7168 0
-247 830 7168 0
-306 -7169 0
52 -7169 0
306 -52 7169 0
637 -7170 0
-916 -7170 0
-637 916 7170 0
565 -7171 0
549 -7171 0
-565 -549 7171 0
149 -7172 0
91 -7172 0
-149 -91 7172 0
-464 -7173 0
974 -7173 0
464 -974 7173 0
743 -7174 0
108 -7174 0
-743 -108 7174 0
251 -7175 0
866 -7175 0
-251 -866 7175 0
-869 -7176 0
17 -7176 0
869 -17 7176 0
-264 -7177 0
911 -7177 0
264 -911 7177 0
-326 -7178 0
97 -7178 0
326 -97 7178 0
806 -7179 0
11 -7179 0
-806 -11 7179 0
-801 -7180 0
769 -7180 0
801 -769 7180 0
422 -7181 0
-150 -7181 0
-422 150 7181 0
950 -7182 0
-318 -7182 0
-950 318 7182 0
6 -7183 0
-685 -7183 0
-6 685 7183 0
580 -7184 0
219 -7184 0
-580 -219 7184 0
272 -7185 0
-214 -7185 0
-272 214 7185 0
-659 -7186 0
362 -7186 0
659 -362 7186 0
-961 -7187 0
231 -7187 0
961 -231 7187 0
-131 -7188 0
946 -7188 0
131 -946 7188 0
-785 -7189 0
169 -7189 0
785 -169 7189 0
156 -7190 0
-284 -7190 0
-156 284 7190 0
216 -7191 0
860 -7191 0
-216 -860 7191 0
618 -7192 0
66 -7192 0
-618 -66 7192 0
-40 -7193 0
966 -7193 0
40 -966 7193 0
63 -7194 0
-722 -7194 0
-63 722 7194 0
-184 -7195 0
805 -7195 0
184 -805 7195 0
399 -7196 0
534 -7196 0
-399 -534 7196 0
-138 -7197 0
825 -7197 0
138 -825 7197 0
-296 -7198 0
60 -7198 0
296 -60 7198 0
954 -7199 0
633 -7199 0
-954 -633 7199 0
310 -7200 0
538 -7200 0
-310 -538 7200 0
766 -7201 0
269 -7201 0
-766 -269 7201 0
490 -7202 0
-15 -7202 0
-490 15 7202 0
-800 -7203 0
92 -7203 0
800 -92 7203 0
-728 -7204 0
179 -7204 0
728 -179 7204 0
332 -7205 0
-317 -7205 0
-332 317 7205 0
647 -7206 0
-183 -7206 0
-647 183 7206 0
48 -7207 0
-751 -7207 0
-48 751 7207 0
319 -7208 0
531 -7208 0
-319 -531 7208 0
846 -7209 0
156 -7209 0
-846 -156 7209 0
781 -7210 0
-893 -7210 0
-781 893 7210 0
-355 -7211 0
436 -7211 0
355 -436 7211 0
-112 -7212 0
716 -7212 0
112 -716 7212 0
-98 -7213 0
586 -7213 0
98 -586 7213 0
565 -7214 0
13 -7214 0
-565 -13 7214 0
575 -7215 0
-683 -7215 0
-575 683 7215 0
-722 -7216 0
885 -7216 0
722 -885 7216 0
31 -7217 0
-998 -7217 0
-31 998 7217 0
898 -7218 0
450 -7218 0
-898 -450 7218 0
739 -7219 0
-447 -7219 0
-739 447 7219 0
-361 -7220 0
491 -7220 0
361 -491 7220 0
-58 -7221 0
633 -7221 0
58 -633 7221 0
148 -7222 0
-382 -7222 0
-148 382 7222 0
-619 -7223 0
938 -7223 0
619 -938 7223 0
655 -7224 0
780 -7224 0
-655 -780 7224 0
247 -7225 0
-916 -7225 0
-247 916 7225 0
-971 -7226 0
873 -7226 0
971 -873 7226 0
906 -7227 0
121 -7227 0
-906 -121 7227 0
790 -7228 0
-557 -7228 0
-790 557 7228 0
800 -7229 0
307 -7229 0
-800 -307 7229 0
-177 -7230 0
954 -7230 0
177 -954 7230 0
126 -7231 0
-15 -7231 0
-126 15 7231 0
-554 -7232 0
170 -7232 0
554 -170 7232 0
313 -7233 0
-151 -7233 0
-313 151 7233 0
64 -7234 0
641 -7234 0
-64 -641 7234 0
-396 -7235 0
404 -7235 0
396 -404 7235 0
852 -7236 0
-118 -7236 0
-852 118 7236 0
917 -7237 0
-222 -7237 0
-917 222 7237 0
828 -7238 0
834 -7238 0
-828 -834 7238 0
879 -7239 0
550 -7239 0
-879 -550 7239 0
212 -7240 0
274 -7240 0
-212 -274 7240 0
332 -7241 0
721 -7241 0
-332 -721 7241 0
652 -7242 0
-677 -7242 0
-652 677 7242 0
207 -7243 0
-273 -7243 0
-207 273 7243 0
-239 -7244 0
577 -7244 0
239 -577 7244 0
-417 -7245 0
443 -7245 0
417 -443 7245 0
518 -7246 0
362 -7246 0
-518 -362 7246 0
-25 -7247 0
898 -7247 0
25 -898 7247 0
111 -7248 0
650 -7248 0
-111 -650 7248 0
31 -7249 0
-813 -7249 0
-31 813 7249 0
-604 -7250 0
818 -7250 0
604 -818 7250 0
-90 -7251 0
761 -7251 0
90 -761 7251 0
-261 -7252 0
802 -7252 0
261 -802 7252 0
975 -7253 0
-963 -7253 0
-975 963 7253 0
908 -7254 0
321 -7254 0
-908 -321 7254 0
588 -7255 0
-303 -7255 0
-588 303 7255 0
-728 -7256 0
39 -7256 0
728 -39 7256 0
711 -7257 0
-467 -7257 0
-711 467 7257 0
343 -7258 0
748 -7258 0
-343 -748 7258 0
581 -7259 0
557 -7259 0
-581 -557 7259 0
-939 -7260 0
570 -7260 0
939 -570 7260 0
823 -7261 0
-245 -7261 0
-823 245 7261 0
183 -7262 0
-438 -7262 0
-183 438 7262 0
-337 -7263 0
994 -7263 0
337 -994 7263 0
48 -7264 0
-286 -7264 0
-48 286 7264 0
559 -7265 0
13 -7265 0
-559 -13 7265 0
407 -7266 0
358 -7266 0
-407 -358 7266 0
-297 -7267 0
670 -7267 0
297 -670 7267 0
-117 -7268 0
329 -7268 0
117 -329 7268 0
720 -7269 0
204 -7269 0
-720 -204 7269 0
448 -7270 0
-447 -7270 0
-448 447 7270 0
-347 -7271 0
723 -7271 0
347 -723 7271 0
-665 -7272 0
281 -7272 0
665 -281 7272 0
524 -7273 0
-759 -7273 0
-524 759 7273 0
463 -7274 0
-14 -7274 0
-463 14 7274 0
966 -7275 0
589 -7275 0
-966 -589 7275 0
174 -7276 0
-932 -7276 0
-174 932 7276 0
854 -7277 0
769 -7277 0
-854 -769 7277 0
-570 -7278 0
165 -7278 0
570 -165 7278 0
550 -7279 0
-205 -7279 0
-550 205 7279 0
293 -7280 0
-428 -7280 0
-293 428 7280 0
527 -7281 0
549 -7281 0
-527 -549 7281 0
602 -7282 0
122 -7282 0
-602 -122 7282 0
877 -7283 0
-236 -7283 0
-877 236 7283 0
-397 -7284 0
217 -7284 0
397 -217 7284 0
293 -7285 0
-836 -7285 0
-293 836 7285 0
239 -7286 0
489 -7286 0
-239 -489 7286 0
331 -7287 0
282 -7287 0
-331 -282 7287 0
-106 -7288 0
978 -7288 0
106 -978 7288 0
565 -7289 0
-902 -7289 0
-565 902 7289 0
-32 -7290 0
590 -7290 0
32 -590 7290 0
-185 -7291 0
243 -7291 0
185 -243 7291 0
84 -7292 0
-278 -7292 0
-84 278 7292 0
-959 -7293 0
553 -7293 0
959 -553 7293 0
16 -7294 0
-12 -7294 0
-16 12 7294 0
597 -7295 0
853 -7295 0
-597 -853 7295 0
135 -7296 0
749 -7296 0
-135 -749 7296 0
318 -7297 0
-339 -7297 0
-318 339 7297 0
493 -7298 0
869 -7298 0
-493 -869 7298 0
303 -7299 0
-722 -7299 0
-303 722 7299 0
779 -7300 0
-158 -7300 0
-779 158 7300 0
846 -7301 0
724 -7301 0
-846 -724 7301 0
950 -7302 0
-573 -7302 0
-950 573 7302 0
317 -7303 0
-765 -7303 0
-317 765 7303 0
742 -7304 0
748 -7304 0
-742 -748 7304 0
739 -7305 0
-141 -7305 0
-739 141 7305 0
-640 -7306 0
419 -7306 0
640 -419 7306 0
486 -7307 0
525 -7307 0
-486 -525 7307 0
-892 -7308 0
611 -7308 0
892 -611 7308 0
-634 -7309 0
163 -7309 0
634 -163 7309 0
536 -7310 0
-281 -7310 0
-536 281 7310 0
117 -7311 0
-855 -7311 0
-117 855 7311 0
744 -7312 0
-485 -7312 0
-744 485 7312 0
797 -7313 0
-822 -7313 0
-797 822 7313 0
-409 -7314 0
124 -7314 0
409 -124 7314 0
680 -7315 0
-531 -7315 0
-680 531 7315 0
709 -7316 0
477 -7316 0
-709 -477 7316 0
807 -7317 0
-610 -7317 0
-807 610 7317 0
559 -7318 0
-594 -7318 0
-559 594 7318 0
-559 -7319 0
97 -7319 0
559 -97 7319 0
247 -7320 0
419 -7320 0
-247 -419 7320 0
839 -7321 0
-996 -7321 0
-839 996 7321 0
464 -7322 0
-380 -7322 0
-464 380 7322 0
304 -7323 0
-697 -7323 0
-304 697 7323 0
-347 -7324 0
971 -7324 0
347 -971 7324 0
144 -7325 0
-54 -7325 0
-144 54 7325 0
-134 -7326 0
433 -7326 0
134 -433 7326 0
518 -7327 0
76 -7327 0
-518 -76 7327 0
333 -7328 0
778 -7328 0
-333 -778 7328 0
21 -7329 0
-767 -7329 0
-21 767 7329 0
438 -7330 0
-818 -7330 0
-438 818 7330 0
65 -7331 0
265 -7331 0
-65 -265 7331 0
-712 -7332 0
392 -7332 0
712 -392 7332 0
96 -7333 0
-897 -7333 0
-96 897 7333 0
-189 -7334 0
41 -7334 0
189 -41 7334 0
-490 -7335 0
241 -7335 0
490 -241 7335 0
773 -7336 0
-671 -7336 0
-773 671 7336 0
394 -7337 0
473 -7337 0
-394 -473 7337 0
-114 -7338 0
52 -7338 0
114 -52 7338 0
-232 -7339 0
788 -7339 0
232 -788 7339 0
-428 -7340 0
331 -7340 0
428 -331 7340 0
317 -7341 0
-455 -7341 0
-317 455 7341 0
-666 -7342 0
209 -7342 0
666 -209 7342 0
519 -7343 0
-403 -7343 0
-519 403 7343 0
966 -7344 0
-703 -7344 0
-966 703 7344 0
520 -7345 0
350 -7345 0
-520 -350 7345 0
448 -7346 0
-868 -7346 0
-448 868 7346 0
311 -7347 0
-822 -7347 0
-311 822 7347 0
419 -7348 0
-615 -7348 0
-419 615 7348 0
952 -7349 0
-759 -7349 0
-952 759 7349 0
-885 -7350 0
674 -7350 0
885 -674 7350 0
720 -7351 0
-312 -7351 0
-720 312 7351 0
328 -7352 0
563 -7352 0
-328 -563 7352 0
621 -7353 0
713 -7353 0
-621 -713 7353 0
7 -7354 0
-779 -7354 0
-7 779 7354 0
-256 -7355 0
675 -7355 0
256 -675 7355 0
-719 -7356 0
417 -7356 0
719 -417 7356 0
462 -7357 0
580 -7357 0
-462 -580 7357 0
-793 -7358 0
963 -7358 0
793 -963 7358 0
-49 -7359 0
306 -7359 0
49 -306 7359 0
-320 -7360 0
868 -7360 0
320 -868 7360 0
933 -7361 0
-215 -7361 0
-933 215 7361 0
-916 -7362 0
204 -7362 0
916 -204 7362 0
528 -7363 0
415 -7363 0
-528 -415 7363 0
309 -7364 0
-678 -7364 0
-309 678 7364 0
496 -7365 0
-513 -7365 0
-496 513 7365 0
816 -7366 0
855 -7366 0
-816 -855 7366 0
669 -7367 0
-631 -7367 0
-669 631 7367 0
390 -7368 0
620 -7368 0
-390 -620 7368 0
981 -7369 0
113 -7369 0
-981 -113 7369 0
16 -7370 0
692 -7370 0
-16 -692 7370 0
759 -7371 0
-757 -7371 0
-759 757 7371 0
516 -7372 0
-199 -7372 0
-516 199 7372 0
-280 -7373 0
781 -7373 0
280 -781 7373 0
142 -7374 0
924 -7374 0
-142 -924 7374 0
775 -7375 0
666 -7375 0
-775 -666 7375 0
495 -7376 0
628 -7376 0
-495 -628 7376 0
471 -7377 0
428 -7377 0
-471 -428 7377 0
-443 -7378 0
313 -7378 0
443 -313 7378 0
821 -7379 0
-143 -7379 0
-821 143 7379 0
430 -7380 0
-379 -7380 0
-430 379 7380 0
608 -7381 0
-668 -7381 0
-608 668 7381 0
-979 -7382 0
50 -7382 0
979 -50 7382 0
964 -7383 0
-742 -7383 0
-964 742 7383 0
-955 -7384 0
714 -7384 0
955 -714 7384 0
-369 -7385 0
500 -7385 0
369 -500 7385 0
-587 -7386 0
434 -7386 0
587 -434 7386 0
616 -7387 0
385 -7387 0
-616 -385 7387 0
205 -7388 0
297 -7388 0
-205 -297 7388 0
211 -7389 0
-566 -7389 0
-211 566 7389 0
253 -7390 0
-837 -7390 0
-253 837 7390 0
528 -7391 0
83 -7391 0
-528 -83 7391 0
-220 -7392 0
715 -7392 0
220 -715 7392 0
-528 -7393 0
305 -7393 0
528 -305 7393 0
-571 -7394 0
961 -7394 0
571 -961 7394 0
746 -7395 0
169 -7395 0
-746 -169 7395 0
64 -7396 0
293 -7396 0
-64 -293 7396 0
-770 -7397 0
995 -7397 0
770 -995 7397 0
-108 -7398 0
331 -7398 0
108 -331 7398 0
875 -7399 0
-286 -7399 0
-875 286 7399 0
875 -7400 0
-470 -7400 0
-875 470 7400 0
742 -7401 0
700 -7401 0
-742 -700 7401 0
-481 -7402 0
907 -7402 0
481 -907 7402 0
-929 -7403 0
194 -7403 0
929 -194 7403 0
402 -7404 0
-502 -7404 0
-402 502 7404 0
431 -7405 0
873 -7405 0
-431 -873 7405 0
623 -7406 0
644 -7406 0
-623 -644 7406 0
-26 -7407 0
653 -7407 0
26 -653 7407 0
-418 -7408 0
366 -7408 0
418 -366 7408 0
-112 -7409 0
72 -7409 0
112 -72 7409 0
133 -7410 0
-701 -7410 0
-133 701 7410 0
224 -7411 0
-953 -7411 0
-224 953 7411 0
176 -7412 0
-171 -7412 0
-176 171 7412 0
-321 -7413 0
58 -7413 0
321 -58 7413 0
541 -7414 0
740 -7414 0
-541 -740 7414 0
528 -7415 0
784 -7415 0
-528 -784 7415 0
47 -7416 0
-783 -7416 0
-47 783 7416 0
638 -7417 0
401 -7417 0
-638 -401 7417 0
-402 -7418 0
276 -7418 0
402 -276 7418 0
-874 -7419 0
138 -7419 0
874 -138 7419 0
-348 -7420 0
393 -7420 0
348 -393 7420 0
400 -7421 0
-324 -7421 0
-400 324 7421 0
-348 -7422 0
34 -7422 0
348 -34 7422 0
282 -7423 0
-687 -7423 0
-282 687 7423 0
327 -7424 0
-895 -7424 0
-327 895 7424 0
623 -7425 0
-108 -7425 0
-623 108 7425 0
-652 -7426 0
186 -7426 0
652 -186 7426 0
66 -7427 0
49 -7427 0
-66 -49 7427 0
-96 -7428 0
989 -7428 0
96 -989 7428 0
-749 -7429 0
121 -7429 0
749 -121 7429 0
-42 -7430 0
693 -7430 0
42 -693 7430 0
919 -7431 0
-318 -7431 0
-919 318 7431 0
-771 -7432 0
141 -7432 0
771 -141 7432 0
696 -7433 0
252 -7433 0
-696 -252 7433 0
976 -7434 0
-366 -7434 0
-976 366 7434 0
679 -7435 0
775 -7435 0
-679 -775 7435 0
-896 -7436 0
979 -7436 0
896 -979 7436 0
-944 -7437 0
857 -7437 0
944 -857 7437 0
419 -7438 0
-830 -7438 0
-419 830 7438 0
647 -7439 0
483 -7439 0
-647 -483 7439 0
-435 -7440 0
889 -7440 0
435 -889 7440 0
596 -7441 0
-501 -7441 0
-596 501 7441 0
213 -7442 0
313 -7442 0
-213 -313 7442 0
495 -7443 0
-715 -7443 0
-495 715 7443 0
760 -7444 0
-394 -7444 0
-760 394 7444 0
661 -7445 0
969 -7445 0
-661 -969 7445 0
-529 -7446 0
550 -7446 0
529 -550 7446 0
896 -7447 0
587 -7447 0
-896 -587 7447 0
54 -7448 0
676 -7448 0
-54 -676 7448 0
258 -7449 0
-527 -7449 0
-258 527 7449 0
-476 -7450 0
394 -7450 0
476 -394 7450 0
802 -7451 0
-607 -7451 0
-802 607 7451 0
-450 -7452 0
258 -7452 0
450 -258 7452 0
6 -7453 0
635 -7453 0
-6 -635 7453 0
-180 -7454 0
194 -7454 0
180 -194 7454 0
-145 -7455 0
91 -7455 0
145 -91 7455 0
-456 -7456 0
419 -7456 0
456 -419 7456 0
822 -7457 0
-798 -7457 0
-822 798 7457 0
-475 -7458 0
433 -7458 0
475 -433 7458 0
655 -7459 0
996 -7459 0
-655 -996 7459 0
-344 -7460 0
218 -7460 0
344 -218 7460 0
986 -7461 0
473 -7461 0
-986 -473 7461 0
288 -7462 0
15 -7462 0
-288 -15 7462 0
629 -7463 0
321 -7463 0
-629 -321 7463 0
216 -7464 0
-411 -7464 0
-216 411 7464 0
280 -7465 0
318 -7465 0
-280 -318 7465 0
6 -7466 0
-804 -7466 0
-6 804 7466 0
58 -7467 0
-343 -7467 0
-58 343 7467 0
664 -7468 0
-392 -7468 0
-664 392 7468 0
-900 -7469 0
610 -7469 0
900 -610 7469 0
558 -7470 0
290 -7470 0
-558 -290 7470 0
290 -7471 0
-54 -7471 0
-290 54 7471 0
230 -7472 0
-243 -7472 0
-230 243 7472 0
318 -7473 0
-663 -7473 0
-318 663 7473 0
55 -7474 0
-141 -7474 0
-55 141 7474 0
-465 -7475 0
726 -7475 0
465 -726 7475 0
-593 -7476 0
465 -7476 0
593 -465 7476 0
803 -7477 0
-503 -7477 0
-803 503 7477 0
-729 -7478 0
947 -7478 0
729 -947 7478 0
-248 -7479 0
155 -7479 0
248 -155 7479 0
142 -7480 0
-462 -7480 0
-142 462 7480 0
303 -7481 0
857 -7481 0
-303 -857 7481 0
915 -7482 0
529 -7482 0
-915 -529 7482 0
230 -7483 0
739 -7483 0
-230 -739 7483 0
-64 -7484 0
708 -7484 0
64 -708 7484 0
293 -7485 0
-605 -7485 0
-293 605 7485 0
117 -7486 0
-341 -7486 0
-117 341 7486 0
183 -7487 0
155 -7487 0
-183 -155 7487 0
816 -7488 0
45 -7488 0
-816 -45 7488 0
902 -7489 0
-678 -7489 0
-902 678 7489 0
917 -7490 0
124 -7490 0
-917 -124 7490 0
470 -7491 0
173 -7491 0
-470 -173 7491 0
-872 -7492 0
743 -7492 0
872 -743 7492 0
-476 -7493 0
236 -7493 0
476 -236 7493 0
-934 -7494 0
234 -7494 0
934 -234 7494 0
302 -7495 0
-367 -7495 0
-302 367 7495 0
157 -7496 0
-612 -7496 0
-157 612 7496 0
188 -7497 0
-855 -7497 0
-188 855 7497 0
-242 -7498 0
101 -7498 0
242 -101 7498 0
491 -7499 0
-917 -7499 0
-491 917 7499 0
728 -7500 0
-261 -7500 0
-728 261 7500 0
237 -7501 0
737 -7501 0
-237 -737 7501 0
973 -7502 0
-235 -7502 0
-973 235 7502 0
952 -7503 0
252 -7503 0
-952 -252 7503 0
494 -7504 0
-654 -7504 0
-494 654 7504 0
699 -7505 0
450 -7505 0
-699 -450 7505 0
564 -7506 0
803 -7506 0
-564 -803 7506 0
645 -7507 0
-39 -7507 0
-645 39 7507 0
139 -7508 0
9 -7508 0
-139 -9 7508 0
407 -7509 0
-891 -7509 0
-407 891 7509 0
156 -7510 0
-478 -7510 0
-156 478 7510 0
47 -7511 0
348 -7511 0
-47 -348 7511 0
478 -7512 0
-843 -7512 0
-478 843 7512 0
813 -7513 0
843 -7513 0
-813 -843 7513 0
47 -7514 0
370 -7514 0
-47 -370 7514 0
-913 -7515 0
413 -7515 0
913 -413 7515 0
-163 -7516 0
595 -7516 0
163 -595 7516 0
443 -7517 0
138 -7517 0
-443 -138 7517 0
38 -7518 0
818 -7518 0
-38 -818 7518 0
-777 -7519 0
393 -7519 0
777 -393 7519 0
998 -7520 0
-158 -7520 0
-998 158 7520 0
659 -7521 0
-879 -7521 0
-659 879 7521 0
606 -7522 0
998 -7522 0
-606 -998 7522 0
839 -7523 0
-715 -7523 0
-839 715 7523 0
-853 -7524 0
738 -7524 0
853 -738 7524 0
-904 -7525 0
817 -7525 0
904 -817 7525 0
741 -7526 0
137 -7526 0
-741 -137 7526 0
671 -7527 0
-282 -7527 0
-671 282 7527 0
450 -7528 0
-430 -7528 0
-450 430 7528 0
984 -7529 0
-174 -7529 0
-984 174 7529 0
-756 -7530 0
778 -7530 0
756 -778 7530 0
135 -7531 0
-678 -7531 0
-135 678 7531 0
824 -7532 0
778 -7532 0
-824 -778 7532 0
396 -7533 0
-124 -7533 0
-396 124 7533 0
640 -7534 0
-537 -7534 0
-640 537 7534 0
917 -7535 0
353 -7535 0
-917 -353 7535 0
-785 -7536 0
542 -7536 0
785 -542 7536 0
-601 -7537 0
401 -7537 0
601 -401 7537 0
-714 -7538 0
123 -7538 0
714 -123 7538 0
-857 -7539 0
620 -7539 0
857 -620 7539 0
810 -7540 0
-927 -7540 0
-810 927 7540 0
696 -7541 0
66 -7541 0
-696 -66 7541 0
129 -7542 0
585 -7542 0
-129 -585 7542 0
877 -7543 0
-620 -7543 0
-877 620 7543 0
-322 -7544 0
66 -7544 0
322 -66 7544 0
830 -7545 0
-29 -7545 0
-830 29 7545 0
815 -7546 0
647 -7546 0
-815 -647 7546 0
248 -7547 0
564 -7547 0
-248 -564 7547 0
431 -7548 0
-495 -7548 0
-431 495 7548 0
-449 -7549 0
465 -7549 0
449 -465 7549 0
843 -7550 0
954 -7550 0
-843 -954 7550 0
508 -7551 0
274 -7551 0
-508 -274 7551 0
391 -7552 0
470 -7552 0
-391 -470 7552 0
8 -7553 0
977 -7553 0
-8 -977 7553 0
872 -7554 0
-995 -7555 0
426 -7555 0
995 -426 7555 0
685 -7556 0
669 -7556 0
-685 -669 7556 0
261 -7557 0
345 -7557 0
-261 -345 7557 0
584 -7558 0
815 -7558 0
-584 -815 7558 0
376 -7559 0
676 -7559 0
-376 -676 7559 0
398 -7560 0
-644 -7560 0
-398 644 7560 0
931 -7561 0
619 -7561 0
-931 -619 7561 0
732 -7562 0
306 -7562 0
-732 -306 7562 0
-922 -7563 0
869 -7563 0
922 -869 7563 0
638 -7564 0
-443 -7564 0
-638 443 7564 0
206 -7565 0
460 -7565 0
-206 -460 7565 0
869 -7566 0
-359 -7566 0
-869 359 7566 0
663 -7567 0
-139 -7567 0
-663 139 7567 0
-506 -7568 0
317 -7568 0
506 -317 7568 0
847 -7569 0
892 -7569 0
-847 -892 7569 0
829 -7570 0
-254 -7570 0
-829 254 7570 0
600 -7571 0
-982 -7571 0
-600 982 7571 0
326 -7572 0
604 -7572 0
-326 -604 7572 0
208 -7573 0
65 -7573 0
-208 -65 7573 0
437 -7574 0
85 -7574 0
-437 -85 7574 0
-315 -7575 0
19 -7575 0
315 -19 7575 0
950 -7576 0
-854 -7576 0
-950 854 7576 0
52 -7577 0
-334 -7577 0
-52 334 7577 0
28 -7578 0
-535 -7578 0
-28 535 7578 0
-41 -7579 0
282 -7579 0
41 -282 7579 0
351 -7580 0
-259 -7580 0
-351 259 7580 0
56 -7581 0
-399 -7581 0
-56 399 7581 0
655 -7582 0
-850 -7582 0
-655 850 7582 0
148 -7583 0
-686 -7583 0
-148 686 7583 0
-226 -7584 0
865 -7584 0
226 -865 7584 0
522 -7585 0
689 -7585 0
-522 -689 7585 0
-584 -7586 0
514 -7586 0
584 -514 7586 0
661 -7587 0
-6 -7587 0
-661 6 7587 0
641 -7588 0
-95 -7588 0
-641 95 7588 0
-841 -7589 0
234 -7589 0
841 -234 7589 0
-769 -7590 0
20 -7590 0
769 -20 7590 0
294 -7591 0
-671 -7591 0
-294 671 7591 0
960 -7592 0
-6 -7592 0
-960 6 7592 0
183 -7593 0
-663 -7593 0
-183 663 7593 0
-595 -7594 0
489 -7594 0
595 -489 7594 0
-377 -7595 0
461 -7595 0
377 -461 7595 0
258 -7596 0
577 -7597 0
-927 -7597 0
-577 927 7597 0
-936 -7598 0
552 -7598 0
936 -552 7598 0
631 -7599 0
470 -7599 0
-631 -470 7599 0
960 -7600 0
313 -7600 0
-960 -313 7600 0
832 -7601 0
282 -7601 0
-832 -282 7601 0
991 -7602 0
-249 -7602 0
-991 249 7602 0
-600 -7603 0
986 -7603 0
600 -986 7603 0
165 -7604 0
563 -7604 0
-165 -563 7604 0
-867 -7605 0
314 -7605 0
867 -314 7605 0
-450 -7606 0
778 -7606 0
450 -778 7606 0
-56 -7607 0
810 -7607 0
56 -810 7607 0
367 -7608 0
843 -7608 0
-367 -843 7608 0
206 -7609 0
-788 -7609 0
-206 788 7609 0
523 -7610 0
-902 -7610 0
-523 902 7610 0
-17 -7611 0
906 -7611 0
17 -906 7611 0
-616 -7612 0
964 -7612 0
616 -964 7612 0
927 -7613 0
265 -7613 0
-927 -265 7613 0
-531 -7614 0
905 -7614 0
531 -905 7614 0
696 -7615 0
-897 -7615 0
-696 897 7615 0
493 -7616 0
-371 -7616 0
-493 371 7616 0
230 -7617 0
-340 -7617 0
-230 340 7617 0
968 -7618 0
-383 -7618 0
-968 383 7618 0
101 -7619 0
-5 -7619 0
-101 5 7619 0
599 -7620 0
226 -7620 0
-599 -226 7620 0
-626 -7621 0
525 -7621 0
626 -525 7621 0
-840 -7622 0
255 -7622 0
840 -255 7622 0
880 -7623 0
-422 -7623 0
-880 422 7623 0
-65 -7624 0
444 -7624 0
65 -444 7624 0
-266 -7625 0
914 -7625 0
266 -914 7625 0
773 -7626 0
-340 -7626 0
-773 340 7626 0
-520 -7627 0
417 -7627 0
520 -417 7627 0
200 -7628 0
69 -7628 0
-200 -69 7628 0
104 -7629 0
-750 -7629 0
-104 750 7629 0
572 -7630 0
-686 -7630 0
-572 686 7630 0
456 -7631 0
377 -7631 0
-456 -377 7631 0
278 -7632 0
139 -7632 0
-278 -139 7632 0
-817 -7633 0
365 -7633 0
817 -365 7633 0
798 -7634 0
507 -7634 0
-798 -507 7634 0
832 -7635 0
-356 -7635 0
-832 356 7635 0
-710 -7636 0
34 -7636 0
710 -34 7636 0
-592 -7637 0
436 -7637 0
592 -436 7637 0
566 -7638 0
-870 -7638 0
-566 870 7638 0
-485 -7639 0
562 -7639 0
485 -562 7639 0
-747 -7640 0
801 -7640 0
747 -801 7640 0
275 -7641 0
249 -7641 0
-275 -249 7641 0
-700 -7642 0
412 -7642 0
700 -412 7642 0
927 -7643 0
-911 -7643 0
-927 911 7643 0
568 -7644 0
-156 -7644 0
-568 156 7644 0
416 -7645 0
-533 -7645 0
-416 533 7645 0
671 -7646 0
633 -7646 0
-671 -633 7646 0
-611 -7647 0
627 -7647 0
611 -627 7647 0
251 -7648 0
963 -7648 0
-251 -963 7648 0
56 -7649 0
486 -7649 0
-56 -486 7649 0
165 -7650 0
26 -7650 0
-165 -26 7650 0
192 -7651 0
301 -7651 0
-192 -301 7651 0
704 -7652 0
365 -7652 0
-704 -365 7652 0
-499 -7653 0
948 -7653 0
499 -948 7653 0
344 -7654 0
-367 -7654 0
-344 367 7654 0
495 -7655 0
18 -7655 0
-495 -18 7655 0
271 -7656 0
-966 -7656 0
-271 966 7656 0
301 -7657 0
283 -7657 0
-301 -283 7657 0
430 -7658 0
366 -7658 0
-430 -366 7658 0
311 -7659 0
817 -7659 0
-311 -817 7659 0
-914 -7660 0
373 -7660 0
914 -373 7660 0
238 -7661 0
715 -7661 0
-238 -715 7661 0
470 -7662 0
-935 -7662 0
-470 935 7662 0
69 -7663 0
-590 -7663 0
-69 590 7663 0
307 -7664 0
138 -7664 0
-307 -138 7664 0
757 -7665 0
956 -7665 0
-757 -956 7665 0
866 -7666 0
-654 -7666 0
-866 654 7666 0
29 -7667 0
365 -7667 0
-29 -365 7667 0
181 -7668 0
-279 -7668 0
-181 279 7668 0
271 -7669 0
305 -7669 0
-271 -305 7669 0
988 -7670 0
-13 -7670 0
-988 13 7670 0
568 -7671 0
-108 -7671 0
-568 108 7671 0
101 -7672 0
-229 -7672 0
-101 229 7672 0
-932 -7673 0
948 -7673 0
932 -948 7673 0
365 -7674 0
691 -7674 0
-365 -691 7674 0
772 -7675 0
898 -7675 0
-772 -898 7675 0
-809 -7676 0
452 -7676 0
809 -452 7676 0
664 -7677 0
-838 -7677 0
-664 838 7677 0
-226 -7678 0
882 -7678 0
226 -882 7678 0
677 -7679 0
-85 -7679 0
-677 85 7679 0
902 -7680 0
-651 -7680 0
-902 651 7680 0
782 -7681 0
210 -7681 0
-782 -210 7681 0
-848 -7682 0
417 -7682 0
848 -417 7682 0
907 -7683 0
601 -7683 0
-907 -601 7683 0
-897 -7684 0
294 -7684 0
897 -294 7684 0
-64 -7685 0
751 -7685 0
64 -751 7685 0
-626 -7686 0
844 -7686 0
626 -844 7686 0
533 -7687 0
945 -7687 0
-533 -945 7687 0
515 -7688 0
385 -7688 0
-515 -385 7688 0
202 -7689 0
666 -7689 0
-202 -666 7689 0
590 -7690 0
221 -7690 0
-590 -221 7690 0
430 -7691 0
92 -7691 0
-430 -92 7691 0
254 -7692 0
-19 -7692 0
-254 19 7692 0
-88 -7693 0
701 -7693 0
88 -701 7693 0
352 -7694 0
111 -7694 0
-352 -111 7694 0
776 -7695 0
-561 -7695 0
-776 561 7695 0
-592 -7696 0
917 -7696 0
592 -917 7696 0
93 -7697 0
-311 -7697 0
-93 311 7697 0
288 -7698 0
750 -7698 0
-288 -750 7698 0
592 -7699 0
802 -7699 0
-592 -802 7699 0
118 -7700 0
702 -7700 0
-118 -702 7700 0
999 -7701 0
-402 -7701 0
-999 402 7701 0
247 -7702 0
-44 -7702 0
-247 44 7702 0
731 -7703 0
-951 -7703 0
-731 951 7703 0
-473 -7704 0
947 -7704 0
473 -947 7704 0
704 -7705 0
389 -7705 0
-704 -389 7705 0
864 -7706 0
-769 -7706 0
-864 769 7706 0
432 -7707 0
164 -7707 0
-432 -164 7707 0
878 -7708 0
453 -7708 0
-878 -453 7708 0
366 -7709 0
-534 -7709 0
-366 534 7709 0
-578 -7710 0
203 -7710 0
578 -203 7710 0
853 -7711 0
721 -7711 0
-853 -721 7711 0
-952 -7712 0
828 -7712 0
952 -828 7712 0
78 -7713 0
-859 -7713 0
-78 859 7713 0
-130 -7714 0
901 -7714 0
130 -901 7714 0
916 -7715 0
443 -7715 0
-916 -443 7715 0
-26 -7716 0
155 -7716 0
26 -155 7716 0
116 -7717 0
178 -7717 0
-116 -178 7717 0
-522 -7718 0
765 -7718 0
522 -765 7718 0
-43 -7719 0
938 -7719 0
43 -938 7719 0
181 -7720 0
-821 -7720 0
-181 821 7720 0
102 -7721 0
258 -7721 0
-102 -258 7721 0
120 -7722 0
881 -7722 0
-120 -881 7722 0
-443 -7723 0
348 -7723 0
443 -348 7723 0
-528 -7724 0
519 -7724 0
528 -519 7724 0
688 -7725 0
-973 -7725 0
-688 973 7725 0
563 -7726 0
834 -7726 0
-563 -834 7726 0
416 -7727 0
-125 -7727 0
-416 125 7727 0
159 -7728 0
-267 -7728 0
-159 267 7728 0
877 -7729 0
-325 -7729 0
-877 325 7729 0
-965 -7730 0
50 -7730 0
965 -50 7730 0
-137 -7731 0
509 -7731 0
137 -509 7731 0
-277 -7732 0
346 -7732 0
277 -346 7732 0
543 -7733 0
-458 -7733 0
-543 458 7733 0
347 -7734 0
-703 -7734 0
-347 703 7734 0
-496 -7735 0
750 -7735 0
496 -750 7735 0
-87 -7736 0
385 -7736 0
87 -385 7736 0
543 -7737 0
322 -7737 0
-543 -322 7737 0
-978 -7738 0
730 -7738 0
978 -730 7738 0
-432 -7739 0
602 -7739 0
432 -602 7739 0
-512 -7740 0
105 -7740 0
512 -105 7740 0
-694 -7741 0
786 -7741 0
694 -786 7741 0
780 -7742 0
457 -7742 0
-780 -457 7742 0
332 -7743 0
586 -7743 0
-332 -586 7743 0
-50 -7744 0
29 -7744 0
50 -29 7744 0
-148 -7745 0
842 -7745 0
148 -842 7745 0
-211 -7746 0
530 -7746 0
211 -530 7746 0
408 -7747 0
-490 -7747 0
-408 490 7747 0
-849 -7748 0
595 -7748 0
849 -595 7748 0
-16 -7749 0
322 -7749 0
16 -322 7749 0
890 -7750 0
930 -7750 0
-890 -930 7750 0
85 -7751 0
-317 -7751 0
-85 317 7751 0
-219 -7752 0
690 -7752 0
219 -690 7752 0
608 -7753 0
828 -7753 0
-608 -828 7753 0
366 -7754 0
317 -7754 0
-366 -317 7754 0
-35 -7755 0
60 -7755 0
35 -60 7755 0
643 -7756 0
-534 -7756 0
-643 534 7756 0
464 -7757 0
119 -7757 0
-464 -119 7757 0
209 -7758 0
441 -7758 0
-209 -441 7758 0
700 -7759 0
-13 -7759 0
-700 13 7759 0
402 -7760 0
369 -7760 0
-402 -369 7760 0
573 -7761 0
325 -7761 0
-573 -325 7761 0
925 -7762 0
834 -7762 0
-925 -834 7762 0
-812 -7763 0
34 -7763 0
812 -34 7763 0
572 -7764 0
-268 -7764 0
-572 268 7764 0
459 -7765 0
-583 -7765 0
-459 583 7765 0
-297 -7766 0
57 -7766 0
297 -57 7766 0
12 -7767 0
915 -7767 0
-12 -915 7767 0
344 -7768 0
41 -7768 0
-344 -41 7768 0
887 -7769 0
745 -7769 0
-887 -745 7769 0
-110 -7770 0
737 -7770 0
110 -737 7770 0
455 -7771 0
887 -7771 0
-455 -887 7771 0
299 -7772 0
179 -7772 0
-299 -179 7772 0
360 -7773 0
-905 -7773 0
-360 905 7773 0
871 -7774 0
-165 -7774 0
-871 165 7774 0
48 -7775 0
450 -7775 0
-48 -450 7775 0
-448 -7776 0
106 -7776 0
448 -106 7776 0
56 -7777 0
570 -7777 0
-56 -570 7777 0
902 -7778 0
130 -7778 0
-902 -130 7778 0
235 -7779 0
-590 -7779 0
-235 590 7779 0
-542 -7780 0
305 -7780 0
542 -305 7780 0
-10 -7781 0
537 -7781 0
10 -537 7781 0
949 -7782 0
795 -7782 0
-949 -795 7782 0
-368 -7783 0
69 -7783 0
368 -69 7783 0
775 -7784 0
-356 -7784 0
-775 356 7784 0
463 -7785 0
187 -7785 0
-463 -187 7785 0
152 -7786 0
772 -7786 0
-152 -772 7786 0
603 -7787 0
185 -7787 0
-603 -185 7787 0
536 -7788 0
531 -7788 0
-536 -531 7788 0
117 -7789 0
75 -7789 0
-117 -75 7789 0
284 -7790 0
-582 -7790 0
-284 582 7790 0
779 -7791 0
945 -7791 0
-779 -945 7791 0
-688 -7792 0
891 -7792 0
688 -891 7792 0
-521 -7793 0
230 -7793 0
521 -230 7793 0
768 -7794 0
574 -7794 0
-768 -574 7794 0
-595 -7795 0
461 -7795 0
595 -461 7795 0
840 -7796 0
-860 -7796 0
-840 860 7796 0
475 -7797 0
-351 -7797 0
-475 351 7797 0
941 -7798 0
-39 -7798 0
-941 39 7798 0
-548 -7799 0
787 -7799 0
548 -787 7799 0
944 -7800 0
-430 -7800 0
-944 430 7800 0
966 -7801 0
769 -7801 0
-966 -769 7801 0
352 -7802 0
781 -7802 0
-352 -781 7802 0
89 -7803 0
777 -7803 0
-89 -777 7803 0
-571 -7804 0
865 -7804 0
571 -865 7804 0
182 -7805 0
338 -7805 0
-182 -338 7805 0
-962 -7806 0
25 -7806 0
962 -25 7806 0
448 -7807 0
-186 -7807 0
-448 186 7807 0
563 -7808 0
-847 -7808 0
-563 847 7808 0
861 -7809 0
-822 -7809 0
-861 822 7809 0
903 -7810 0
498 -7810 0
-903 -498 7810 0
217 -7811 0
401 -7811 0
-217 -401 7811 0
692 -7812 0
379 -7812 0
-692 -379 7812 0
592 -7813 0
-351 -7813 0
-592 351 7813 0
473 -7814 0
-951 -7814 0
-473 951 7814 0
-835 -7815 0
995 -7815 0
835 -995 7815 0
94 -7816 0
-53 -7816 0
-94 53 7816 0
807 -7817 0
-261 -7817 0
-807 261 7817 0
661 -7818 0
577 -7818 0
-661 -577 7818 0
-931 -7819 0
716 -7819 0
931 -716 7819 0
171 -7820 0
-223 -7820 0
-171 223 7820 0
-457 -7821 0
338 -7821 0
457 -338 7821 0
269 -7822 0
212 -7822 0
-269 -212 7822 0
-265 -7823 0
893 -7823 0
265 -893 7823 0
54 -7824 0
-116 -7824 0
-54 116 7824 0
-712 -7825 0
777 -7825 0
712 -777 7825 0
-104 -7826 0
83 -7826 0
104 -83 7826 0
-462 -7827 0
65 -7827 0
462 -65 7827 0
368 -7828 0
-430 -7828 0
-368 430 7828 0
868 -7829 0
801 -7829 0
-868 -801 7829 0
981 -7830 0
811 -7830 0
-981 -811 7830 0
-875 -7831 0
780 -7831 0
875 -780 7831 0
534 -7832 0
470 -7832 0
-534 -470 7832 0
-477 -7833 0
899 -7833 0
477 -899 7833 0
-68 -7834 0
297 -7834 0
68 -297 7834 0
-554 -7835 0
529 -7835 0
554 -529 7835 0
774 -7836 0
188 -7836 0
-774 -188 7836 0
-30 -7837 0
137 -7837 0
30 -137 7837 0
520 -7838 0
79 -7838 0
-520 -79 7838 0
439 -7839 0
113 -7839 0
-439 -113 7839 0
407 -7840 0
-963 -7840 0
-407 963 7840 0
474 -7841 0
978 -7841 0
-474 -978 7841 0
409 -7842 0
121 -7842 0
-409 -121 7842 0
-158 -7843 0
313 -7843 0
158 -313 7843 0
-557 -7844 0
145 -7844 0
557 -145 7844 0
424 -7845 0
-516 -7845 0
-424 516 7845 0
408 -7846 0
-780 -7846 0
-408 780 7846 0
501 -7847 0
572 -7847 0
-501 -572 7847 0
181 -7848 0
611 -7848 0
-181 -611 7848 0
136 -7849 0
66 -7849 0
-136 -66 7849 0
645 -7850 0
185 -7850 0
-645 -185 7850 0
900 -7851 0
-901 -7851 0
-900 901 7851 0
-387 -7852 0
945 -7852 0
387 -945 7852 0
827 -7853 0
-791 -7853 0
-827 791 7853 0
702 -7854 0
428 -7854 0
-702 -428 7854 0
60 -7855 0
658 -7855 0
-60 -658 7855 0
-571 -7856 0
817 -7856 0
571 -817 7856 0
391 -7857 0
402 -7857 0
-391 -402 7857 0
155 -7858 0
-701 -7858 0
-155 701 7858 0
600 -7859 0
611 -7859 0
-600 -611 7859 0
-747 -7860 0
204 -7860 0
747 -204 7860 0
868 -7861 0
986 -7861 0
-868 -986 7861 0
-708 -7862 0
913 -7862 0
708 -913 7862 0
-901 -7863 0
553 -7863 0
901 -553 7863 0
-712 -7864 0
655 -7864 0
712 -655 7864 0
746 -7865 0
-631 -7865 0
-746 631 7865 0
320 -7866 0
-524 -7866 0
-320 524 7866 0
-36 -7867 0
979 -7867 0
36 -979 7867 0
907 -7868 0
953 -7868 0
-907 -953 7868 0
-84 -7869 0
25 -7869 0
84 -25 7869 0
639 -7870 0
197 -7870 0
-639 -197 7870 0
-176 -7871 0
318 -7871 0
176 -318 7871 0
731 -7872 0
137 -7872 0
-731 -137 7872 0
575 -7873 0
-150 -7873 0
-575 150 7873 0
392 -7874 0
-929 -7874 0
-392 929 7874 0
127 -7875 0
706 -7875 0
-127 -706 7875 0
641 -7876 0
609 -7876 0
-641 -609 7876 0
-421 -7877 0
313 -7877 0
421 -313 7877 0
503 -7878 0
954 -7878 0
-503 -954 7878 0
909 -7879 0
-300 -7879 0
-909 300 7879 0
950 -7880 0
857 -7880 0
-950 -857 7880 0
872 -7881 0
-943 -7881 0
-872 943 7881 0
358 -7882 0
-839 -7882 0
-358 839 7882 0
-568 -7883 0
588 -7883 0
568 -588 7883 0
632 -7884 0
-42 -7884 0
-632 42 7884 0
915 -7885 0
66 -7885 0
-915 -66 7885 0
736 -7886 0
468 -7886 0
-736 -468 7886 0
171 -7887 0
-759 -7887 0
-171 759 7887 0
-298 -7888 0
505 -7888 0
298 -505 7888 0
815 -7889 0
-686 -7889 0
-815 686 7889 0
-803 -7890 0
284 -7890 0
803 -284 7890 0
965 -7891 0
-782 -7891 0
-965 782 7891 0
384 -7892 0
885 -7892 0
-384 -885 7892 0
-755 -7893 0
149 -7893 0
755 -149 7893 0
533 -7894 0
355 -7894 0
-533 -355 7894 0
216 -7895 0
598 -7895 0
-216 -598 7895 0
-258 -7896 0
18 -7896 0
258 -18 7896 0
978 -7897 0
617 -7897 0
-978 -617 7897 0
-461 -7898 0
777 -7898 0
461 -777 7898 0
423 -7899 0
812 -7899 0
-423 -812 7899 0
-555 -7900 0
605 -7900 0
555 -605 7900 0
-856 -7901 0
915 -7901 0
856 -915 7901 0
703 -7902 0
-361 -7902 0
-703 361 7902 0
239 -7903 0
782 -7903 0
-239 -782 7903 0
-937 -7904 0
127 -7904 0
937 -127 7904 0
-482 -7905 0
179 -7905 0
482 -179 7905 0
-321 -7906 0
666 -7906 0
321 -666 7906 0
-224 -7907 0
718 -7907 0
224 -718 7907 0
396 -7908 0
499 -7908 0
-396 -499 7908 0
389 -7909 0
209 -7909 0
-389 -209 7909 0
568 -7910 0
-842 -7910 0
-568 842 7910 0
327 -7911 0
174 -7911 0
-327 -174 7911 0
373 -7912 0
-807 -7912 0
-373 807 7912 0
28 -7913 0
523 -7913 0
-28 -523 7913 0
-313 -7914 0
922 -7914 0
313 -922 7914 0
-337 -7915 0
974 -7915 0
337 -974 7915 0
564 -7916 0
594 -7916 0
-564 -594 7916 0
-251 -7917 0
36 -7917 0
251 -36 7917 0
834 -7918 0
-191 -7918 0
-834 191 7918 0
48 -7919 0
962 -7919 0
-48 -962 7919 0
261 -7920 0
114 -7920 0
-261 -114 7920 0
99 -7921 0
297 -7921 0
-99 -297 7921 0
-795 -7922 0
829 -7922 0
795 -829 7922 0
-729 -7923 0
310 -7923 0
729 -310 7923 0
-223 -7924 0
369 -7924 0
223 -369 7924 0
-531 -7925 0
770 -7925 0
531 -770 7925 0
936 -7926 0
302 -7926 0
-936 -302 7926 0
463 -7927 0
357 -7927 0
-463 -357 7927 0
888 -7928 0
997 -7928 0
-888 -997 7928 0
602 -7929 0
-110 -7929 0
-602 110 7929 0
850 -7930 0
801 -7930 0
-850 -801 7930 0
896 -7931 0
-500 -7931 0
-896 500 7931 0
429 -7932 0
524 -7932 0
-429 -524 7932 0
357 -7933 0
-423 -7933 0
-357 423 7933 0
-899 -7934 0
75 -7934 0
899 -75 7934 0
-464 -7935 0
705 -7935 0
464 -705 7935 0
567 -7936 0
670 -7936 0
-567 -670 7936 0
742 -7937 0
-191 -7937 0
-742 191 7937 0
-257 -7938 0
393 -7938 0
257 -393 7938 0
272 -7939 0
227 -7939 0
-272 -227 7939 0
575 -7940 0
547 -7940 0
-575 -547 7940 0
-938 -7941 0
489 -7941 0
938 -489 7941 0
847 -7942 0
178 -7942 0
-847 -178 7942 0
-737 -7943 0
709 -7943 0
737 -709 7943 0
664 -7944 0
-491 -7944 0
-664 491 7944 0
-165 -7945 0
841 -7945 0
165 -841 7945 0
152 -7946 0
-996 -7946 0
-152 996 7946 0
-424 -7947 0
173 -7947 0
424 -173 7947 0
193 -7948 0
873 -7948 0
-193 -873 7948 0
692 -7949 0
260 -7949 0
-692 -260 7949 0
-624 -7950 0
212 -7950 0
624 -212 7950 0
-520 -7951 0
688 -7951 0
520 -688 7951 0
408 -7952 0
-699 -7952 0
-408 699 7952 0
916 -7953 0
851 -7953 0
-916 -851 7953 0
729 -7954 0
609 -7954 0
-729 -609 7954 0
183 -7955 0
-764 -7955 0
-183 764 7955 0
-265 -7956 0
675 -7956 0
265 -675 7956 0
136 -7957 0
-203 -7957 0
-136 203 7957 0
624 -7958 0
749 -7958 0
-624 -749 7958 0
613 -7959 0
-644 -7959 0
-613 644 7959 0
797 -7960 0
586 -7960 0
-797 -586 7960 0
11 -7961 0
-246 -7961 0
-11 246 7961 0
556 -7962 0
-318 -7962 0
-556 318 7962 0
719 -7963 0
-162 -7963 0
-719 162 7963 0
392 -7964 0
-440 -7964 0
-392 440 7964 0
823 -7965 0
-783 -7965 0
-823 783 7965 0
920 -7966 0
-481 -7966 0
-920 481 7966 0
-435 -7967 0
730 -7967 0
435 -730 7967 0
-857 -7968 0
737 -7968 0
857 -737 7968 0
405 -7969 0
-508 -7969 0
-405 508 7969 0
-779 -7970 0
258 -7970 0
779 -258 7970 0
533 -7971 0
269 -7971 0
-533 -269 7971 0
927 -7972 0
700 -7972 0
-927 -700 7972 0
751 -7973 0
-358 -7973 0
-751 358 7973 0
806 -7974 0
-854 -7974 0
-806 854 7974 0
858 -7975 0
129 -7975 0
-858 -129 7975 0
-140 -7976 0
393 -7976 0
140 -393 7976 0
331 -7977 0
-71 -7977 0
-331 71 7977 0
-400 -7978 0
667 -7978 0
400 -667 7978 0
376 -7979 0
-896 -7979 0
-376 896 7979 0
541 -7980 0
242 -7980 0
-541 -242 7980 0
173 -7981 0
-835 -7981 0
-173 835 7981 0
896 -7982 0
755 -7982 0
-896 -755 7982 0
426 -7983 0
-727 -7983 0
-426 727 7983 0
672 -7984 0
769 -7984 0
-672 -769 7984 0
222 -7985 0
682 -7985 0
-222 -682 7985 0
732 -7986 0
-86 -7986 0
-732 86 7986 0
735 -7987 0
773 -7987 0
-735 -773 7987 0
120 -7988 0
555 -7988 0
-120 -555 7988 0
-242 -7989 0
284 -7989 0
242 -284 7989 0
399 -7990 0
462 -7990 0
-399 -462 7990 0
820 -7991 0
994 -7991 0
-820 -994 7991 0
860 -7992 0
-573 -7992 0
-860 573 7992 0
-403 -7993 0
737 -7993 0
403 -737 7993 0
454 -7994 0
769 -7994 0
-454 -769 7994 0
823 -7995 0
754 -7995 0
-823 -754 7995 0
184 -7996 0
782 -7996 0
-184 -782 7996 0
-663 -7997 0
369 -7997 0
663 -369 7997 0
90 -7998 0
-407 -7998 0
-90 407 7998 0
487 -7999 0
451 -7999 0
-487 -451 7999 0
200 -8000 0
-621 -8000 0
-200 621 8000 0
174 -8001 0
-630 -8001 0
-174 630 8001 0
536 -8002 0
162 -8002 0
-536 -162 8002 0
900 -8003 0
-47 -8003 0
-900 47 8003 0
-99 -8004 0
723 -8004 0
99 -723 8004 0
63 -8005 0
978 -8005 0
-63 -978 8005 0
-603 -8006 0
187 -8006 0
603 -187 8006 0
11 -8007 0
770 -8007 0
-11 -770 8007 0
248 -8008 0
810 -8008 0
-248 -810 8008 0
-632 -8009 0
930 -8009 0
632 -930 8009 0
-651 -8010 0
434 -8010 0
651 -434 8010 0
-252 -8011 0
74 -8011 0
252 -74 8011 0
7 -8012 0
-382 -8012 0
-7 382 8012 0
442 -8013 0
137 -8013 0
-442 -137 8013 0
284 -8014 0
145 -8014 0
-284 -145 8014 0
111 -8015 0
226 -8015 0
-111 -226 8015 0
650 -8016 0
178 -8016 0
-650 -178 8016 0
843 -8017 0
-510 -8017 0
-843 510 8017 0
462 -8018 0
-626 -8018 0
-462 626 8018 0
452 -8019 0
305 -8019 0
-452 -305 8019 0
837 -8020 0
707 -8020 0
-837 -707 8020 0
704 -8021 0
279 -8021 0
-704 -279 8021 0
-793 -8022 0
886 -8022 0
793 -886 8022 0
600 -8023 0
-299 -8023 0
-600 299 8023 0
847 -8024 0
788 -8024 0
-847 -788 8024 0
336 -8025 0
267 -8025 0
-336 -267 8025 0
-681 -8026 0
890 -8026 0
681 -890 8026 0
672 -8027 0
960 -8027 0
-672 -960 8027 0
600 -8028 0
548 -8028 0
-600 -548 8028 0
183 -8029 0
-414 -8029 0
-183 414 8029 0
773 -8030 0
-431 -8030 0
-773 431 8030 0
40 -8031 0
-748 -8031 0
-40 748 8031 0
-144 -8032 0
37 -8032 0
144 -37 8032 0
873 -8033 0
465 -8033 0
-873 -465 8033 0
523 -8034 0
881 -8034 0
-523 -881 8034 0
-121 -8035 0
359 -8035 0
121 -359 8035 0
-121 -8036 0
249 -8036 0
121 -249 8036 0
-150 -8037 0
249 -8037 0
150 -249 8037 0
368 -8038 0
-635 -8038 0
-368 635 8038 0
120 -8039 0
-487 -8039 0
-120 487 8039 0
134 -8040 0
870 -8040 0
-134 -870 8040 0
822 -8041 0
-18 -8041 0
-822 18 8041 0
960 -8042 0
-541 -8042 0
-960 541 8042 0
-352 -8043 0
573 -8043 0
352 -573 8043 0
727 -8044 0
995 -8044 0
-727 -995 8044 0
343 -8045 0
517 -8045 0
-343 -517 8045 0
-832 -8046 0
330 -8046 0
832 -330 8046 0
941 -8047 0
-894 -8047 0
-941 894 8047 0
-64 -8048 0
220 -8048 0
64 -220 8048 0
824 -8049 0
-361 -8049 0
-824 361 8049 0
-752 -8050 0
422 -8050 0
752 -422 8050 0
420 -8051 0
947 -8051 0
-420 -947 8051 0
-80 -8052 0
813 -8052 0
80 -813 8052 0
220 -8053 0
-573 -8053 0
-220 573 8053 0
734 -8054 0
-947 -8054 0
-734 947 8054 0
21 -8055 0
-150 -8055 0
-21 150 8055 0
198 -8056 0
-606 -8056 0
-198 606 8056 0
-800 -8057 0
980 -8057 0
800 -980 8057 0
-802 -8058 0
978 -8058 0
802 -978 8058 0
952 -8059 0
18 -8059 0
-952 -18 8059 0
700 -8060 0
354 -8060 0
-700 -354 8060 0
101 -8061 0
-557 -8061 0
-101 557 8061 0
98 -8062 0
273 -8062 0
-98 -273 8062 0
-770 -8063 0
890 -8063 0
770 -890 8063 0
971 -8064 0
-317 -8064 0
-971 317 8064 0
824 -8065 0
-378 -8065 0
-824 378 8065 0
690 -8066 0
-774 -8066 0
-690 774 8066 0
264 -8067 0
-427 -8067 0
-264 427 8067 0
882 -8068 0
226 -8068 0
-882 -226 8068 0
-218 -8069 0
260 -8069 0
218 -260 8069 0
102 -8070 0
499 -8070 0
-102 -499 8070 0
848 -8071 0
-612 -8071 0
-848 612 8071 0
216 -8072 0
-688 -8072 0
-216 688 8072 0
638 -8073 0
-613 -8073 0
-638 613 8073 0
36 -8074 0
-765 -8074 0
-36 765 8074 0
-700 -8075 0
371 -8075 0
700 -371 8075 0
107 -8076 0
-351 -8076 0
-107 351 8076 0
-48 -8077 0
42 -8077 0
48 -42 8077 0
36 -8078 0
-733 -8078 0
-36 733 8078 0
240 -8079 0
255 -8079 0
-240 -255 8079 0
104 -8080 0
228 -8080 0
-104 -228 8080 0
99 -8081 0
-406 -8081 0
-99 406 8081 0
556 -8082 0
155 -8082 0
-556 -155 8082 0
-147 -8083 0
729 -8083 0
147 -729 8083 0
-958 -8084 0
586 -8084 0
958 -586 8084 0
510 -8085 0
-531 -8085 0
-510 531 8085 0
191 -8086 0
-549 -8086 0
-191 549 8086 0
151 -8087 0
735 -8087 0
-151 -735 8087 0
399 -8088 0
866 -8088 0
-399 -866 8088 0
48 -8089 0
-204 -8089 0
-48 204 8089 0
80 -8090 0
954 -8090 0
-80 -954 8090 0
-833 -8091 0
909 -8091 0
833 -909 8091 0
112 -8092 0
-506 -8092 0
-112 506 8092 0
267 -8093 0
-397 -8093 0
-267 397 8093 0
-666 -8094 0
381 -8094 0
666 -381 8094 0
-616 -8095 0
739 -8095 0
616 -739 8095 0
-745 -8096 0
921 -8096 0
745 -921 8096 0
-369 -8097 0
523 -8097 0
369 -523 8097 0
495 -8098 0
225 -8098 0
-495 -225 8098 0
-971 -8099 0
276 -8099 0
971 -276 8099 0
-904 -8100 0
64 -8100 0
904 -64 8100 0
376 -8101 0
900 -8101 0
-376 -900 8101 0
-620 -8102 0
122 -8102 0
620 -122 8102 0
920 -8103 0
-94 -8103 0
-920 94 8103 0
920 -8104 0
244 -8104 0
-920 -244 8104 0
-234 -8105 0
57 -8105 0
234 -57 8105 0
785 -8106 0
25 -8106 0
-785 -25 8106 0
437 -8107 0
485 -8107 0
-437 -485 8107 0
664 -8108 0
-721 -8108 0
-664 721 8108 0
211 -8109 0
-951 -8109 0
-211 951 8109 0
563 -8110 0
-447 -8110 0
-563 447 8110 0
-886 -8111 0
834 -8111 0
886 -834 8111 0
-505 -8112 0
946 -8112 0
505 -946 8112 0
-848 -8113 0
132 -8113 0
848 -132 8113 0
342 -8114 0
-542 -8114 0
-342 542 8114 0
963 -8115 0
474 -8115 0
-963 -474 8115 0
759 -8116 0
682 -8116 0
-759 -682 8116 0
234 -8117 0
897 -8117 0
-234 -897 8117 0
877 -8118 0
706 -8118 0
-877 -706 8118 0
893 -8119 0
763 -8119 0
-893 -763 8119 0
272 -8120 0
-456 -8120 0
-272 456 8120 0
520 -8121 0
965 -8121 0
-520 -965 8121 0
166 -8122 0
885 -8122 0
-166 -885 8122 0
-146 -8123 0
355 -8123 0
146 -355 8123 0
-550 -8124 0
601 -8124 0
550 -601 8124 0
364 -8125 0
722 -8125 0
-364 -722 8125 0
-380 -8126 0
420 -8126 0
380 -420 8126 0
839 -8127 0
-459 -8127 0
-839 459 8127 0
125 -8128 0
219 -8128 0
-125 -219 8128 0
668 -8129 0
369 -8129 0
-668 -369 8129 0
287 -8130 0
-415 -8130 0
-287 415 8130 0
-98 -8131 0
149 -8131 0
98 -149 8131 0
-97 -8132 0
267 -8132 0
97 -267 8132 0
-266 -8133 0
353 -8133 0
266 -353 8133 0
124 -8134 0
-878 -8134 0
-124 878 8134 0
190 -8135 0
339 -8135 0
-190 -339 8135 0
788 -8136 0
-781 -8136 0
-788 781 8136 0
181 -8137 0
812 -8137 0
-181 -812 8137 0
452 -8138 0
378 -8138 0
-452 -378 8138 0
282 -8139 0
697 -8139 0
-282 -697 8139 0
846 -8140 0
828 -8140 0
-846 -828 8140 0
484 -8141 0
-527 -8141 0
-484 527 8141 0
27 -8142 0
-350 -8142 0
-27 350 8142 0
-944 -8143 0
179 -8143 0
944 -179 8143 0
467 -8144 0
-941 -8144 0
-467 941 8144 0
664 -8145 0
-563 -8145 0
-664 563 8145 0
679 -8146 0
-276 -8146 0
-679 276 8146 0
718 -8147 0
-678 -8147 0
-718 678 8147 0
-889 -8148 0
565 -8148 0
889 -565 8148 0
237 -8149 0
309 -8149 0
-237 -309 8149 0
365 -8150 0
770 -8150 0
-365 -770 8150 0
-897 -8151 0
140 -8151 0
897 -140 8151 0
372 -8152 0
-527 -8152 0
-372 527 8152 0
618 -8153 0
-959 -8153 0
-618 959 8153 0
-772 -8154 0
274 -8154 0
772 -274 8154 0
212 -8155 0
443 -8155 0
-212 -443 8155 0
-58 -8156 0
745 -8156 0
58 -745 8156 0
486 -8157 0
97 -8157 0
-486 -97 8157 0
517 -8158 0
-646 -8158 0
-517 646 8158 0
910 -8159 0
241 -8159 0
-910 -241 8159 0
-188 -8160 0
401 -8160 0
188 -401 8160 0
195 -8161 0
-919 -8161 0
-195 919 8161 0
-957 -8162 0
338 -8162 0
957 -338 8162 0
-517 -8163 0
419 -8163 0
517 -419 8163 0
982 -8164 0
617 -8164 0
-982 -617 8164 0
-273 -8165 0
606 -8165 0
273 -606 8165 0
876 -8166 0
-844 -8166 0
-876 844 8166 0
-537 -8167 0
377 -8167 0
537 -377 8167 0
80 -8168 0
-73 -8168 0
-80 73 8168 0
214 -8169 0
-188 -8169 0
-214 188 8169 0
466 -8170 0
746 -8170 0
-466 -746 8170 0
982 -8171 0
68 -8171 0
-982 -68 8171 0
95 -8172 0
-143 -8172 0
-95 143 8172 0
232 -8173 0
-885 -8173 0
-232 885 8173 0
997 -8174 0
-83 -8174 0
-997 83 8174 0
664 -8175 0
-694 -8175 0
-664 694 8175 0
287 -8176 0
-829 -8176 0
-287 829 8176 0
103 -8177 0
222 -8177 0
-103 -222 8177 0
703 -8178 0
185 -8178 0
-703 -185 8178 0
-310 -8179 0
497 -8179 0
310 -497 8179 0
-928 -8180 0
571 -8180 0
928 -571 8180 0
-107 -8181 0
443 -8181 0
107 -443 8181 0
-37 -8182 0
129 -8182 0
37 -129 8182 0
95 -8183 0
-946 -8183 0
-95 946 8183 0
-930 -8184 0
562 -8184 0
930 -562 8184 0
11 -8185 0
769 -8185 0
-11 -769 8185 0
800 -8186 0
437 -8186 0
-800 -437 8186 0
167 -8187 0
958 -8187 0
-167 -958 8187 0
-864 -8188 0
900 -8188 0
864 -900 8188 0
13 -8189 0
-988 -8189 0
-13 988 8189 0
232 -8190 0
259 -8190 0
-232 -259 8190 0
658 -8191 0
-799 -8191 0
-658 799 8191 0
340 -8192 0
-141 -8192 0
-340 141 8192 0
388 -8193 0
-894 -8193 0
-388 894 8193 0
-136 -8194 0
314 -8194 0
136 -314 8194 0
-211 -8195 0
163 -8195 0
211 -163 8195 0
22 -8196 0
891 -8196 0
-22 -891 8196 0
837 -8197 0
-549 -8197 0
-837 549 8197 0
212 -8198 0
675 -8198 0
-212 -675 8198 0
298 -8199 0
-159 -8199 0
-298 159 8199 0
99 -8200 0
-350 -8200 0
-99 350 8200 0
-344 -8201 0
284 -8201 0
344 -284 8201 0
293 -8202 0
857 -8202 0
-293 -857 8202 0
432 -8203 0
-287 -8203 0
-432 287 8203 0
-527 -8204 0
945 -8204 0
527 -945 8204 0
903 -8205 0
-538 -8205 0
-903 538 8205 0
-449 -8206 0
911 -8206 0
449 -911 8206 0
-876 -8207 0
388 -8207 0
876 -388 8207 0
-521 -8208 0
812 -8208 0
521 -812 8208 0
-260 -8209 0
756 -8209 0
260 -756 8209 0
319 -8210 0
754 -8210 0
-319 -754 8210 0
556 -8211 0
394 -8211 0
-556 -394 8211 0
856 -8212 0
578 -8212 0
-856 -578 8212 0
-213 -8213 0
521 -8213 0
213 -521 8213 0
-889 -8214 0
218 -8214 0
889 -218 8214 0
989 -8215 0
-117 -8215 0
-989 117 8215 0
961 -8216 0
-591 -8216 0
-961 591 8216 0
411 -8217 0
-997 -8217 0
-411 997 8217 0
255 -8218 0
649 -8218 0
-255 -649 8218 0
-293 -8219 0
67 -8219 0
293 -67 8219 0
-163 -8220 0
338 -8220 0
163 -338 8220 0
528 -8221 0
903 -8221 0
-528 -903 8221 0
879 -8222 0
-342 -8222 0
-879 342 8222 0
679 -8223 0
321 -8223 0
-679 -321 8223 0
38 -8224 0
534 -8224 0
-38 -534 8224 0
871 -8225 0
179 -8225 0
-871 -179 8225 0
-624 -8226 0
227 -8226 0
624 -227 8226 0
496 -8227 0
-962 -8227 0
-496 962 8227 0
59 -8228 0
-461 -8228 0
-59 461 8228 0
832 -8229 0
-52 -8229 0
-832 52 8229 0
982 -8230 0
900 -8230 0
-982 -900 8230 0
463 -8231 0
-674 -8231 0
-463 674 8231 0
414 -8232 0
-822 -8232 0
-414 822 8232 0
165 -8233 0
-783 -8233 0
-165 783 8233 0
517 -8234 0
-286 -8234 0
-517 286 8234 0
69 -8235 0
-70 -8235 0
-69 70 8235 0
-780 -8236 0
89 -8236 0
780 -89 8236 0
-400 -8237 0
247 -8237 0
400 -247 8237 0
-882 -8238 0
270 -8238 0
882 -270 8238 0
-125 -8239 0
178 -8239 0
125 -178 8239 0
451 -8240 0
371 -8240 0
-451 -371 8240 0
307 -8241 0
650 -8241 0
-307 -650 8241 0
844 -8242 0
500 -8242 0
-844 -500 8242 0
-565 -8243 0
827 -8243 0
565 -827 8243 0
-989 -8244 0
842 -8244 0
989 -842 8244 0
71 -8245 0
420 -8245 0
-71 -420 8245 0
838 -8246 0
737 -8246 0
-838 -737 8246 0
535 -8247 0
969 -8247 0
-535 -969 8247 0
-865 -8248 0
932 -8248 0
865 -932 8248 0
288 -8249 0
-289 -8249 0
-288 289 8249 0
531 -8250 0
-286 -8250 0
-531 286 8250 0
128 -8251 0
-474 -8251 0
-128 474 8251 0
799 -8252 0
750 -8252 0
-799 -750 8252 0
334 -8253 0
726 -8253 0
-334 -726 8253 0
-973 -8254 0
643 -8254 0
973 -643 8254 0
763 -8255 0
266 -8255 0
-763 -266 8255 0
280 -8256 0
-180 -8256 0
-280 180 8256 0
-795 -8257 0
794 -8257 0
795 -794 8257 0
-164 -8258 0
162 -8258 0
164 -162 8258 0
-896 -8259 0
962 -8259 0
896 -962 8259 0
340 -8260 0
-564 -8260 0
-340 564 8260 0
783 -8261 0
-566 -8261 0
-783 566 8261 0
-162 -8262 0
636 -8262 0
162 -636 8262 0
-415 -8263 0
489 -8263 0
415 -489 8263 0
705 -8264 0
-359 -8264 0
-705 359 8264 0
309 -8265 0
251 -8265 0
-309 -251 8265 0
812 -8266 0
-78 -8266 0
-812 78 8266 0
-658 -8267 0
-456 -8268 0
117 -8268 0
456 -117 8268 0
678 -8269 0
109 -8269 0
-678 -109 8269 0
810 -8270 0
-79 -8270 0
-810 79 8270 0
685 -8271 0
908 -8271 0
-685 -908 8271 0
525 -8272 0
180 -8272 0
-525 -180 8272 0
946 -8273 0
-543 -8273 0
-946 543 8273 0
88 -8274 0
-229 -8274 0
-88 229 8274 0
-203 -8275 0
661 -8275 0
203 -661 8275 0
847 -8276 0
113 -8276 0
-847 -113 8276 0
766 -8277 0
698 -8277 0
-766 -698 8277 0
959 -8278 0
708 -8278 0
-959 -708 8278 0
576 -8279 0
-387 -8279 0
-576 387 8279 0
-611 -8280 0
19 -8280 0
611 -19 8280 0
106 -8281 0
-615 -8281 0
-106 615 8281 0
671 -8282 0
-511 -8282 0
-671 511 8282 0
775 -8283 0
986 -8283 0
-775 -986 8283 0
-344 -8284 0
769 -8284 0
344 -769 8284 0
380 -8285 0
-862 -8285 0
-380 862 8285 0
-842 -8286 0
809 -8286 0
842 -809 8286 0
22 -8287 0
610 -8287 0
-22 -610 8287 0
-592 -8288 0
766 -8288 0
592 -766 8288 0
-970 -8289 0
418 -8289 0
970 -418 8289 0
833 -8290 0
930 -8291 0
402 -8291 0
-930 -402 8291 0
320 -8292 0
616 -8292 0
-320 -616 8292 0
559 -8293 0
-596 -8293 0
-559 596 8293 0
872 -8294 0
-643 -8294 0
-872 643 8294 0
380 -8295 0
-588 -8295 0
-380 588 8295 0
-579 -8296 0
60 -8296 0
579 -60 8296 0
167 -8297 0
46 -8297 0
-167 -46 8297 0
376 -8298 0
600 -8298 0
-376 -600 8298 0
647 -8299 0
469 -8299 0
-647 -469 8299 0
-97 -8300 0
930 -8300 0
97 -930 8300 0
837 -8301 0
203 -8301 0
-837 -203 8301 0
-962 -8302 0
934 -8302 0
962 -934 8302 0
450 -8303 0
10 -8303 0
-450 -10 8303 0
323 -8304 0
-839 -8304 0
-323 839 8304 0
416 -8305 0
630 -8305 0
-416 -630 8305 0
-37 -8306 0
42 -8306 0
37 -42 8306 0
-834 -8307 0
899 -8307 0
834 -899 8307 0
656 -8308 0
-553 -8308 0
-656 553 8308 0
-688 -8309 0
438 -8309 0
688 -438 8309 0
400 -8310 0
-244 -8310 0
-400 244 8310 0
967 -8311 0
-159 -8311 0
-967 159 8311 0
725 -8312 0
901 -8312 0
-725 -901 8312 0
-508 -8313 0
34 -8313 0
508 -34 8313 0
-505 -8314 0
634 -8314 0
505 -634 8314 0
-977 -8315 0
161 -8315 0
977 -161 8315 0
308 -8316 0
619 -8316 0
-308 -619 8316 0
419 -8317 0
41 -8317 0
-419 -41 8317 0
-130 -8318 0
597 -8318 0
130 -597 8318 0
832 -8319 0
846 -8319 0
-832 -846 8319 0
117 -8320 0
273 -8320 0
-117 -273 8320 0
-408 -8321 0
433 -8321 0
408 -433 8321 0
622 -8322 0
-147 -8322 0
-622 147 8322 0
672 -8323 0
898 -8323 0
-672 -898 8323 0
294 -8324 0
825 -8324 0
-294 -825 8324 0
142 -8325 0
-334 -8325 0
-142 334 8325 0
847 -8326 0
-11 -8326 0
-847 11 8326 0
494 -8327 0
-182 -8327 0
-494 182 8327 0
-405 -8328 0
633 -8328 0
405 -633 8328 0
-922 -8329 0
226 -8329 0
922 -226 8329 0
791 -8330 0
190 -8330 0
-791 -190 8330 0
888 -8331 0
831 -8331 0
-888 -831 8331 0
556 -8332 0
770 -8332 0
-556 -770 8332 0
916 -8333 0
-125 -8333 0
-916 125 8333 0
-128 -8334 0
74 -8334 0
128 -74 8334 0
845 -8335 0
44 -8335 0
-845 -44 8335 0
-752 -8336 0
27 -8336 0
752 -27 8336 0
913 -8337 0
-767 -8337 0
-913 767 8337 0
-800 -8338 0
812 -8338 0
800 -812 8338 0
64 -8339 0
798 -8339 0
-64 -798 8339 0
388 -8340 0
-199 -8340 0
-388 199 8340 0
-745 -8341 0
532 -8341 0
745 -532 8341 0
175 -8342 0
118 -8342 0
-175 -118 8342 0
-610 -8343 0
460 -8343 0
610 -460 8343 0
640 -8344 0
758 -8344 0
-640 -758 8344 0
789 -8345 0
821 -8345 0
-789 -821 8345 0
-115 -8346 0
492 -8346 0
115 -492 8346 0
-730 -8347 0
790 -8347 0
730 -790 8347 0
790 -8348 0
629 -8348 0
-790 -629 8348 0
512 -8349 0
477 -8349 0
-512 -477 8349 0
783 -8350 0
17 -8350 0
-783 -17 8350 0
-777 -8351 0
987 -8351 0
777 -987 8351 0
557 -8352 0
577 -8352 0
-557 -577 8352 0
254 -8353 0
-765 -8353 0
-254 765 8353 0
5 -8354 0
468 -8354 0
-5 -468 8354 0
544 -8355 0
-815 -8355 0
-544 815 8355 0
605 -8356 0
-733 -8356 0
-605 733 8356 0
-195 -8357 0
858 -8357 0
195 -858 8357 0
190 -8358 0
670 -8358 0
-190 -670 8358 0
76 -8359 0
147 -8359 0
-76 -147 8359 0
976 -8360 0
507 -8360 0
-976 -507 8360 0
157 -8361 0
243 -8361 0
-157 -243 8361 0
595 -8362 0
-574 -8362 0
-595 574 8362 0
-852 -8363 0
714 -8363 0
852 -714 8363 0
288 -8364 0
725 -8364 0
-288 -725 8364 0
312 -8365 0
369 -8365 0
-312 -369 8365 0
603 -8366 0
234 -8366 0
-603 -234 8366 0
397 -8367 0
-68 -8367 0
-397 68 8367 0
918 -8368 0
-932 -8368 0
-918 932 8368 0
286 -8369 0
147 -8369 0
-286 -147 8369 0
480 -8370 0
394 -8370 0
-480 -394 8370 0
424 -8371 0
804 -8371 0
-424 -804 8371 0
-954 -8372 0
1 -8372 0
954 -1 8372 0
191 -8373 0
-370 -8373 0
-191 370 8373 0
-128 -8374 0
799 -8374 0
128 -799 8374 0
783 -8375 0
-524 -8375 0
-783 524 8375 0
863 -8376 0
509 -8376 0
-863 -509 8376 0
504 -8377 0
604 -8377 0
-504 -604 8377 0
383 -8378 0
-157 -8378 0
-383 157 8378 0
343 -8379 0
-311 -8379 0
-343 311 8379 0
31 -8380 0
-266 -8380 0
-31 266 8380 0
144 -8381 0
576 -8381 0
-144 -576 8381 0
141 -8382 0
-478 -8382 0
-141 478 8382 0
-392 -8383 0
570 -8383 0
392 -570 8383 0
-32 -8384 0
366 -8384 0
32 -366 8384 0
25 -8385 0
641 -8385 0
-25 -641 8385 0
730 -8386 0
833 -8386 0
-730 -833 8386 0
872 -8387 0
-761 -8387 0
-872 761 8387 0
600 -8388 0
607 -8388 0
-600 -607 8388 0
-736 -8389 0
867 -8389 0
736 -867 8389 0
-362 -8390 0
246 -8390 0
362 -246 8390 0
-225 -8391 0
426 -8391 0
225 -426 8391 0
-474 -8392 0
890 -8392 0
474 -890 8392 0
100 -8393 0
684 -8393 0
-100 -684 8393 0
749 -8394 0
412 -8394 0
-749 -412 8394 0
102 -8395 0
-820 -8395 0
-102 820 8395 0
-80 -8396 0
29 -8396 0
80 -29 8396 0
-630 -8397 0
649 -8397 0
630 -649 8397 0
-717 -8398 0
49 -8398 0
717 -49 8398 0
-226 -8399 0
969 -8399 0
226 -969 8399 0
48 -8400 0
-407 -8400 0
-48 407 8400 0
400 -8401 0
-585 -8401 0
-400 585 8401 0
-202 -8402 0
539 -8402 0
202 -539 8402 0
112 -8403 0
-391 -8403 0
-112 391 8403 0
464 -8404 0
172 -8404 0
-464 -172 8404 0
695 -8405 0
-3 -8405 0
-695 3 8405 0
872 -8406 0
-564 -8406 0
-872 564 8406 0
456 -8407 0
506 -8407 0
-456 -506 8407 0
240 -8408 0
-3 -8408 0
-240 3 8408 0
-297 -8409 0
550 -8409 0
297 -550 8409 0
-425 -8410 0
13 -8410 0
425 -13 8410 0
672 -8411 0
-694 -8411 0
-672 694 8411 0
-280 -8412 0
980 -8412 0
280 -980 8412 0
380 -8413 0
641 -8413 0
-380 -641 8413 0
-528 -8414 0
760 -8414 0
528 -760 8414 0
-194 -8415 0
771 -8415 0
194 -771 8415 0
248 -8416 0
561 -8416 0
-248 -561 8416 0
508 -8417 0
194 -8417 0
-508 -194 8417 0
983 -8418 0
-663 -8418 0
-983 663 8418 0
725 -8419 0
-502 -8419 0
-725 502 8419 0
-299 -8420 0
146 -8420 0
299 -146 8420 0
918 -8421 0
-759 -8421 0
-918 759 8421 0
560 -8422 0
-909 -8422 0
-560 909 8422 0
376 -8423 0
-853 -8423 0
-376 853 8423 0
189 -8424 0
-750 -8424 0
-189 750 8424 0
824 -8425 0
-517 -8425 0
-824 517 8425 0
-360 -8426 0
625 -8426 0
360 -625 8426 0
-585 -8427 0
154 -8427 0
585 -154 8427 0
-408 -8428 0
187 -8428 0
408 -187 8428 0
556 -8429 0
889 -8429 0
-556 -889 8429 0
416 -8430 0
135 -8430 0
-416 -135 8430 0
886 -8431 0
-276 -8431 0
-886 276 8431 0
-116 -8432 0
90 -8432 0
116 -90 8432 0
838 -8433 0
-973 -8433 0
-838 973 8433 0
678 -8434 0
237 -8434 0
-678 -237 8434 0
-413 -8435 0
113 -8435 0
413 -113 8435 0
271 -8436 0
225 -8436 0
-271 -225 8436 0
253 -8437 0
125 -8437 0
-253 -125 8437 0
-483 -8438 0
586 -8438 0
483 -586 8438 0
-348 -8439 0
297 -8439 0
348 -297 8439 0
-832 -8440 0
852 -8440 0
832 -852 8440 0
171 -8441 0
-45 -8441 0
-171 45 8441 0
596 -8442 0
-991 -8442 0
-596 991 8442 0
614 -8443 0
420 -8443 0
-614 -420 8443 0
823 -8444 0
883 -8444 0
-823 -883 8444 0
-640 -8445 0
607 -8445 0
640 -607 8445 0
487 -8446 0
811 -8446 0
-487 -811 8446 0
71 -8447 0
199 -8447 0
-71 -199 8447 0
951 -8448 0
716 -8448 0
-951 -716 8448 0
941 -8449 0
97 -8449 0
-941 -97 8449 0
988 -8450 0
705 -8450 0
-988 -705 8450 0
791 -8451 0
452 -8451 0
-791 -452 8451 0
-753 -8452 0
996 -8452 0
753 -996 8452 0
816 -8453 0
-161 -8453 0
-816 161 8453 0
885 -8454 0
621 -8454 0
-885 -621 8454 0
-384 -8455 0
177 -8455 0
384 -177 8455 0
-512 -8456 0
122 -8456 0
512 -122 8456 0
35 -8457 0
715 -8457 0
-35 -715 8457 0
16 -8458 0
109 -8458 0
-16 -109 8458 0
-755 -8459 0
761 -8459 0
755 -761 8459 0
24 -8460 0
-6 -8460 0
-24 6 8460 0
-535 -8461 0
377 -8461 0
535 -377 8461 0
959 -8462 0
801 -8462 0
-959 -801 8462 0
-648 -8463 0
548 -8463 0
648 -548 8463 0
247 -8464 0
-125 -8464 0
-247 125 8464 0
298 -8465 0
-463 -8465 0
-298 463 8465 0
670 -8466 0
-524 -8466 0
-670 524 8466 0
632 -8467 0
-4 -8467 0
-632 4 8467 0
-627 -8468 0
650 -8468 0
627 -650 8468 0
851 -8469 0
129 -8469 0
-851 -129 8469 0
687 -8470 0
511 -8470 0
-687 -511 8470 0
167 -8471 0
-787 -8471 0
-167 787 8471 0
-704 -8472 0
501 -8472 0
704 -501 8472 0
56 -8473 0
686 -8473 0
-56 -686 8473 0
-456 -8474 0
399 -8474 0
456 -399 8474 0
-88 -8475 0
207 -8475 0
88 -207 8475 0
917 -8476 0
-127 -8476 0
-917 127 8476 0
-626 -8477 0
849 -8477 0
626 -849 8477 0
284 -8478 0
626 -8478 0
-284 -626 8478 0
420 -8479 0
-495 -8479 0
-420 495 8479 0
431 -8480 0
686 -8480 0
-431 -686 8480 0
-98 -8481 0
275 -8481 0
98 -275 8481 0
528 -8482 0
273 -8482 0
-528 -273 8482 0
152 -8483 0
-191 -8483 0
-152 191 8483 0
774 -8484 0
-198 -8484 0
-774 198 8484 0
-337 -8485 0
871 -8485 0
337 -871 8485 0
-208 -8486 0
278 -8486 0
208 -278 8486 0
354 -8487 0
-790 -8487 0
-354 790 8487 0
613 -8488 0
708 -8488 0
-613 -708 8488 0
502 -8489 0
940 -8489 0
-502 -940 8489 0
514 -8490 0
-246 -8490 0
-514 246 8490 0
592 -8491 0
834 -8491 0
-592 -834 8491 0
-346 -8492 0
9 -8492 0
346 -9 8492 0
132 -8493 0
-509 -8493 0
-132 509 8493 0
592 -8494 0
395 -8494 0
-592 -395 8494 0
744 -8495 0
-591 -8495 0
-744 591 8495 0
-922 -8496 0
611 -8496 0
922 -611 8496 0
662 -8497 0
-683 -8497 0
-662 683 8497 0
567 -8498 0
627 -8498 0
-567 -627 8498 0
-730 -8499 0
260 -8499 0
730 -260 8499 0
-90 -8500 0
148 -8500 0
90 -148 8500 0
46 -8501 0
105 -8501 0
-46 -105 8501 0
608 -8502 0
539 -8502 0
-608 -539 8502 0
460 -8503 0
-902 -8503 0
-460 902 8503 0
29 -8504 0
387 -8504 0
-29 -387 8504 0
-448 -8505 0
151 -8505 0
448 -151 8505 0
119 -8506 0
-287 -8506 0
-119 287 8506 0
336 -8507 0
-783 -8507 0
-336 783 8507 0
-91 -8508 0
60 -8508 0
91 -60 8508 0
-571 -8509 0
283 -8509 0
571 -283 8509 0
300 -8510 0
-494 -8510 0
-300 494 8510 0
216 -8511 0
-508 -8511 0
-216 508 8511 0
726 -8512 0
-572 -8512 0
-726 572 8512 0
-338 -8513 0
842 -8513 0
338 -842 8513 0
-561 -8514 0
831 -8514 0
561 -831 8514 0
640 -8515 0
-999 -8515 0
-640 999 8515 0
299 -8516 0
-863 -8516 0
-299 863 8516 0
-912 -8517 0
965 -8517 0
912 -965 8517 0
-14 -8518 0
57 -8518 0
14 -57 8518 0
82 -8519 0
-143 -8519 0
-82 143 8519 0
179 -8520 0
937 -8520 0
-179 -937 8520 0
-661 -8521 0
170 -8521 0
661 -170 8521 0
-208 -8522 0
122 -8522 0
208 -122 8522 0
-448 -8523 0
185 -8523 0
448 -185 8523 0
-940 -8524 0
698 -8524 0
940 -698 8524 0
260 -8525 0
948 -8525 0
-260 -948 8525 0
439 -8526 0
215 -8526 0
-439 -215 8526 0
-601 -8527 0
813 -8527 0
601 -813 8527 0
900 -8528 0
43 -8528 0
-900 -43 8528 0
736 -8529 0
45 -8529 0
-736 -45 8529 0
766 -8530 0
222 -8530 0
-766 -222 8530 0
792 -8531 0
486 -8531 0
-792 -486 8531 0
118 -8532 0
243 -8532 0
-118 -243 8532 0
313 -8533 0
841 -8533 0
-313 -841 8533 0
-916 -8534 0
521 -8534 0
916 -521 8534 0
-378 -8535 0
353 -8535 0
378 -353 8535 0
127 -8536 0
-558 -8536 0
-127 558 8536 0
677 -8537 0
755 -8537 0
-677 -755 8537 0
-136 -8538 0
145 -8538 0
136 -145 8538 0
943 -8539 0
-973 -8539 0
-943 973 8539 0
396 -8540 0
-412 -8540 0
-396 412 8540 0
-658 -8541 0
10 -8541 0
658 -10 8541 0
922 -8542 0
273 -8542 0
-922 -273 8542 0
20 -8543 0
-877 -8543 0
-20 877 8543 0
672 -8544 0
212 -8544 0
-672 -212 8544 0
816 -8545 0
-370 -8545 0
-816 370 8545 0
-242 -8546 0
401 -8546 0
242 -401 8546 0
700 -8547 0
667 -8547 0
-700 -667 8547 0
522 -8548 0
-807 -8548 0
-522 807 8548 0
-784 -8549 0
660 -8549 0
784 -660 8549 0
685 -8550 0
292 -8550 0
-685 -292 8550 0
456 -8551 0
-227 -8551 0
-456 227 8551 0
-43 -8552 0
93 -8552 0
43 -93 8552 0
-970 -8553 0
605 -8553 0
970 -605 8553 0
-377 -8554 0
964 -8554 0
377 -964 8554 0
-912 -8555 0
328 -8555 0
912 -328 8555 0
-168 -8556 0
691 -8556 0
168 -691 8556 0
284 -8557 0
-86 -8557 0
-284 86 8557 0
-946 -8558 0
73 -8558 0
946 -73 8558 0
344 -8559 0
-971 -8559 0
-344 971 8559 0
31 -8560 0
-74 -8560 0
-31 74 8560 0
175 -8561 0
879 -8561 0
-175 -879 8561 0
774 -8562 0
-327 -8562 0
-774 327 8562 0
452 -8563 0
-478 -8563 0
-452 478 8563 0
112 -8564 0
-607 -8564 0
-112 607 8564 0
588 -8565 0
-868 -8565 0
-588 868 8565 0
822 -8566 0
-919 -8566 0
-822 919 8566 0
-792 -8567 0
58 -8567 0
792 -58 8567 0
-17 -8568 0
243 -8568 0
17 -243 8568 0
-880 -8569 0
986 -8569 0
880 -986 8569 0
940 -8570 0
929 -8570 0
-940 -929 8570 0
222 -8571 0
-259 -8571 0
-222 259 8571 0
61 -8572 0
-471 -8572 0
-61 471 8572 0
135 -8573 0
746 -8573 0
-135 -746 8573 0
45 -8574 0
-558 -8574 0
-45 558 8574 0
589 -8575 0
-524 -8575 0
-589 524 8575 0
-521 -8576 0
361 -8576 0
521 -361 8576 0
-419 -8577 0
812 -8577 0
419 -812 8577 0
469 -8578 0
156 -8578 0
-469 -156 8578 0
-771 -8579 0
723 -8579 0
771 -723 8579 0
-762 -8580 0
203 -8580 0
762 -203 8580 0
-890 -8581 0
707 -8581 0
890 -707 8581 0
-304 -8582 0
640 -8582 0
304 -640 8582 0
935 -8583 0
-834 -8583 0
-935 834 8583 0
126 -8584 0
-346 -8584 0
-126 346 8584 0
-690 -8585 0
490 -8585 0
690 -490 8585 0
900 -8586 0
777 -8586 0
-900 -777 8586 0
669 -8587 0
459 -8587 0
-669 -459 8587 0
47 -8588 0
125 -8588 0
-47 -125 8588 0
-791 -8589 0
801 -8589 0
791 -801 8589 0
-128 -8590 0
532 -8590 0
128 -532 8590 0
368 -8591 0
-434 -8591 0
-368 434 8591 0
536 -8592 0
41 -8592 0
-536 -41 8592 0
246 -8593 0
476 -8593 0
-246 -476 8593 0
160 -8594 0
660 -8594 0
-160 -660 8594 0
-426 -8595 0
837 -8595 0
426 -837 8595 0
208 -8596 0
-613 -8596 0
-208 613 8596 0
-896 -8597 0
240 -8597 0
896 -240 8597 0
972 -8598 0
-694 -8598 0
-972 694 8598 0
885 -8599 0
-397 -8599 0
-885 397 8599 0
838 -8600 0
578 -8600 0
-838 -578 8600 0
-761 -8601 0
118 -8601 0
761 -118 8601 0
558 -8602 0
-679 -8602 0
-558 679 8602 0
-464 -8603 0
939 -8603 0
464 -939 8603 0
-113 -8604 0
820 -8604 0
113 -820 8604 0
-465 -8605 0
835 -8605 0
465 -835 8605 0
894 -8606 0
-171 -8606 0
-894 171 8606 0
780 -8607 0
-527 -8607 0
-780 527 8607 0
734 -8608 0
-669 -8608 0
-734 669 8608 0
655 -8609 0
510 -8609 0
-655 -510 8609 0
-314 -8610 0
75 -8610 0
314 -75 8610 0
478 -8611 0
-807 -8611 0
-478 807 8611 0
351 -8612 0
-195 -8612 0
-351 195 8612 0
779 -8613 0
-910 -8613 0
-779 910 8613 0
559 -8614 0
-869 -8614 0
-559 869 8614 0
-803 -8615 0
665 -8615 0
803 -665 8615 0
744 -8616 0
-224 -8616 0
-744 224 8616 0
-963 -8617 0
804 -8617 0
963 -804 8617 0
911 -8618 0
979 -8618 0
-911 -979 8618 0
270 -8619 0
556 -8619 0
-270 -556 8619 0
-484 -8620 0
91 -8620 0
484 -91 8620 0
-36 -8621 0
521 -8621 0
36 -521 8621 0
405 -8622 0
-23 -8622 0
-405 23 8622 0
-961 -8623 0
178 -8623 0
961 -178 8623 0
879 -8624 0
-413 -8624 0
-879 413 8624 0
-632 -8625 0
177 -8625 0
632 -177 8625 0
758 -8626 0
265 -8626 0
-758 -265 8626 0
991 -8627 0
657 -8627 0
-991 -657 8627 0
-693 -8628 0
345 -8628 0
693 -345 8628 0
667 -8629 0
-653 -8629 0
-667 653 8629 0
976 -8630 0
172 -8630 0
-976 -172 8630 0
278 -8631 0
235 -8631 0
-278 -235 8631 0
719 -8632 0
309 -8632 0
-719 -309 8632 0
248 -8633 0
418 -8633 0
-248 -418 8633 0
-11 -8634 0
233 -8634 0
11 -233 8634 0
-195 -8635 0
441 -8635 0
195 -441 8635 0
613 -8636 0
666 -8636 0
-613 -666 8636 0
757 -8637 0
530 -8637 0
-757 -530 8637 0
-217 -8638 0
721 -8638 0
217 -721 8638 0
-908 -8639 0
219 -8639 0
908 -219 8639 0
-549 -8640 0
35 -8640 0
549 -35 8640 0
48 -8641 0
615 -8641 0
-48 -615 8641 0
775 -8642 0
-190 -8642 0
-775 190 8642 0
286 -8643 0
138 -8643 0
-286 -138 8643 0
-970 -8644 0
706 -8644 0
970 -706 8644 0
-697 -8645 0
490 -8645 0
697 -490 8645 0
588 -8646 0
851 -8646 0
-588 -851 8646 0
656 -8647 0
523 -8647 0
-656 -523 8647 0
311 -8648 0
-2 -8648 0
-311 2 8648 0
795 -8649 0
58 -8649 0
-795 -58 8649 0
999 -8650 0
-92 -8650 0
-999 92 8650 0
356 -8651 0
187 -8651 0
-356 -187 8651 0
349 -8652 0
882 -8652 0
-349 -882 8652 0
368 -8653 0
-205 -8653 0
-368 205 8653 0
79 -8654 0
-605 -8654 0
-79 605 8654 0
-481 -8655 0
321 -8655 0
481 -321 8655 0
70 -8656 0
525 -8656 0
-70 -525 8656 0
555 -8657 0
194 -8657 0
-555 -194 8657 0
668 -8658 0
803 -8658 0
-668 -803 8658 0
296 -8659 0
593 -8659 0
-296 -593 8659 0
422 -8660 0
-971 -8660 0
-422 971 8660 0
56 -8661 0
309 -8661 0
-56 -309 8661 0
-584 -8662 0
631 -8662 0
584 -631 8662 0
-377 -8663 0
119 -8663 0
377 -119 8663 0
884 -8664 0
442 -8664 0
-884 -442 8664 0
63 -8665 0
6 -8665 0
-63 -6 8665 0
-830 -8666 0
65 -8666 0
830 -65 8666 0
-729 -8667 0
757 -8667 0
729 -757 8667 0
189 -8668 0
565 -8668 0
-189 -565 8668 0
751 -8669 0
-471 -8669 0
-751 471 8669 0
750 -8670 0
29 -8670 0
-750 -29 8670 0
-840 -8671 0
970 -8671 0
840 -970 8671 0
-947 -8672 0
547 -8672 0
947 -547 8672 0
-129 -8673 0
70 -8673 0
129 -70 8673 0
240 -8674 0
227 -8674 0
-240 -227 8674 0
407 -8675 0
972 -8675 0
-407 -972 8675 0
588 -8676 0
611 -8676 0
-588 -611 8676 0
254 -8677 0
-874 -8677 0
-254 874 8677 0
-625 -8678 0
950 -8678 0
625 -950 8678 0
461 -8679 0
-630 -8679 0
-461 630 8679 0
380 -8680 0
948 -8680 0
-380 -948 8680 0
-99 -8681 0
289 -8681 0
99 -289 8681 0
478 -8682 0
988 -8682 0
-478 -988 8682 0
372 -8683 0
155 -8683 0
-372 -155 8683 0
272 -8684 0
394 -8684 0
-272 -394 8684 0
-874 -8685 0
933 -8685 0
874 -933 8685 0
274 -8686 0
-319 -8686 0
-274 319 8686 0
960 -8687 0
-486 -8687 0
-960 486 8687 0
610 -8688 0
657 -8688 0
-610 -657 8688 0
861 -8689 0
-447 -8689 0
-861 447 8689 0
709 -8690 0
701 -8690 0
-709 -701 8690 0
640 -8691 0
-611 -8691 0
-640 611 8691 0
448 -8692 0
-988 -8692 0
-448 988 8692 0
-867 -8693 0
573 -8693 0
867 -573 8693 0
564 -8694 0
996 -8694 0
-564 -996 8694 0
781 -8695 0
889 -8695 0
-781 -889 8695 0
903 -8696 0
796 -8696 0
-903 -796 8696 0
886 -8697 0
-575 -8697 0
-886 575 8697 0
222 -8698 0
-619 -8698 0
-222 619 8698 0
-525 -8699 0
114 -8699 0
525 -114 8699 0
620 -8700 0
-973 -8700 0
-620 973 8700 0
698 -8701 0
-623 -8701 0
-698 623 8701 0
829 -8702 0
29 -8702 0
-829 -29 8702 0
821 -8703 0
123 -8703 0
-821 -123 8703 0
576 -8704 0
939 -8704 0
-576 -939 8704 0
390 -8705 0
860 -8705 0
-390 -860 8705 0
773 -8706 0
-511 -8706 0
-773 511 8706 0
208 -8707 0
420 -8707 0
-208 -420 8707 0
-433 -8708 0
244 -8708 0
433 -244 8708 0
205 -8709 0
609 -8709 0
-205 -609 8709 0
302 -8710 0
234 -8710 0
-302 -234 8710 0
183 -8711 0
-881 -8711 0
-183 881 8711 0
-104 -8712 0
447 -8712 0
104 -447 8712 0
511 -8713 0
721 -8713 0
-511 -721 8713 0
-8 -8714 0
413 -8714 0
8 -413 8714 0
-257 -8715 0
593 -8715 0
257 -593 8715 0
328 -8716 0
103 -8716 0
-328 -103 8716 0
-889 -8717 0
937 -8717 0
889 -937 8717 0
-8 -8718 0
568 -8718 0
8 -568 8718 0
584 -8719 0
-598 -8719 0
-584 598 8719 0
64 -8720 0
-738 -8720 0
-64 738 8720 0
980 -8721 0
748 -8721 0
-980 -748 8721 0
133 -8722 0
-485 -8722 0
-133 485 8722 0
628 -8723 0
-941 -8723 0
-628 941 8723 0
311 -8724 0
-754 -8724 0
-311 754 8724 0
758 -8725 0
-892 -8725 0
-758 892 8725 0
160 -8726 0
-930 -8726 0
-160 930 8726 0
-59 -8727 0
116 -8727 0
59 -116 8727 0
-209 -8728 0
101 -8728 0
209 -101 8728 0
-378 -8729 0
438 -8729 0
378 -438 8729 0
-365 -8730 0
82 -8730 0
365 -82 8730 0
678 -8731 0
-443 -8731 0
-678 443 8731 0
164 -8732 0
-332 -8732 0
-164 332 8732 0
720 -8733 0
421 -8733 0
-720 -421 8733 0
840 -8734 0
-926 -8734 0
-840 926 8734 0
-631 -8735 0
793 -8735 0
631 -793 8735 0
439 -8736 0
413 -8736 0
-439 -413 8736 0
-465 -8737 0
274 -8737 0
465 -274 8737 0
644 -8738 0
-852 -8738 0
-644 852 8738 0
-299 -8739 0
365 -8739 0
299 -365 8739 0
282 -8740 0
-335 -8740 0
-282 335 8740 0
750 -8741 0
-278 -8741 0
-750 278 8741 0
360 -8742 0
-101 -8742 0
-360 101 8742 0
814 -8743 0
886 -8743 0
-814 -886 8743 0
84 -8744 0
755 -8744 0
-84 -755 8744 0
672 -8745 0
-399 -8745 0
-672 399 8745 0
-34 -8746 0
420 -8746 0
34 -420 8746 0
-730 -8747 0
900 -8747 0
730 -900 8747 0
424 -8748 0
-138 -8748 0
-424 138 8748 0
-196 -8749 0
771 -8749 0
196 -771 8749 0
278 -8750 0
698 -8750 0
-278 -698 8750 0
541 -8751 0
-454 -8751 0
-541 454 8751 0
423 -8752 0
702 -8752 0
-423 -702 8752 0
863 -8753 0
-358 -8753 0
-863 358 8753 0
702 -8754 0
-668 -8754 0
-702 668 8754 0
966 -8755 0
445 -8755 0
-966 -445 8755 0
500 -8756 0
-605 -8756 0
-500 605 8756 0
-103 -8757 0
273 -8757 0
103 -273 8757 0
831 -8758 0
-226 -8758 0
-831 226 8758 0
-867 -8759 0
435 -8759 0
867 -435 8759 0
-978 -8760 0
811 -8760 0
978 -811 8760 0
79 -8761 0
-687 -8761 0
-79 687 8761 0
-589 -8762 0
633 -8762 0
589 -633 8762 0
-716 -8763 0
211 -8763 0
716 -211 8763 0
997 -8764 0
-772 -8764 0
-997 772 8764 0
901 -8765 0
44 -8765 0
-901 -44 8765 0
698 -8766 0
-15 -8766 0
-698 15 8766 0
-882 -8767 0
233 -8767 0
882 -233 8767 0
78 -8768 0
827 -8768 0
-78 -827 8768 0
-310 -8769 0
857 -8769 0
310 -857 8769 0
183 -8770 0
-819 -8770 0
-183 819 8770 0
528 -8771 0
-459 -8771 0
-528 459 8771 0
-522 -8772 0
186 -8772 0
522 -186 8772 0
-640 -8773 0
918 -8773 0
640 -918 8773 0
-444 -8774 0
963 -8774 0
444 -963 8774 0
886 -8775 0
-231 -8775 0
-886 231 8775 0
842 -8776 0
289 -8776 0
-842 -289 8776 0
-696 -8777 0
94 -8777 0
696 -94 8777 0
296 -8778 0
-581 -8778 0
-296 581 8778 0
544 -8779 0
-388 -8779 0
-544 388 8779 0
855 -8780 0
578 -8780 0
-855 -578 8780 0
759 -8781 0
732 -8781 0
-759 -732 8781 0
432 -8782 0
646 -8782 0
-432 -646 8782 0
661 -8783 0
34 -8783 0
-661 -34 8783 0
532 -8784 0
460 -8784 0
-532 -460 8784 0
847 -8785 0
507 -8785 0
-847 -507 8785 0
966 -8786 0
-261 -8786 0
-966 261 8786 0
396 -8787 0
-38 -8787 0
-396 38 8787 0
45 -8788 0
449 -8788 0
-45 -449 8788 0
-305 -8789 0
781 -8789 0
305 -781 8789 0
-874 -8790 0
244 -8790 0
874 -244 8790 0
560 -8791 0
-841 -8791 0
-560 841 8791 0
964 -8792 0
-996 -8792 0
-964 996 8792 0
672 -8793 0
-575 -8793 0
-672 575 8793 0
624 -8794 0
-459 -8794 0
-624 459 8794 0
-84 -8795 0
97 -8795 0
84 -97 8795 0
284 -8796 0
202 -8796 0
-284 -202 8796 0
-545 -8797 0
491 -8797 0
545 -491 8797 0
-690 -8798 0
281 -8798 0
690 -281 8798 0
150 -8799 0
993 -8799 0
-150 -993 8799 0
40 -8800 0
-614 -8800 0
-40 614 8800 0
403 -8801 0
313 -8801 0
-403 -313 8801 0
550 -8802 0
-517 -8802 0
-550 517 8802 0
796 -8803 0
482 -8803 0
-796 -482 8803 0
770 -8804 0
449 -8804 0
-770 -449 8804 0
743 -8805 0
750 -8805 0
-743 -750 8805 0
948 -8806 0
346 -8806 0
-948 -346 8806 0
368 -8807 0
-408 -8807 0
-368 408 8807 0
-667 -8808 0
649 -8808 0
667 -649 8808 0
599 -8809 0
853 -8809 0
-599 -853 8809 0
-708 -8810 0
155 -8810 0
708 -155 8810 0
987 -8811 0
233 -8811 0
-987 -233 8811 0
-860 -8812 0
353 -8812 0
860 -353 8812 0
671 -8813 0
910 -8813 0
-671 -910 8813 0
259 -8814 0
-927 -8814 0
-259 927 8814 0
-111 -8815 0
217 -8815 0
111 -217 8815 0
120 -8816 0
867 -8816 0
-120 -867 8816 0
230 -8817 0
869 -8817 0
-230 -869 8817 0
391 -8818 0
587 -8818 0
-391 -587 8818 0
301 -8819 0
689 -8819 0
-301 -689 8819 0
-360 -8820 0
235 -8820 0
360 -235 8820 0
183 -8821 0
317 -8821 0
-183 -317 8821 0
410 -8822 0
-351 -8822 0
-410 351 8822 0
557 -8823 0
-470 -8823 0
-557 470 8823 0
422 -8824 0
-759 -8824 0
-422 759 8824 0
-8 -8825 0
770 -8825 0
8 -770 8825 0
792 -8826 0
-51 -8826 0
-792 51 8826 0
-605 -8827 0
945 -8827 0
605 -945 8827 0
119 -8828 0
925 -8828 0
-119 -925 8828 0
-224 -8829 0
619 -8829 0
224 -619 8829 0
-820 -8830 0
290 -8830 0
820 -290 8830 0
239 -8831 0
735 -8831 0
-239 -735 8831 0
695 -8832 0
-662 -8832 0
-695 662 8832 0
915 -8833 0
-237 -8833 0
-915 237 8833 0
63 -8834 0
454 -8834 0
-63 -454 8834 0
215 -8835 0
-365 -8835 0
-215 365 8835 0
264 -8836 0
-870 -8836 0
-264 870 8836 0
816 -8837 0
-175 -8837 0
-816 175 8837 0
781 -8838 0
-93 -8838 0
-781 93 8838 0
560 -8839 0
191 -8839 0
-560 -191 8839 0
454 -8840 0
603 -8840 0
-454 -603 8840 0
885 -8841 0
793 -8841 0
-885 -793 8841 0
-64 -8842 0
198 -8842 0
64 -198 8842 0
679 -8843 0
-423 -8843 0
-679 423 8843 0
-41 -8844 0
134 -8844 0
41 -134 8844 0
129 -8845 0
25 -8845 0
-129 -25 8845 0
269 -8846 0
267 -8846 0
-269 -267 8846 0
-168 -8847 0
289 -8847 0
168 -289 8847 0
770 -8848 0
-775 -8848 0
-770 775 8848 0
408 -8849 0
-172 -8849 0
-408 172 8849 0
253 -8850 0
181 -8850 0
-253 -181 8850 0
-675 -8851 0
547 -8851 0
675 -547 8851 0
152 -8852 0
427 -8852 0
-152 -427 8852 0
559 -8853 0
-395 -8853 0
-559 395 8853 0
-642 -8854 0
371 -8854 0
642 -371 8854 0
208 -8855 0
-156 -8855 0
-208 156 8855 0
614 -8856 0
-235 -8856 0
-614 235 8856 0
872 -8857 0
555 -8857 0
-872 -555 8857 0
208 -8858 0
-833 -8858 0
-208 833 8858 0
700 -8859 0
-822 -8859 0
-700 822 8859 0
-88 -8860 0
387 -8860 0
88 -387 8860 0
623 -8861 0
-541 -8861 0
-623 541 8861 0
77 -8862 0
307 -8862 0
-77 -307 8862 0
-273 -8863 0
99 -8863 0
273 -99 8863 0
221 -8864 0
-59 -8864 0
-221 59 8864 0
-720 -8865 0
995 -8865 0
720 -995 8865 0
872 -8866 0
413 -8866 0
-872 -413 8866 0
-270 -8867 0
161 -8867 0
270 -161 8867 0
-822 -8868 0
657 -8868 0
822 -657 8868 0
149 -8869 0
177 -8869 0
-149 -177 8869 0
453 -8870 0
-647 -8870 0
-453 647 8870 0
-346 -8871 0
537 -8871 0
346 -537 8871 0
-744 -8872 0
694 -8872 0
744 -694 8872 0
-825 -8873 0
590 -8873 0
825 -590 8873 0
-192 -8874 0
954 -8874 0
192 -954 8874 0
12 -8875 0
-678 -8875 0
-12 678 8875 0
-216 -8876 0
378 -8876 0
216 -378 8876 0
815 -8877 0
133 -8877 0
-815 -133 8877 0
816 -8878 0
-479 -8878 0
-816 479 8878 0
130 -8879 0
905 -8879 0
-130 -905 8879 0
554 -8880 0
-7 -8880 0
-554 7 8880 0
-268 -8881 0
65 -8881 0
268 -65 8881 0
798 -8882 0
-806 -8882 0
-798 806 8882 0
968 -8883 0
208 -8883 0
-968 -208 8883 0
-337 -8884 0
483 -8884 0
337 -483 8884 0
776 -8885 0
146 -8885 0
-776 -146 8885 0
112 -8886 0
-985 -8886 0
-112 985 8886 0
574 -8887 0
73 -8887 0
-574 -73 8887 0
603 -8888 0
457 -8888 0
-603 -457 8888 0
627 -8889 0
978 -8889 0
-627 -978 8889 0
-824 -8890 0
728 -8890 0
824 -728 8890 0
-433 -8891 0
90 -8891 0
433 -90 8891 0
770 -8892 0
-87 -8892 0
-770 87 8892 0
-440 -8893 0
817 -8893 0
440 -817 8893 0
-714 -8894 0
926 -8894 0
714 -926 8894 0
728 -8895 0
-916 -8895 0
-728 916 8895 0
671 -8896 0
-401 -8896 0
-671 401 8896 0
277 -8897 0
308 -8897 0
-277 -308 8897 0
278 -8898 0
-836 -8898 0
-278 836 8898 0
-922 -8899 0
889 -8899 0
922 -889 8899 0
229 -8900 0
298 -8900 0
-229 -298 8900 0
-754 -8901 0
796 -8901 0
754 -796 8901 0
871 -8902 0
329 -8902 0
-871 -329 8902 0
-406 -8903 0
18 -8903 0
406 -18 8903 0
-720 -8904 0
714 -8904 0
720 -714 8904 0
-298 -8905 0
90 -8905 0
298 -90 8905 0
-752 -8906 0
281 -8906 0
752 -281 8906 0
-841 -8907 0
398 -8907 0
841 -398 8907 0
421 -8908 0
625 -8908 0
-421 -625 8908 0
576 -8909 0
538 -8909 0
-576 -538 8909 0
-202 -8910 0
179 -8910 0
202 -179 8910 0
600 -8911 0
989 -8911 0
-600 -989 8911 0
351 -8912 0
-937 -8912 0
-351 937 8912 0
956 -8913 0
737 -8913 0
-956 -737 8913 0
-176 -8914 0
206 -8914 0
176 -206 8914 0
335 -8915 0
413 -8915 0
-335 -413 8915 0
519 -8916 0
-590 -8916 0
-519 590 8916 0
148 -8917 0
-446 -8917 0
-148 446 8917 0
375 -8918 0
50 -8918 0
-375 -50 8918 0
-881 -8919 0
791 -8919 0
881 -791 8919 0
736 -8920 0
-901 -8920 0
-736 901 8920 0
-1000 -8921 0
313 -8921 0
1000 -313 8921 0
678 -8922 0
973 -8922 0
-678 -973 8922 0
93 -8923 0
61 -8923 0
-93 -61 8923 0
845 -8924 0
-932 -8924 0
-845 932 8924 0
-496 -8925 0
87 -8925 0
496 -87 8925 0
-331 -8926 0
65 -8926 0
331 -65 8926 0
471 -8927 0
-499 -8927 0
-471 499 8927 0
-161 -8928 0
433 -8928 0
161 -433 8928 0
-415 -8929 0
705 -8929 0
415 -705 8929 0
707 -8930 0
523 -8930 0
-707 -523 8930 0
933 -8931 0
917 -8931 0
-933 -917 8931 0
295 -8932 0
-822 -8932 0
-295 822 8932 0
549 -8933 0
953 -8933 0
-549 -953 8933 0
-1 -8934 0
425 -8934 0
1 -425 8934 0
431 -8935 0
412 -8935 0
-431 -412 8935 0
999 -8936 0
757 -8936 0
-999 -757 8936 0
709 -8937 0
-54 -8937 0
-709 54 8937 0
998 -8938 0
-679 -8938 0
-998 679 8938 0
-268 -8939 0
250 -8939 0
268 -250 8939 0
799 -8940 0
58 -8940 0
-799 -58 8940 0
-162 -8941 0
842 -8941 0
162 -842 8941 0
22 -8942 0
-766 -8942 0
-22 766 8942 0
359 -8943 0
619 -8943 0
-359 -619 8943 0
990 -8944 0
-507 -8944 0
-990 507 8944 0
-29 -8945 0
498 -8945 0
29 -498 8945 0
166 -8946 0
74 -8946 0
-166 -74 8946 0
638 -8947 0
-228 -8947 0
-638 228 8947 0
-482 -8948 0
377 -8948 0
482 -377 8948 0
727 -8949 0
500 -8949 0
-727 -500 8949 0
574 -8950 0
-829 -8950 0
-574 829 8950 0
-568 -8951 0
110 -8951 0
568 -110 8951 0
-216 -8952 0
108 -8952 0
216 -108 8952 0
-861 -8953 0
834 -8953 0
861 -834 8953 0
388 -8954 0
276 -8954 0
-388 -276 8954 0
128 -8955 0
-938 -8955 0
-128 938 8955 0
-689 -8956 0
78 -8956 0
689 -78 8956 0
153 -8957 0
449 -8957 0
-153 -449 8957 0
175 -8958 0
-356 -8958 0
-175 356 8958 0
566 -8959 0
-155 -8959 0
-566 155 8959 0
-185 -8960 0
619 -8960 0
185 -619 8960 0
897 -8961 0
-623 -8961 0
-897 623 8961 0
-214 -8962 0
857 -8962 0
214 -857 8962 0
46 -8963 0
-555 -8963 0
-46 555 8963 0
567 -8964 0
-110 -8964 0
-567 110 8964 0
-416 -8965 0
382 -8965 0
416 -382 8965 0
-77 -8966 0
803 -8966 0
77 -803 8966 0
-816 -8967 0
201 -8967 0
816 -201 8967 0
264 -8968 0
604 -8968 0
-264 -604 8968 0
-27 -8969 0
757 -8969 0
27 -757 8969 0
-272 -8970 0
371 -8970 0
272 -371 8970 0
779 -8971 0
-942 -8971 0
-779 942 8971 0
826 -8972 0
786 -8972 0
-826 -786 8972 0
-853 -8973 0
393 -8973 0
853 -393 8973 0
216 -8974 0
-730 -8974 0
-216 730 8974 0
963 -8975 0
-607 -8975 0
-963 607 8975 0
192 -8976 0
-98 -8976 0
-192 98 8976 0
-330 -8977 0
507 -8977 0
330 -507 8977 0
-162 -8978 0
625 -8978 0
162 -625 8978 0
-592 -8979 0
24 -8979 0
592 -24 8979 0
-285 -8980 0
969 -8980 0
285 -969 8980 0
941 -8981 0
537 -8981 0
-941 -537 8981 0
-146 -8982 0
20 -8982 0
146 -20 8982 0
-26 -8983 0
331 -8983 0
26 -331 8983 0
880 -8984 0
222 -8984 0
-880 -222 8984 0
326 -8985 0
418 -8985 0
-326 -418 8985 0
601 -8986 0
-759 -8986 0
-601 759 8986 0
305 -8987 0
-775 -8987 0
-305 775 8987 0
244 -8988 0
322 -8988 0
-244 -322 8988 0
588 -8989 0
-910 -8989 0
-588 910 8989 0
21 -8990 0
972 -8990 0
-21 -972 8990 0
51 -8991 0
322 -8991 0
-51 -322 8991 0
-258 -8992 0
1 -8992 0
258 -1 8992 0
613 -8993 0
162 -8993 0
-613 -162 8993 0
719 -8994 0
-323 -8994 0
-719 323 8994 0
-89 -8995 0
642 -8995 0
89 -642 8995 0
660 -8996 0
537 -8996 0
-660 -537 8996 0
988 -8997 0
-604 -8997 0
-988 604 8997 0
846 -8998 0
467 -8998 0
-846 -467 8998 0
167 -8999 0
795 -8999 0
-167 -795 8999 0
425 -9000 0
177 -9000 0
-425 -177 9000 0
-800 -9001 0
505 -9001 0
800 -505 9001 0
-723 -9002 0
891 -9002 0
723 -891 9002 0
-323 -9003 0
26 -9003 0
323 -26 9003 0
103 -9004 0
547 -9004 0
-103 -547 9004 0
-176 -9005 0
11 -9005 0
176 -11 9005 0
36 -9006 0
252 -9006 0
-36 -252 9006 0
219 -9007 0
-54 -9007 0
-219 54 9007 0
698 -9008 0
-343 -9008 0
-698 343 9008 0
183 -9009 0
653 -9009 0
-183 -653 9009 0
957 -9010 0
-596 -9010 0
-957 596 9010 0
62 -9011 0
82 -9011 0
-62 -82 9011 0
80 -9012 0
276 -9012 0
-80 -276 9012 0
-764 -9013 0
129 -9013 0
764 -129 9013 0
147 -9014 0
-925 -9014 0
-147 925 9014 0
-26 -9015 0
325 -9015 0
26 -325 9015 0
134 -9016 0
-6 -9016 0
-134 6 9016 0
660 -9017 0
-398 -9017 0
-660 398 9017 0
688 -9018 0
301 -9018 0
-688 -301 9018 0
-937 -9019 0
210 -9019 0
937 -210 9019 0
368 -9020 0
821 -9020 0
-368 -821 9020 0
-792 -9021 0
9 -9021 0
792 -9 9021 0
828 -9022 0
-46 -9022 0
-828 46 9022 0
798 -9023 0
-174 -9023 0
-798 174 9023 0
213 -9024 0
-67 -9024 0
-213 67 9024 0
205 -9025 0
-525 -9025 0
-205 525 9025 0
167 -9026 0
-135 -9026 0
-167 135 9026 0
951 -9027 0
270 -9027 0
-951 -270 9027 0
-546 -9028 0
206 -9028 0
546 -206 9028 0
144 -9029 0
-231 -9029 0
-144 231 9029 0
510 -9030 0
-212 -9030 0
-510 212 9030 0
728 -9031 0
-540 -9031 0
-728 540 9031 0
-57 -9032 0
756 -9032 0
57 -756 9032 0
-962 -9033 0
526 -9033 0
962 -526 9033 0
341 -9034 0
987 -9034 0
-341 -987 9034 0
13 -9035 0
228 -9036 0
-781 -9036 0
-228 781 9036 0
138 -9037 0
441 -9037 0
-138 -441 9037 0
-64 -9038 0
863 -9038 0
64 -863 9038 0
-553 -9039 0
662 -9039 0
553 -662 9039 0
759 -9040 0
450 -9040 0
-759 -450 9040 0
34 -9041 0
665 -9041 0
-34 -665 9041 0
942 -9042 0
-476 -9042 0
-942 476 9042 0
666 -9043 0
473 -9043 0
-666 -473 9043 0
342 -9044 0
-923 -9044 0
-342 923 9044 0
209 -9045 0
897 -9045 0
-209 -897 9045 0
470 -9046 0
913 -9046 0
-470 -913 9046 0
396 -9047 0
-615 -9047 0
-396 615 9047 0
-642 -9048 0
249 -9048 0
642 -249 9048 0
-306 -9049 0
939 -9049 0
306 -939 9049 0
797 -9050 0
-260 -9050 0
-797 260 9050 0
-36 -9051 0
514 -9051 0
36 -514 9051 0
-970 -9052 0
228 -9052 0
970 -228 9052 0
699 -9053 0
649 -9053 0
-699 -649 9053 0
-405 -9054 0
107 -9054 0
405 -107 9054 0
117 -9055 0
-766 -9055 0
-117 766 9055 0
736 -9056 0
415 -9056 0
-736 -415 9056 0
429 -9057 0
828 -9057 0
-429 -828 9057 0
-169 -9058 0
598 -9058 0
169 -598 9058 0
907 -9059 0
523 -9059 0
-907 -523 9059 0
837 -9060 0
-543 -9060 0
-837 543 9060 0
208 -9061 0
635 -9061 0
-208 -635 9061 0
61 -9062 0
-916 -9062 0
-61 916 9062 0
360 -9063 0
377 -9063 0
-360 -377 9063 0
-625 -9064 0
837 -9064 0
625 -837 9064 0
-124 -9065 0
714 -9065 0
124 -714 9065 0
-892 -9066 0
411 -9066 0
892 -411 9066 0
820 -9067 0
-140 -9067 0
-820 140 9067 0
759 -9068 0
-41 -9068 0
-759 41 9068 0
-56 -9069 0
659 -9069 0
56 -659 9069 0
-164 -9070 0
890 -9070 0
164 -890 9070 0
640 -9071 0
-465 -9071 0
-640 465 9071 0
528 -9072 0
505 -9072 0
-528 -505 9072 0
316 -9073 0
227 -9073 0
-316 -227 9073 0
991 -9074 0
975 -9074 0
-991 -975 9074 0
971 -9075 0
-941 -9075 0
-971 941 9075 0
800 -9076 0
-917 -9076 0
-800 917 9076 0
239 -9077 0
796 -9077 0
-239 -796 9077 0
839 -9078 0
718 -9078 0
-839 -718 9078 0
355 -9079 0
-639 -9079 0
-355 639 9079 0
480 -9080 0
783 -9080 0
-480 -783 9080 0
181 -9081 0
-238 -9081 0
-181 238 9081 0
967 -9082 0
-157 -9082 0
-967 157 9082 0
-945 -9083 0
979 -9083 0
945 -979 9083 0
-720 -9084 0
212 -9084 0
720 -212 9084 0
207 -9085 0
-45 -9085 0
-207 45 9085 0
411 -9086 0
-935 -9086 0
-411 935 9086 0
757 -9087 0
-533 -9087 0
-757 533 9087 0
-419 -9088 0
929 -9088 0
419 -929 9088 0
-628 -9089 0
706 -9089 0
628 -706 9089 0
55 -9090 0
-196 -9090 0
-55 196 9090 0
48 -9091 0
-340 -9091 0
-48 340 9091 0
648 -9092 0
-190 -9092 0
-648 190 9092 0
864 -9093 0
307 -9093 0
-864 -307 9093 0
-384 -9094 0
470 -9094 0
384 -470 9094 0
-195 -9095 0
84 -9095 0
195 -84 9095 0
-467 -9096 0
961 -9096 0
467 -961 9096 0
406 -9097 0
-375 -9097 0
-406 375 9097 0
883 -9098 0
-959 -9098 0
-883 959 9098 0
-986 -9099 0
910 -9099 0
986 -910 9099 0
971 -9100 0
249 -9100 0
-971 -249 9100 0
-633 -9101 0
426 -9101 0
633 -426 9101 0
8 -9102 0
-221 -9102 0
-8 221 9102 0
80 -9103 0
-518 -9103 0
-80 518 9103 0
-689 -9104 0
12 -9104 0
689 -12 9104 0
-282 -9105 0
298 -9105 0
282 -298 9105 0
863 -9106 0
234 -9106 0
-863 -234 9106 0
549 -9107 0
-343 -9107 0
-549 343 9107 0
971 -9108 0
-437 -9108 0
-971 437 9108 0
271 -9109 0
466 -9109 0
-271 -466 9109 0
-704 -9110 0
191 -9110 0
704 -191 9110 0
858 -9111 0
801 -9111 0
-858 -801 9111 0
848 -9112 0
-54 -9112 0
-848 54 9112 0
760 -9113 0
305 -9113 0
-760 -305 9113 0
784 -9114 0
-180 -9114 0
-784 180 9114 0
-867 -9115 0
203 -9115 0
867 -203 9115 0
411 -9116 0
-527 -9116 0
-411 527 9116 0
664 -9117 0
876 -9117 0
-664 -876 9117 0
749 -9118 0
313 -9118 0
-749 -313 9118 0
445 -9119 0
956 -9119 0
-445 -956 9119 0
324 -9120 0
-998 -9120 0
-324 998 9120 0
677 -9121 0
-221 -9121 0
-677 221 9121 0
646 -9122 0
-668 -9122 0
-646 668 9122 0
61 -9123 0
723 -9123 0
-61 -723 9123 0
679 -9124 0
-601 -9124 0
-679 601 9124 0
-150 -9125 0
226 -9125 0
150 -226 9125 0
-139 -9126 0
482 -9126 0
139 -482 9126 0
111 -9127 0
-598 -9127 0
-111 598 9127 0
883 -9128 0
-119 -9128 0
-883 119 9128 0
-492 -9129 0
851 -9129 0
492 -851 9129 0
-505 -9130 0
543 -9130 0
505 -543 9130 0
520 -9131 0
931 -9131 0
-520 -931 9131 0
427 -9132 0
167 -9133 0
139 -9133 0
-167 -139 9133 0
-897 -9134 0
938 -9134 0
897 -938 9134 0
614 -9135 0
-775 -9135 0
-614 775 9135 0
588 -9136 0
-142 -9136 0
-588 142 9136 0
-600 -9137 0
193 -9137 0
600 -193 9137 0
280 -9138 0
-268 -9138 0
-280 268 9138 0
448 -9139 0
292 -9139 0
-448 -292 9139 0
967 -9140 0
-430 -9140 0
-967 430 9140 0
984 -9141 0
565 -9141 0
-984 -565 9141 0
-303 -9142 0
849 -9142 0
303 -849 9142 0
-384 -9143 0
275 -9143 0
384 -275 9143 0
760 -9144 0
946 -9144 0
-760 -946 9144 0
-64 -9145 0
82 -9145 0
64 -82 9145 0
287 -9146 0
516 -9146 0
-287 -516 9146 0
976 -9147 0
296 -9147 0
-976 -296 9147 0
942 -9148 0
-631 -9148 0
-942 631 9148 0
-294 -9149 0
409 -9149 0
294 -409 9149 0
132 -9150 0
137 -9150 0
-132 -137 9150 0
-301 -9151 0
1 -9151 0
301 -1 9151 0
-994 -9152 0
947 -9152 0
994 -947 9152 0
626 -9153 0
-542 -9153 0
-626 542 9153 0
-758 -9154 0
609 -9154 0
758 -609 9154 0
-289 -9155 0
557 -9155 0
289 -557 9155 0
248 -9156 0
-217 -9156 0
-248 217 9156 0
222 -9157 0
306 -9157 0
-222 -306 9157 0
168 -9158 0
-875 -9158 0
-168 875 9158 0
-874 -9159 0
282 -9159 0
874 -282 9159 0
144 -9160 0
974 -9160 0
-144 -974 9160 0
832 -9161 0
406 -9161 0
-832 -406 9161 0
-688 -9162 0
248 -9162 0
688 -248 9162 0
-480 -9163 0
2 -9163 0
480 -2 9163 0
-776 -9164 0
839 -9164 0
776 -839 9164 0
-428 -9165 0
962 -9165 0
428 -962 9165 0
983 -9166 0
-764 -9166 0
-983 764 9166 0
-773 -9167 0
10 -9167 0
773 -10 9167 0
-552 -9168 0
347 -9168 0
552 -347 9168 0
-300 -9169 0
211 -9169 0
300 -211 9169 0
-474 -9170 0
342 -9170 0
474 -342 9170 0
-764 -9171 0
50 -9171 0
764 -50 9171 0
637 -9172 0
618 -9172 0
-637 -618 9172 0
204 -9173 0
-911 -9173 0
-204 911 9173 0
-474 -9174 0
155 -9174 0
474 -155 9174 0
703 -9175 0
-963 -9175 0
-703 963 9175 0
-845 -9176 0
841 -9176 0
845 -841 9176 0
-241 -9177 0
861 -9177 0
241 -861 9177 0
816 -9178 0
461 -9178 0
-816 -461 9178 0
-18 -9179 0
154 -9179 0
18 -154 9179 0
104 -9180 0
156 -9180 0
-104 -156 9180 0
693 -9181 0
-557 -9181 0
-693 557 9181 0
14 -9182 0
-558 -9182 0
-14 558 9182 0
16 -9183 0
-17 -9183 0
-16 17 9183 0
-480 -9184 0
857 -9184 0
480 -857 9184 0
476 -9185 0
794 -9185 0
-476 -794 9185 0
756 -9186 0
-533 -9186 0
-756 533 9186 0
655 -9187 0
-162 -9187 0
-655 162 9187 0
573 -9188 0
866 -9188 0
-573 -866 9188 0
-458 -9189 0
181 -9189 0
458 -181 9189 0
397 -9190 0
-628 -9190 0
-397 628 9190 0
951 -9191 0
562 -9191 0
-951 -562 9191 0
207 -9192 0
583 -9192 0
-207 -583 9192 0
-190 -9193 0
722 -9193 0
190 -722 9193 0
176 -9194 0
396 -9194 0
-176 -396 9194 0
816 -9195 0
-105 -9195 0
-816 105 9195 0
830 -9196 0
-335 -9196 0
-830 335 9196 0
830 -9197 0
-975 -9197 0
-830 975 9197 0
317 -9198 0
-621 -9198 0
-317 621 9198 0
-944 -9199 0
83 -9199 0
944 -83 9199 0
-150 -9200 0
89 -9200 0
150 -89 9200 0
917 -9201 0
-483 -9201 0
-917 483 9201 0
-273 -9202 0
883 -9202 0
273 -883 9202 0
327 -9203 0
-874 -9203 0
-327 874 9203 0
131 -9204 0
145 -9204 0
-131 -145 9204 0
-662 -9205 0
242 -9205 0
662 -242 9205 0
-317 -9206 0
873 -9206 0
317 -873 9206 0
-753 -9207 0
898 -9207 0
753 -898 9207 0
306 -9208 0
673 -9208 0
-306 -673 9208 0
375 -9209 0
974 -9209 0
-375 -974 9209 0
509 -9210 0
-934 -9210 0
-509 934 9210 0
190 -9211 0
-423 -9211 0
-190 423 9211 0
34 -9212 0
-319 -9212 0
-34 319 9212 0
804 -9213 0
641 -9213 0
-804 -641 9213 0
509 -9214 0
700 -9214 0
-509 -700 9214 0
989 -9215 0
396 -9215 0
-989 -396 9215 0
284 -9216 0
682 -9216 0
-284 -682 9216 0
-672 -9217 0
377 -9217 0
672 -377 9217 0
656 -9218 0
639 -9218 0
-656 -639 9218 0
803 -9219 0
362 -9219 0
-803 -362 9219 0
-866 -9220 0
97 -9220 0
866 -97 9220 0
484 -9221 0
402 -9221 0
-484 -402 9221 0
-760 -9222 0
521 -9222 0
760 -521 9222 0
567 -9223 0
235 -9223 0
-567 -235 9223 0
728 -9224 0
653 -9224 0
-728 -653 9224 0
949 -9225 0
185 -9225 0
-949 -185 9225 0
-100 -9226 0
892 -9226 0
100 -892 9226 0
475 -9227 0
-335 -9227 0
-475 335 9227 0
-890 -9228 0
641 -9228 0
890 -641 9228 0
299 -9229 0
697 -9229 0
-299 -697 9229 0
-577 -9230 0
314 -9230 0
577 -314 9230 0
149 -9231 0
553 -9231 0
-149 -553 9231 0
-824 -9232 0
504 -9232 0
824 -504 9232 0
324 -9233 0
738 -9233 0
-324 -738 9233 0
-561 -9234 0
214 -9234 0
561 -214 9234 0
199 -9235 0
291 -9235 0
-199 -291 9235 0
29 -9236 0
866 -9236 0
-29 -866 9236 0
548 -9237 0
-109 -9237 0
-548 109 9237 0
-496 -9238 0
418 -9238 0
496 -418 9238 0
-666 -9239 0
961 -9239 0
666 -961 9239 0
-233 -9240 0
522 -9240 0
233 -522 9240 0
103 -9241 0
942 -9241 0
-103 -942 9241 0
190 -9242 0
-883 -9242 0
-190 883 9242 0
341 -9243 0
746 -9243 0
-341 -746 9243 0
-580 -9244 0
939 -9244 0
580 -939 9244 0
-857 -9245 0
723 -9245 0
857 -723 9245 0
128 -9246 0
-714 -9246 0
-128 714 9246 0
928 -9247 0
-103 -9247 0
-928 103 9247 0
679 -9248 0
697 -9248 0
-679 -697 9248 0
663 -9249 0
923 -9249 0
-663 -923 9249 0
-986 -9250 0
158 -9250 0
986 -158 9250 0
45 -9251 0
530 -9251 0
-45 -530 9251 0
-248 -9252 0
769 -9252 0
248 -769 9252 0
-693 -9253 0
603 -9253 0
693 -603 9253 0
728 -9254 0
404 -9254 0
-728 -404 9254 0
-899 -9255 0
203 -9255 0
899 -203 9255 0
142 -9256 0
-699 -9256 0
-142 699 9256 0
824 -9257 0
480 -9257 0
-824 -480 9257 0
392 -9258 0
694 -9258 0
-392 -694 9258 0
726 -9259 0
-563 -9259 0
-726 563 9259 0
157 -9260 0
826 -9260 0
-157 -826 9260 0
71 -9261 0
223 -9261 0
-71 -223 9261 0
622 -9262 0
-741 -9262 0
-622 741 9262 0
392 -9263 0
450 -9263 0
-392 -450 9263 0
719 -9264 0
-91 -9264 0
-719 91 9264 0
624 -9265 0
982 -9265 0
-624 -982 9265 0
-387 -9266 0
195 -9266 0
387 -195 9266 0
297 -9267 0
97 -9267 0
-297 -97 9267 0
135 -9268 0
140 -9268 0
-135 -140 9268 0
248 -9269 0
-377 -9269 0
-248 377 9269 0
312 -9270 0
44 -9270 0
-312 -44 9270 0
733 -9271 0
-142 -9271 0
-733 142 9271 0
926 -9272 0
205 -9272 0
-926 -205 9272 0
911 -9273 0
35 -9273 0
-911 -35 9273 0
900 -9274 0
-583 -9274 0
-900 583 9274 0
-414 -9275 0
969 -9275 0
414 -969 9275 0
664 -9276 0
-598 -9276 0
-664 598 9276 0
261 -9277 0
948 -9277 0
-261 -948 9277 0
926 -9278 0
-159 -9278 0
-926 159 9278 0
128 -9279 0
-149 -9279 0
-128 149 9279 0
940 -9280 0
563 -9280 0
-940 -563 9280 0
-48 -9281 0
844 -9281 0
48 -844 9281 0
128 -9282 0
-986 -9282 0
-128 986 9282 0
739 -9283 0
313 -9283 0
-739 -313 9283 0
471 -9284 0
-174 -9284 0
-471 174 9284 0
-928 -9285 0
697 -9285 0
928 -697 9285 0
-369 -9286 0
662 -9286 0
369 -662 9286 0
-40 -9287 0
773 -9287 0
40 -773 9287 0
922 -9288 0
-367 -9288 0
-922 367 9288 0
860 -9289 0
-614 -9289 0
-860 614 9289 0
71 -9290 0
395 -9290 0
-71 -395 9290 0
533 -9291 0
-927 -9291 0
-533 927 9291 0
-180 -9292 0
890 -9292 0
180 -890 9292 0
-433 -9293 0
726 -9293 0
433 -726 9293 0
-938 -9294 0
190 -9294 0
938 -190 9294 0
452 -9295 0
162 -9295 0
-452 -162 9295 0
-716 -9296 0
377 -9296 0
716 -377 9296 0
312 -9297 0
-749 -9297 0
-312 749 9297 0
275 -9298 0
-167 -9298 0
-275 167 9298 0
582 -9299 0
485 -9299 0
-582 -485 9299 0
316 -9300 0
-565 -9300 0
-316 565 9300 0
679 -9301 0
-451 -9301 0
-679 451 9301 0
999 -9302 0
433 -9302 0
-999 -433 9302 0
303 -9303 0
-436 -9303 0
-303 436 9303 0
-925 -9304 0
58 -9304 0
925 -58 9304 0
848 -9305 0
502 -9305 0
-848 -502 9305 0
306 -9306 0
241 -9306 0
-306 -241 9306 0
496 -9307 0
725 -9307 0
-496 -725 9307 0
452 -9308 0
242 -9308 0
-452 -242 9308 0
687 -9309 0
85 -9309 0
-687 -85 9309 0
242 -9310 0
-927 -9310 0
-242 927 9310 0
541 -9311 0
-934 -9311 0
-541 934 9311 0
-528 -9312 0
453 -9312 0
528 -453 9312 0
-235 -9313 0
91 -9313 0
235 -91 9313 0
747 -9314 0
-598 -9314 0
-747 598 9314 0
103 -9315 0
-875 -9315 0
-103 875 9315 0
159 -9316 0
-173 -9316 0
-159 173 9316 0
-315 -9317 0
380 -9317 0
315 -380 9317 0
156 -9318 0
-501 -9318 0
-156 501 9318 0
56 -9319 0
201 -9319 0
-56 -201 9319 0
446 -9320 0
-810 -9320 0
-446 810 9320 0
213 -9321 0
-284 -9321 0
-213 284 9321 0
703 -9322 0
759 -9322 0
-703 -759 9322 0
676 -9323 0
833 -9323 0
-676 -833 9323 0
-720 -9324 0
101 -9324 0
720 -101 9324 0
-100 -9325 0
586 -9325 0
100 -586 9325 0
-581 -9326 0
883 -9326 0
581 -883 9326 0
877 -9327 0
779 -9327 0
-877 -779 9327 0
-610 -9328 0
501 -9328 0
610 -501 9328 0
-656 -9329 0
451 -9329 0
656 -451 9329 0
-899 -9330 0
65 -9330 0
899 -65 9330 0
559 -9331 0
18 -9331 0
-559 -18 9331 0
-962 -9332 0
283 -9332 0
962 -283 9332 0
863 -9333 0
-974 -9333 0
-863 974 9333 0
98 -9334 0
-7 -9334 0
-98 7 9334 0
455 -9335 0
43 -9335 0
-455 -43 9335 0
104 -9336 0
-815 -9336 0
-104 815 9336 0
-992 -9337 0
865 -9337 0
992 -865 9337 0
-203 -9338 0
249 -9338 0
203 -249 9338 0
-241 -9339 0
481 -9339 0
241 -481 9339 0
-184 -9340 0
435 -9340 0
184 -435 9340 0
584 -9341 0
420 -9341 0
-584 -420 9341 0
407 -9342 0
341 -9342 0
-407 -341 9342 0
42 -9343 0
-639 -9343 0
-42 639 9343 0
527 -9344 0
-55 -9344 0
-527 55 9344 0
908 -9345 0
657 -9345 0
-908 -657 9345 0
591 -9346 0
-646 -9346 0
-591 646 9346 0
318 -9347 0
468 -9347 0
-318 -468 9347 0
-712 -9348 0
580 -9348 0
712 -580 9348 0
-624 -9349 0
517 -9349 0
624 -517 9349 0
800 -9350 0
-965 -9350 0
-800 965 9350 0
-589 -9351 0
986 -9351 0
589 -986 9351 0
306 -9352 0
801 -9352 0
-306 -801 9352 0
423 -9353 0
238 -9353 0
-423 -238 9353 0
369 -9354 0
161 -9354 0
-369 -161 9354 0
-939 -9355 0
651 -9355 0
939 -651 9355 0
767 -9356 0
-851 -9356 0
-767 851 9356 0
-914 -9357 0
982 -9357 0
914 -982 9357 0
469 -9358 0
889 -9358 0
-469 -889 9358 0
577 -9359 0
-143 -9359 0
-577 143 9359 0
469 -9360 0
803 -9360 0
-469 -803 9360 0
-106 -9361 0
316 -9361 0
106 -316 9361 0
620 -9362 0
-71 -9362 0
-620 71 9362 0
143 -9363 0
665 -9363 0
-143 -665 9363 0
860 -9364 0
-269 -9364 0
-860 269 9364 0
-752 -9365 0
61 -9365 0
752 -61 9365 0
-178 -9366 0
61 -9366 0
178 -61 9366 0
-214 -9367 0
2 -9367 0
214 -2 9367 0
-380 -9368 0
322 -9368 0
380 -322 9368 0
12 -9369 0
-772 -9369 0
-12 772 9369 0
819 -9370 0
-23 -9370 0
-819 23 9370 0
280 -9371 0
640 -9371 0
-280 -640 9371 0
-940 -9372 0
321 -9372 0
940 -321 9372 0
-328 -9373 0
457 -9373 0
328 -457 9373 0
-299 -9374 0
4 -9374 0
299 -4 9374 0
344 -9375 0
181 -9375 0
-344 -181 9375 0
451 -9376 0
465 -9376 0
-451 -465 9376 0
-237 -9377 0
257 -9377 0
237 -257 9377 0
59 -9378 0
595 -9378 0
-59 -595 9378 0
181 -9379 0
-244 -9379 0
-181 244 9379 0
878 -9380 0
629 -9380 0
-878 -629 9380 0
710 -9381 0
-717 -9381 0
-710 717 9381 0
392 -9382 0
-590 -9382 0
-392 590 9382 0
832 -9383 0
139 -9383 0
-832 -139 9383 0
644 -9384 0
-615 -9384 0
-644 615 9384 0
-296 -9385 0
650 -9385 0
296 -650 9385 0
484 -9386 0
-247 -9386 0
-484 247 9386 0
751 -9387 0
-162 -9387 0
-751 162 9387 0
-728 -9388 0
782 -9388 0
728 -782 9388 0
24 -9389 0
-820 -9389 0
-24 820 9389 0
20 -9390 0
-927 -9390 0
-20 927 9390 0
788 -9391 0
810 -9391 0
-788 -810 9391 0
110 -9392 0
-626 -9392 0
-110 626 9392 0
127 -9393 0
627 -9393 0
-127 -627 9393 0
425 -9394 0
865 -9394 0
-425 -865 9394 0
158 -9395 0
-549 -9395 0
-158 549 9395 0
763 -9396 0
337 -9396 0
-763 -337 9396 0
991 -9397 0
985 -9397 0
-991 -985 9397 0
147 -9398 0
-910 -9398 0
-147 910 9398 0
424 -9399 0
-593 -9399 0
-424 593 9399 0
341 -9400 0
673 -9400 0
-341 -673 9400 0
784 -9401 0
-782 -9401 0
-784 782 9401 0
703 -9402 0
-410 -9402 0
-703 410 9402 0
623 -9403 0
819 -9403 0
-623 -819 9403 0
-982 -9404 0
530 -9404 0
982 -530 9404 0
231 -9405 0
-198 -9405 0
-231 198 9405 0
530 -9406 0
545 -9406 0
-530 -545 9406 0
-528 -9407 0
802 -9407 0
528 -802 9407 0
750 -9408 0
269 -9408 0
-750 -269 9408 0
637 -9409 0
178 -9409 0
-637 -178 9409 0
-306 -9410 0
485 -9410 0
306 -485 9410 0
-805 -9411 0
906 -9411 0
805 -906 9411 0
263 -9412 0
-899 -9412 0
-263 899 9412 0
152 -9413 0
634 -9413 0
-152 -634 9413 0
-866 -9414 0
260 -9414 0
866 -260 9414 0
757 -9415 0
157 -9415 0
-757 -157 9415 0
427 -9416 0
850 -9416 0
-427 -850 9416 0
-850 -9417 0
501 -9417 0
850 -501 9417 0
-473 -9418 0
265 -9418 0
473 -265 9418 0
-464 -9419 0
174 -9419 0
464 -174 9419 0
684 -9420 0
-284 -9420 0
-684 284 9420 0
479 -9421 0
-246 -9421 0
-479 246 9421 0
101 -9422 0
115 -9422 0
-101 -115 9422 0
768 -9423 0
763 -9423 0
-768 -763 9423 0
456 -9424 0
165 -9424 0
-456 -165 9424 0
847 -9425 0
-47 -9425 0
-847 47 9425 0
632 -9426 0
468 -9426 0
-632 -468 9426 0
343 -9427 0
483 -9427 0
-343 -483 9427 0
476 -9428 0
186 -9428 0
-476 -186 9428 0
-976 -9429 0
652 -9429 0
976 -652 9429 0
687 -9430 0
-539 -9430 0
-687 539 9430 0
-521 -9431 0
66 -9431 0
521 -66 9431 0
229 -9432 0
-275 -9432 0
-229 275 9432 0
86 -9433 0
339 -9433 0
-86 -339 9433 0
391 -9434 0
-427 -9434 0
-391 427 9434 0
223 -9435 0
932 -9435 0
-223 -932 9435 0
-26 -9436 0
782 -9436 0
26 -782 9436 0
-716 -9437 0
555 -9437 0
716 -555 9437 0
633 -9438 0
321 -9438 0
-633 -321 9438 0
443 -9439 0
642 -9439 0
-443 -642 9439 0
-40 -9440 0
71 -9440 0
40 -71 9440 0
995 -9441 0
10 -9441 0
-995 -10 9441 0
2 -9442 0
-855 -9442 0
-2 855 9442 0
64 -9443 0
403 -9443 0
-64 -403 9443 0
856 -9444 0
844 -9444 0
-856 -844 9444 0
901 -9445 0
-967 -9445 0
-901 967 9445 0
92 -9446 0
484 -9446 0
-92 -484 9446 0
-938 -9447 0
467 -9447 0
938 -467 9447 0
376 -9448 0
995 -9448 0
-376 -995 9448 0
326 -9449 0
282 -9449 0
-326 -282 9449 0
-947 -9450 0
683 -9450 0
947 -683 9450 0
504 -9451 0
455 -9451 0
-504 -455 9451 0
595 -9452 0
721 -9452 0
-595 -721 9452 0
999 -9453 0
790 -9453 0
-999 -790 9453 0
886 -9454 0
986 -9454 0
-886 -986 9454 0
-126 -9455 0
433 -9455 0
126 -433 9455 0
13 -9456 0
889 -9456 0
-13 -889 9456 0
296 -9457 0
-540 -9457 0
-296 540 9457 0
299 -9458 0
418 -9458 0
-299 -418 9458 0
-29 -9459 0
345 -9459 0
29 -345 9459 0
-274 -9460 0
389 -9460 0
274 -389 9460 0
6 -9461 0
-252 -9461 0
-6 252 9461 0
894 -9462 0
-635 -9462 0
-894 635 9462 0
860 -9463 0
-543 -9463 0
-860 543 9463 0
696 -9464 0
-390 -9464 0
-696 390 9464 0
440 -9465 0
-435 -9465 0
-440 435 9465 0
749 -9466 0
-772 -9466 0
-749 772 9466 0
-633 -9467 0
172 -9467 0
633 -172 9467 0
767 -9468 0
833 -9468 0
-767 -833 9468 0
243 -9469 0
339 -9469 0
-243 -339 9469 0
767 -9470 0
781 -9470 0
-767 -781 9470 0
-291 -9471 0
338 -9471 0
291 -338 9471 0
372 -9472 0
-85 -9472 0
-372 85 9472 0
740 -9473 0
-70 -9473 0
-740 70 9473 0
742 -9474 0
737 -9474 0
-742 -737 9474 0
324 -9475 0
-199 -9475 0
-324 199 9475 0
-433 -9476 0
995 -9476 0
433 -995 9476 0
120 -9477 0
-449 -9477 0
-120 449 9477 0
884 -9478 0
-966 -9478 0
-884 966 9478 0
580 -9479 0
-759 -9479 0
-580 759 9479 0
674 -9480 0
-999 -9480 0
-674 999 9480 0
137 -9481 0
89 -9481 0
-137 -89 9481 0
-265 -9482 0
924 -9482 0
265 -924 9482 0
800 -9483 0
-36 -9483 0
-800 36 9483 0
343 -9484 0
599 -9484 0
-343 -599 9484 0
748 -9485 0
-622 -9485 0
-748 622 9485 0
-752 -9486 0
158 -9486 0
752 -158 9486 0
-437 -9487 0
921 -9487 0
437 -921 9487 0
-622 -9488 0
554 -9488 0
622 -554 9488 0
663 -9489 0
-188 -9489 0
-663 188 9489 0
24 -9490 0
-707 -9490 0
-24 707 9490 0
-354 -9491 0
531 -9491 0
354 -531 9491 0
169 -9492 0
-615 -9492 0
-169 615 9492 0
732 -9493 0
-543 -9493 0
-732 543 9493 0
504 -9494 0
-749 -9494 0
-504 749 9494 0
679 -9495 0
445 -9495 0
-679 -445 9495 0
40 -9496 0
-541 -9496 0
-40 541 9496 0
-52 -9497 0
450 -9497 0
52 -450 9497 0
-485 -9498 0
714 -9498 0
485 -714 9498 0
-465 -9499 0
819 -9499 0
465 -819 9499 0
-952 -9500 0
146 -9500 0
952 -146 9500 0
47 -9501 0
437 -9501 0
-47 -437 9501 0
-555 -9502 0
491 -9502 0
555 -491 9502 0
888 -9503 0
-383 -9503 0
-888 383 9503 0
974 -9504 0
-370 -9504 0
-974 370 9504 0
37 -9505 0
-438 -9505 0
-37 438 9505 0
-449 -9506 0
898 -9506 0
449 -898 9506 0
799 -9507 0
-343 -9507 0
-799 343 9507 0
54 -9508 0
-151 -9508 0
-54 151 9508 0
439 -9509 0
-921 -9509 0
-439 921 9509 0
771 -9510 0
-791 -9510 0
-771 791 9510 0
-505 -9511 0
997 -9511 0
505 -997 9511 0
192 -9512 0
-89 -9512 0
-192 89 9512 0
223 -9513 0
60 -9513 0
-223 -60 9513 0
-298 -9514 0
274 -9514 0
298 -274 9514 0
-640 -9515 0
99 -9515 0
640 -99 9515 0
248 -9516 0
-434 -9516 0
-248 434 9516 0
642 -9517 0
-631 -9517 0
-642 631 9517 0
181 -9518 0
610 -9518 0
-181 -610 9518 0
492 -9519 0
906 -9519 0
-492 -906 9519 0
219 -9520 0
402 -9520 0
-219 -402 9520 0
-457 -9521 0
874 -9521 0
457 -874 9521 0
38 -9522 0
-189 -9522 0
-38 189 9522 0
886 -9523 0
225 -9523 0
-886 -225 9523 0
-216 -9524 0
579 -9524 0
216 -579 9524 0
-83 -9525 0
123 -9525 0
83 -123 9525 0
664 -9526 0
-318 -9526 0
-664 318 9526 0
998 -9527 0
-284 -9527 0
-998 284 9527 0
205 -9528 0
-542 -9528 0
-205 542 9528 0
367 -9529 0
689 -9529 0
-367 -689 9529 0
349 -9530 0
-222 -9530 0
-349 222 9530 0
-130 -9531 0
603 -9531 0
130 -603 9531 0
-656 -9532 0
167 -9532 0
656 -167 9532 0
381 -9533 0
-253 -9533 0
-381 253 9533 0
-662 -9534 0
841 -9534 0
662 -841 9534 0
374 -9535 0
-621 -9535 0
-374 621 9535 0
-194 -9536 0
630 -9536 0
194 -630 9536 0
-617 -9537 0
844 -9537 0
617 -844 9537 0
-744 -9538 0
578 -9538 0
744 -578 9538 0
319 -9539 0
803 -9539 0
-319 -803 9539 0
648 -9540 0
41 -9540 0
-648 -41 9540 0
828 -9541 0
138 -9541 0
-828 -138 9541 0
-789 -9542 0
393 -9542 0
789 -393 9542 0
-593 -9543 0
9 -9543 0
593 -9 9543 0
-605 -9544 0
875 -9544 0
605 -875 9544 0
-240 -9545 0
696 -9545 0
240 -696 9545 0
559 -9546 0
-485 -9546 0
-559 485 9546 0
549 -9547 0
-182 -9547 0
-549 182 9547 0
323 -9548 0
-886 -9548 0
-323 886 9548 0
-816 -9549 0
17 -9549 0
816 -17 9549 0
303 -9550 0
-123 -9550 0
-303 123 9550 0
677 -9551 0
-180 -9551 0
-677 180 9551 0
-996 -9552 0
66 -9552 0
996 -66 9552 0
749 -9553 0
-517 -9553 0
-749 517 9553 0
-180 -9554 0
754 -9554 0
180 -754 9554 0
-906 -9555 0
731 -9555 0
906 -731 9555 0
715 -9556 0
-389 -9556 0
-715 389 9556 0
12 -9557 0
-815 -9557 0
-12 815 9557 0
741 -9558 0
-695 -9558 0
-741 695 9558 0
477 -9559 0
949 -9559 0
-477 -949 9559 0
142 -9560 0
-501 -9560 0
-142 501 9560 0
307 -9561 0
-757 -9561 0
-307 757 9561 0
-489 -9562 0
857 -9562 0
489 -857 9562 0
904 -9563 0
654 -9563 0
-904 -654 9563 0
200 -9564 0
357 -9564 0
-200 -357 9564 0
-621 -9565 0
282 -9565 0
621 -282 9565 0
166 -9566 0
-198 -9566 0
-166 198 9566 0
-355 -9567 0
669 -9567 0
355 -669 9567 0
343 -9568 0
882 -9568 0
-343 -882 9568 0
-461 -9569 0
883 -9569 0
461 -883 9569 0
-465 -9570 0
231 -9570 0
465 -231 9570 0
992 -9571 0
-714 -9571 0
-992 714 9571 0
-715 -9572 0
828 -9572 0
715 -828 9572 0
79 -9573 0
-370 -9573 0
-79 370 9573 0
-225 -9574 0
355 -9574 0
225 -355 9574 0
207 -9575 0
113 -9575 0
-207 -113 9575 0
327 -9576 0
-436 -9576 0
-327 436 9576 0
407 -9577 0
-205 -9577 0
-407 205 9577 0
-112 -9578 0
625 -9578 0
112 -625 9578 0
719 -9579 0
-906 -9579 0
-719 906 9579 0
-256 -9580 0
510 -9580 0
256 -510 9580 0
407 -9581 0
580 -9581 0
-407 -580 9581 0
-716 -9582 0
172 -9582 0
716 -172 9582 0
-121 -9583 0
306 -9583 0
121 -306 9583 0
32 -9584 0
23 -9584 0
-32 -23 9584 0
54 -9585 0
691 -9585 0
-54 -691 9585 0
381 -9586 0
659 -9586 0
-381 -659 9586 0
967 -9587 0
-15 -9587 0
-967 15 9587 0
-217 -9588 0
28 -9588 0
217 -28 9588 0
834 -9589 0
-414 -9589 0
-834 414 9589 0
517 -9590 0
140 -9590 0
-517 -140 9590 0
728 -9591 0
483 -9591 0
-728 -483 9591 0
767 -9592 0
-958 -9592 0
-767 958 9592 0
-67 -9593 0
844 -9593 0
67 -844 9593 0
525 -9594 0
-302 -9594 0
-525 302 9594 0
821 -9595 0
-507 -9595 0
-821 507 9595 0
383 -9596 0
492 -9596 0
-383 -492 9596 0
903 -9597 0
-850 -9597 0
-903 850 9597 0
-360 -9598 0
150 -9598 0
360 -150 9598 0
-520 -9599 0
391 -9599 0
520 -391 9599 0
520 -9600 0
-243 -9600 0
-520 243 9600 0
-360 -9601 0
201 -9601 0
360 -201 9601 0
915 -9602 0
-415 -9602 0
-915 415 9602 0
455 -9603 0
-972 -9603 0
-455 972 9603 0
-409 -9604 0
966 -9604 0
409 -966 9604 0
-874 -9605 0
954 -9605 0
874 -954 9605 0
296 -9606 0
820 -9606 0
-296 -820 9606 0
-754 -9607 0
43 -9607 0
754 -43 9607 0
16 -9608 0
158 -9608 0
-16 -158 9608 0
997 -9609 0
-204 -9609 0
-997 204 9609 0
74 -9610 0
-526 -9610 0
-74 526 9610 0
151 -9611 0
-891 -9611 0
-151 891 9611 0
847 -9612 0
299 -9612 0
-847 -299 9612 0
-149 -9613 0
114 -9613 0
149 -114 9613 0
-148 -9614 0
802 -9614 0
148 -802 9614 0
193 -9615 0
-719 -9615 0
-193 719 9615 0
172 -9616 0
436 -9616 0
-172 -436 9616 0
615 -9617 0
705 -9617 0
-615 -705 9617 0
-792 -9618 0
806 -9618 0
792 -806 9618 0
35 -9619 0
-559 -9619 0
-35 559 9619 0
-928 -9620 0
1 -9620 0
928 -1 9620 0
495 -9621 0
-956 -9621 0
-495 956 9621 0
-65 -9622 0
526 -9622 0
65 -526 9622 0
-302 -9623 0
274 -9623 0
302 -274 9623 0
860 -9624 0
-100 -9624 0
-860 100 9624 0
416 -9625 0
902 -9625 0
-416 -902 9625 0
175 -9626 0
-868 -9626 0
-175 868 9626 0
846 -9627 0
290 -9627 0
-846 -290 9627 0
-625 -9628 0
493 -9628 0
625 -493 9628 0
872 -9629 0
865 -9629 0
-872 -865 9629 0
590 -9630 0
622 -9630 0
-590 -622 9630 0
-478 -9631 0
258 -9631 0
478 -258 9631 0
246 -9632 0
531 -9632 0
-246 -531 9632 0
502 -9633 0
-573 -9633 0
-502 573 9633 0
683 -9634 0
-719 -9634 0
-683 719 9634 0
1000 -9635 0
-722 -9635 0
-1000 722 9635 0
832 -9636 0
-627 -9636 0
-832 627 9636 0
621 -9637 0
-196 -9637 0
-621 196 9637 0
-368 -9638 0
41 -9638 0
368 -41 9638 0
695 -9639 0
941 -9639 0
-695 -941 9639 0
-531 -9640 0
397 -9640 0
531 -397 9640 0
-518 -9641 0
953 -9641 0
518 -953 9641 0
859 -9642 0
-949 -9642 0
-859 949 9642 0
182 -9643 0
-306 -9643 0
-182 306 9643 0
919 -9644 0
341 -9644 0
-919 -341 9644 0
718 -9645 0
438 -9645 0
-718 -438 9645 0
445 -9646 0
-388 -9646 0
-445 388 9646 0
470 -9647 0
-147 -9647 0
-470 147 9647 0
-336 -9648 0
926 -9648 0
336 -926 9648 0
-448 -9649 0
753 -9649 0
448 -753 9649 0
-353 -9650 0
180 -9650 0
353 -180 9650 0
-952 -9651 0
610 -9651 0
952 -610 9651 0
528 -9652 0
-241 -9652 0
-528 241 9652 0
856 -9653 0
-977 -9653 0
-856 977 9653 0
344 -9654 0
-195 -9654 0
-344 195 9654 0
-880 -9655 0
428 -9655 0
880 -428 9655 0
579 -9656 0
10 -9656 0
-579 -10 9656 0
-752 -9657 0
703 -9657 0
752 -703 9657 0
694 -9658 0
891 -9658 0
-694 -891 9658 0
568 -9659 0
-485 -9659 0
-568 485 9659 0
47 -9660 0
-203 -9660 0
-47 203 9660 0
816 -9661 0
823 -9661 0
-816 -823 9661 0
991 -9662 0
729 -9662 0
-991 -729 9662 0
650 -9663 0
761 -9663 0
-650 -761 9663 0
203 -9664 0
43 -9664 0
-203 -43 9664 0
591 -9665 0
646 -9665 0
-591 -646 9665 0
-232 -9666 0
149 -9666 0
232 -149 9666 0
-396 -9667 0
25 -9667 0
396 -25 9667 0
267 -9668 0
522 -9668 0
-267 -522 9668 0
722 -9669 0
-271 -9669 0
-722 271 9669 0
-779 -9670 0
273 -9670 0
779 -273 9670 0
583 -9671 0
211 -9671 0
-583 -211 9671 0
-865 -9672 0
671 -9672 0
865 -671 9672 0
972 -9673 0
954 -9673 0
-972 -954 9673 0
-256 -9674 0
191 -9674 0
256 -191 9674 0
941 -9675 0
372 -9675 0
-941 -372 9675 0
-21 -9676 0
650 -9676 0
21 -650 9676 0
992 -9677 0
485 -9677 0
-992 -485 9677 0
-317 -9678 0
707 -9678 0
317 -707 9678 0
-691 -9679 0
35 -9679 0
691 -35 9679 0
674 -9680 0
545 -9680 0
-674 -545 9680 0
726 -9681 0
-918 -9681 0
-726 918 9681 0
661 -9682 0
-252 -9682 0
-661 252 9682 0
606 -9683 0
-883 -9683 0
-606 883 9683 0
248 -9684 0
-967 -9684 0
-248 967 9684 0
23 -9685 0
993 -9685 0
-23 -993 9685 0
323 -9686 0
-79 -9686 0
-323 79 9686 0
466 -9687 0
-479 -9687 0
-466 479 9687 0
212 -9688 0
-318 -9688 0
-212 318 9688 0
-841 -9689 0
183 -9689 0
841 -183 9689 0
-297 -9690 0
849 -9690 0
297 -849 9690 0
-72 -9691 0
738 -9691 0
72 -738 9691 0
-611 -9692 0
59 -9692 0
611 -59 9692 0
998 -9693 0
140 -9693 0
-998 -140 9693 0
-872 -9694 0
995 -9694 0
872 -995 9694 0
848 -9695 0
-739 -9695 0
-848 739 9695 0
-39 -9696 0
585 -9696 0
39 -585 9696 0
-107 -9697 0
881 -9697 0
107 -881 9697 0
954 -9698 0
898 -9698 0
-954 -898 9698 0
16 -9699 0
-373 -9699 0
-16 373 9699 0
773 -9700 0
-164 -9700 0
-773 164 9700 0
836 -9701 0
-244 -9701 0
-836 244 9701 0
248 -9702 0
379 -9702 0
-248 -379 9702 0
677 -9703 0
973 -9703 0
-677 -973 9703 0
-26 -9704 0
529 -9704 0
26 -529 9704 0
931 -9705 0
-758 -9705 0
-931 758 9705 0
421 -9706 0
-286 -9706 0
-421 286 9706 0
-577 -9707 0
715 -9707 0
577 -715 9707 0
-522 -9708 0
805 -9708 0
522 -805 9708 0
-148 -9709 0
745 -9709 0
148 -745 9709 0
640 -9710 0
-130 -9710 0
-640 130 9710 0
127 -9711 0
297 -9711 0
-127 -297 9711 0
150 -9712 0
-286 -9712 0
-150 286 9712 0
576 -9713 0
-445 -9713 0
-576 445 9713 0
-152 -9714 0
836 -9714 0
152 -836 9714 0
508 -9715 0
-470 -9715 0
-508 470 9715 0
-972 -9716 0
57 -9716 0
972 -57 9716 0
-809 -9717 0
502 -9717 0
809 -502 9717 0
-682 -9718 0
234 -9718 0
682 -234 9718 0
-490 -9719 0
381 -9719 0
490 -381 9719 0
803 -9720 0
489 -9720 0
-803 -489 9720 0
792 -9721 0
-995 -9721 0
-792 995 9721 0
965 -9722 0
994 -9722 0
-965 -994 9722 0
996 -9723 0
1 -9723 0
-996 -1 9723 0
331 -9724 0
-735 -9724 0
-331 735 9724 0
68 -9725 0
-317 -9725 0
-68 317 9725 0
-33 -9726 0
653 -9726 0
33 -653 9726 0
962 -9727 0
322 -9727 0
-962 -322 9727 0
956 -9728 0
-927 -9728 0
-956 927 9728 0
974 -9729 0
-775 -9729 0
-974 775 9729 0
1000 -9730 0
-491 -9730 0
-1000 491 9730 0
-2 -9731 0
186 -9731 0
2 -186 9731 0
-304 -9732 0
67 -9732 0
304 -67 9732 0
453 -9733 0
586 -9733 0
-453 -586 9733 0
319 -9734 0
407 -9734 0
-319 -407 9734 0
-176 -9735 0
441 -9735 0
176 -441 9735 0
204 -9736 0
234 -9736 0
-204 -234 9736 0
-744 -9737 0
261 -9737 0
744 -261 9737 0
493 -9738 0
237 -9738 0
-493 -237 9738 0
839 -9739 0
325 -9739 0
-839 -325 9739 0
611 -9740 0
-767 -9740 0
-611 767 9740 0
-170 -9741 0
715 -9741 0
170 -715 9741 0
-954 -9742 0
235 -9742 0
954 -235 9742 0
328 -9743 0
823 -9743 0
-328 -823 9743 0
-418 -9744 0
605 -9744 0
418 -605 9744 0
231 -9745 0
253 -9745 0
-231 -253 9745 0
-979 -9746 0
339 -9746 0
979 -339 9746 0
-971 -9747 0
11 -9747 0
971 -11 9747 0
519 -9748 0
-116 -9748 0
-519 116 9748 0
-169 -9749 0
569 -9749 0
169 -569 9749 0
681 -9750 0
-23 -9750 0
-681 23 9750 0
488 -9751 0
-456 -9751 0
-488 456 9751 0
422 -9752 0
-807 -9752 0
-422 807 9752 0
125 -9753 0
-373 -9753 0
-125 373 9753 0
355 -9754 0
514 -9754 0
-355 -514 9754 0
232 -9755 0
513 -9755 0
-232 -513 9755 0
-680 -9756 0
576 -9756 0
680 -576 9756 0
420 -9757 0
49 -9757 0
-420 -49 9757 0
-689 -9758 0
570 -9758 0
689 -570 9758 0
-11 -9759 0
346 -9759 0
11 -346 9759 0
200 -9760 0
-890 -9760 0
-200 890 9760 0
-225 -9761 0
702 -9761 0
225 -702 9761 0
416 -9762 0
-675 -9762 0
-416 675 9762 0
-57 -9763 0
610 -9763 0
57 -610 9763 0
-9 -9764 0
239 -9764 0
9 -239 9764 0
599 -9765 0
-911 -9765 0
-599 911 9765 0
119 -9766 0
70 -9766 0
-119 -70 9766 0
87 -9767 0
-698 -9767 0
-87 698 9767 0
-990 -9768 0
113 -9768 0
990 -113 9768 0
661 -9769 0
-270 -9769 0
-661 270 9769 0
614 -9770 0
737 -9770 0
-614 -737 9770 0
-203 -9771 0
738 -9771 0
203 -738 9771 0
131 -9772 0
921 -9772 0
-131 -921 9772 0
136 -9773 0
-777 -9773 0
-136 777 9773 0
680 -9774 0
-279 -9774 0
-680 279 9774 0
229 -9775 0
866 -9775 0
-229 -866 9775 0
582 -9776 0
-311 -9776 0
-582 311 9776 0
-964 -9777 0
898 -9777 0
964 -898 9777 0
-91 -9778 0
667 -9778 0
91 -667 9778 0
-96 -9779 0
663 -9779 0
96 -663 9779 0
536 -9780 0
-773 -9780 0
-536 773 9780 0
-648 -9781 0
654 -9781 0
648 -654 9781 0
283 -9782 0
818 -9782 0
-283 -818 9782 0
645 -9783 0
923 -9783 0
-645 -923 9783 0
72 -9784 0
-890 -9784 0
-72 890 9784 0
160 -9785 0
97 -9785 0
-160 -97 9785 0
-676 -9786 0
193 -9786 0
676 -193 9786 0
-348 -9787 0
337 -9787 0
348 -337 9787 0
-120 -9788 0
867 -9788 0
120 -867 9788 0
384 -9789 0
-580 -9789 0
-384 580 9789 0
-556 -9790 0
722 -9790 0
556 -722 9790 0
92 -9791 0
-343 -9791 0
-92 343 9791 0
606 -9792 0
-388 -9792 0
-606 388 9792 0
509 -9793 0
129 -9793 0
-509 -129 9793 0
-618 -9794 0
220 -9794 0
618 -220 9794 0
296 -9795 0
-732 -9795 0
-296 732 9795 0
366 -9796 0
764 -9796 0
-366 -764 9796 0
56 -9797 0
945 -9797 0
-56 -945 9797 0
-210 -9798 0
380 -9798 0
210 -380 9798 0
676 -9799 0
-599 -9799 0
-676 599 9799 0
968 -9800 0
250 -9800 0
-968 -250 9800 0
175 -9801 0
-838 -9801 0
-175 838 9801 0
-69 -9802 0
986 -9802 0
69 -986 9802 0
542 -9803 0
945 -9803 0
-542 -945 9803 0
734 -9804 0
-607 -9804 0
-734 607 9804 0
447 -9805 0
403 -9805 0
-447 -403 9805 0
883 -9806 0
-790 -9806 0
-883 790 9806 0
432 -9807 0
628 -9807 0
-432 -628 9807 0
304 -9808 0
-163 -9808 0
-304 163 9808 0
942 -9809 0
205 -9809 0
-942 -205 9809 0
310 -9810 0
505 -9810 0
-310 -505 9810 0
-371 -9811 0
924 -9811 0
371 -924 9811 0
358 -9812 0
385 -9812 0
-358 -385 9812 0
37 -9813 0
404 -9813 0
-37 -404 9813 0
-923 -9814 0
337 -9814 0
923 -337 9814 0
-840 -9815 0
853 -9815 0
840 -853 9815 0
30 -9816 0
308 -9816 0
-30 -308 9816 0
71 -9817 0
-154 -9817 0
-71 154 9817 0
549 -9818 0
833 -9818 0
-549 -833 9818 0
318 -9819 0
-542 -9819 0
-318 542 9819 0
524 -9820 0
801 -9820 0
-524 -801 9820 0
680 -9821 0
110 -9821 0
-680 -110 9821 0
484 -9822 0
121 -9822 0
-484 -121 9822 0
-777 -9823 0
229 -9823 0
777 -229 9823 0
992 -9824 0
659 -9824 0
-992 -659 9824 0
-594 -9825 0
301 -9825 0
594 -301 9825 0
980 -9826 0
649 -9826 0
-980 -649 9826 0
-281 -9827 0
27 -9827 0
281 -27 9827 0
94 -9828 0
763 -9828 0
-94 -763 9828 0
550 -9829 0
-270 -9829 0
-550 270 9829 0
-186 -9830 0
845 -9830 0
186 -845 9830 0
56 -9831 0
-314 -9831 0
-56 314 9831 0
916 -9832 0
-53 -9832 0
-916 53 9832 0
924 -9833 0
-47 -9833 0
-924 47 9833 0
816 -9834 0
-255 -9834 0
-816 255 9834 0
382 -9835 0
684 -9835 0
-382 -684 9835 0
991 -9836 0
-226 -9836 0
-991 226 9836 0
691 -9837 0
-767 -9837 0
-691 767 9837 0
-48 -9838 0
723 -9838 0
48 -723 9838 0
328 -9839 0
817 -9839 0
-328 -817 9839 0
368 -9840 0
308 -9840 0
-368 -308 9840 0
463 -9841 0
-716 -9841 0
-463 716 9841 0
632 -9842 0
-159 -9842 0
-632 159 9842 0
368 -9843 0
-183 -9843 0
-368 183 9843 0
-231 -9844 0
697 -9844 0
231 -697 9844 0
608 -9845 0
689 -9845 0
-608 -689 9845 0
610 -9846 0
-79 -9846 0
-610 79 9846 0
522 -9847 0
-167 -9847 0
-522 167 9847 0
879 -9848 0
-749 -9848 0
-879 749 9848 0
-630 -9849 0
201 -9849 0
630 -201 9849 0
774 -9850 0
515 -9850 0
-774 -515 9850 0
876 -9851 0
442 -9851 0
-876 -442 9851 0
700 -9852 0
849 -9852 0
-700 -849 9852 0
152 -9853 0
154 -9853 0
-152 -154 9853 0
-705 -9854 0
814 -9854 0
705 -814 9854 0
542 -9855 0
-309 -9855 0
-542 309 9855 0
679 -9856 0
-582 -9856 0
-679 582 9856 0
647 -9857 0
121 -9857 0
-647 -121 9857 0
936 -9858 0
-124 -9858 0
-936 124 9858 0
981 -9859 0
-607 -9859 0
-981 607 9859 0
744 -9860 0
-52 -9860 0
-744 52 9860 0
528 -9861 0
638 -9861 0
-528 -638 9861 0
-362 -9862 0
835 -9862 0
362 -835 9862 0
919 -9863 0
545 -9863 0
-919 -545 9863 0
837 -9864 0
-191 -9864 0
-837 191 9864 0
589 -9865 0
-543 -9865 0
-589 543 9865 0
11 -9866 0
635 -9866 0
-11 -635 9866 0
407 -9867 0
662 -9867 0
-407 -662 9867 0
807 -9868 0
-675 -9868 0
-807 675 9868 0
567 -9869 0
-186 -9869 0
-567 186 9869 0
-993 -9870 0
115 -9870 0
993 -115 9870 0
-321 -9871 0
822 -9871 0
321 -822 9871 0
-186 -9872 0
-752 -9873 0
961 -9873 0
752 -961 9873 0
-927 -9874 0
89 -9874 0
927 -89 9874 0
356 -9875 0
-351 -9875 0
-356 351 9875 0
847 -9876 0
-203 -9876 0
-847 203 9876 0
-449 -9877 0
137 -9877 0
449 -137 9877 0
310 -9878 0
-222 -9878 0
-310 222 9878 0
-657 -9879 0
929 -9879 0
657 -929 9879 0
264 -9880 0
-99 -9880 0
-264 99 9880 0
-584 -9881 0
234 -9881 0
584 -234 9881 0
-810 -9882 0
268 -9882 0
810 -268 9882 0
-120 -9883 0
11 -9883 0
120 -11 9883 0
-265 -9884 0
798 -9884 0
265 -798 9884 0
119 -9885 0
-283 -9885 0
-119 283 9885 0
-345 -9886 0
466 -9886 0
345 -466 9886 0
706 -9887 0
-199 -9887 0
-706 199 9887 0
935 -9888 0
962 -9888 0
-935 -962 9888 0
499 -9889 0
-693 -9889 0
-499 693 9889 0
-969 -9890 0
486 -9890 0
969 -486 9890 0
992 -9891 0
974 -9891 0
-992 -974 9891 0
755 -9892 0
474 -9892 0
-755 -474 9892 0
-35 -9893 0
581 -9893 0
35 -581 9893 0
10 -9894 0
-559 -9894 0
-10 559 9894 0
952 -9895 0
-525 -9895 0
-952 525 9895 0
376 -9896 0
398 -9896 0
-376 -398 9896 0
-493 -9897 0
51 -9897 0
493 -51 9897 0
-616 -9898 0
481 -9898 0
616 -481 9898 0
288 -9899 0
175 -9899 0
-288 -175 9899 0
892 -9900 0
-927 -9900 0
-892 927 9900 0
21 -9901 0
-478 -9901 0
-21 478 9901 0
146 -9902 0
-134 -9902 0
-146 134 9902 0
-765 -9903 0
497 -9903 0
765 -497 9903 0
456 -9904 0
392 -9904 0
-456 -392 9904 0
-11 -9905 0
123 -9905 0
11 -123 9905 0
-610 -9906 0
268 -9906 0
610 -268 9906 0
-624 -9907 0
551 -9907 0
624 -551 9907 0
-657 -9908 0
981 -9908 0
657 -981 9908 0
296 -9909 0
-548 -9909 0
-296 548 9909 0
104 -9910 0
-717 -9910 0
-104 717 9910 0
552 -9911 0
-168 -9911 0
-552 168 9911 0
-956 -9912 0
769 -9912 0
956 -769 9912 0
95 -9913 0
-54 -9913 0
-95 54 9913 0
711 -9914 0
-541 -9914 0
-711 541 9914 0
832 -9915 0
169 -9915 0
-832 -169 9915 0
-211 -9916 0
433 -9916 0
211 -433 9916 0
300 -9917 0
265 -9917 0
-300 -265 9917 0
-556 -9918 0
673 -9918 0
556 -673 9918 0
944 -9919 0
541 -9919 0
-944 -541 9919 0
356 -9920 0
354 -9920 0
-356 -354 9920 0
356 -9921 0
-988 -9921 0
-356 988 9921 0
-109 -9922 0
979 -9922 0
109 -979 9922 0
502 -9923 0
649 -9923 0
-502 -649 9923 0
-835 -9924 0
11 -9924 0
835 -11 9924 0
150 -9925 0
-653 -9925 0
-150 653 9925 0
23 -9926 0
-643 -9926 0
-23 643 9926 0
398 -9927 0
825 -9927 0
-398 -825 9927 0
-968 -9928 0
296 -9928 0
968 -296 9928 0
-177 -9929 0
545 -9929 0
177 -545 9929 0
47 -9930 0
75 -9930 0
-47 -75 9930 0
544 -9931 0
-862 -9931 0
-544 862 9931 0
-393 -9932 0
627 -9932 0
393 -627 9932 0
933 -9933 0
-206 -9933 0
-933 206 9933 0
332 -9934 0
-188 -9934 0
-332 188 9934 0
-154 -9935 0
97 -9935 0
154 -97 9935 0
390 -9936 0
-518 -9936 0
-390 518 9936 0
-747 -9937 0
571 -9937 0
747 -571 9937 0
288 -9938 0
-723 -9938 0
-288 723 9938 0
867 -9939 0
353 -9939 0
-867 -353 9939 0
-721 -9940 0
889 -9940 0
721 -889 9940 0
186 -9941 0
497 -9941 0
-186 -497 9941 0
-832 -9942 0
809 -9942 0
832 -809 9942 0
389 -9943 0
578 -9943 0
-389 -578 9943 0
867 -9944 0
666 -9944 0
-867 -666 9944 0
996 -9945 0
675 -9945 0
-996 -675 9945 0
-8 -9946 0
149 -9946 0
8 -149 9946 0
956 -9947 0
530 -9947 0
-956 -530 9947 0
223 -9948 0
-557 -9948 0
-223 557 9948 0
-922 -9949 0
997 -9949 0
922 -997 9949 0
548 -9950 0
843 -9950 0
-548 -843 9950 0
986 -9951 0
-182 -9951 0
-986 182 9951 0
-506 -9952 0
890 -9952 0
506 -890 9952 0
575 -9953 0
806 -9953 0
-575 -806 9953 0
712 -9954 0
-441 -9954 0
-712 441 9954 0
-323 -9955 0
892 -9955 0
323 -892 9955 0
999 -9956 0
-933 -9956 0
-999 933 9956 0
616 -9957 0
574 -9957 0
-616 -574 9957 0
-545 -9958 0
756 -9958 0
545 -756 9958 0
645 -9959 0
-821 -9959 0
-645 821 9959 0
-981 -9960 0
9 -9960 0
981 -9 9960 0
152 -9961 0
194 -9961 0
-152 -194 9961 0
112 -9962 0
982 -9962 0
-112 -982 9962 0
-913 -9963 0
402 -9963 0
913 -402 9963 0
-212 -9964 0
722 -9964 0
212 -722 9964 0
765 -9965 0
-293 -9965 0
-765 293 9965 0
952 -9966 0
-395 -9966 0
-952 395 9966 0
422 -9967 0
-871 -9967 0
-422 871 9967 0
88 -9968 0
59 -9968 0
-88 -59 9968 0
584 -9969 0
486 -9969 0
-584 -486 9969 0
982 -9970 0
-166 -9970 0
-982 166 9970 0
320 -9971 0
767 -9971 0
-320 -767 9971 0
-520 -9972 0
472 -9972 0
520 -472 9972 0
608 -9973 0
-203 -9973 0
-608 203 9973 0
-636 -9974 0
115 -9974 0
636 -115 9974 0
954 -9975 0
-415 -9975 0
-954 415 9975 0
272 -9976 0
-429 -9976 0
-272 429 9976 0
152 -9977 0
-565 -9977 0
-152 565 9977 0
-1000 -9978 0
463 -9978 0
1000 -463 9978 0
894 -9979 0
380 -9979 0
-894 -380 9979 0
-744 -9980 0
85 -9980 0
744 -85 9980 0
-595 -9981 0
820 -9981 0
595 -820 9981 0
277 -9982 0
-45 -9982 0
-277 45 9982 0
11 -9983 0
569 -9983 0
-11 -569 9983 0
-427 -9984 0
257 -9984 0
427 -257 9984 0
715 -9985 0
107 -9985 0
-715 -107 9985 0
895 -9986 0
-234 -9986 0
-895 234 9986 0
-273 -9987 0
478 -9987 0
273 -478 9987 0
-643 -9988 0
409 -9988 0
643 -409 9988 0
1000 -9989 0
869 -9989 0
-1000 -869 9989 0
908 -9990 0
-461 -9990 0
-908 461 9990 0
-540 -9991 0
683 -9991 0
540 -683 9991 0
-749 -9992 0
227 -9992 0
749 -227 9992 0
734 -9993 0
28 -9993 0
-734 -28 9993 0
644 -9994 0
394 -9994 0
-644 -394 9994 0
756 -9995 0
897 -9995 0
-756 -897 9995 0
784 -9996 0
-652 -9996 0
-784 652 9996 0
430 -9997 0
-12 -9997 0
-430 12 9997 0
-455 -9998 0
657 -9998 0
455 -657 9998 0
304 -9999 0
976 -9999 0
-304 -976 9999 0
-618 -10000 0
51 -10000 0
618 -51 10000 0
-345 -10001 0
75 -10001 0
345 -75 10001 0
-742 -10002 0
81 -10002 0
742 -81 10002 0
295 -10003 0
339 -10003 0
-295 -339 10003 0
767 -10004 0
172 -10004 0
-767 -172 10004 0
-610 -10005 0
148 -10005 0
610 -148 10005 0
-937 -10006 0
451 -10006 0
937 -451 10006 0
-1000 -10007 0
454 -10007 0
1000 -454 10007 0
350 -10008 0
748 -10008 0
-350 -748 10008 0
80 -10009 0
-83 -10009 0
-80 83 10009 0
500 -10010 0
-430 -10010 0
-500 430 10010 0
872 -10011 0
303 -10011 0
-872 -303 10011 0
478 -10012 0
419 -10012 0
-478 -419 10012 0
-49 -10013 0
156 -10013 0
49 -156 10013 0
-864 -10014 0
144 -10014 0
864 -144 10014 0
564 -10015 0
-124 -10015 0
-564 124 10015 0
238 -10016 0
20 -10016 0
-238 -20 10016 0
-457 -10017 0
549 -10017 0
457 -549 10017 0
-640 -10018 0
823 -10018 0
640 -823 10018 0
398 -10019 0
-614 -10019 0
-398 614 10019 0
-976 -10020 0
946 -10020 0
976 -946 10020 0
136 -10021 0
-308 -10021 0
-136 308 10021 0
-138 -10022 0
53 -10022 0
138 -53 10022 0
8 -10023 0
417 -10023 0
-8 -417 10023 0
-568 -10024 0
595 -10024 0
568 -595 10024 0
88 -10025 0
861 -10025 0
-88 -861 10025 0
271 -10026 0
563 -10026 0
-271 -563 10026 0
144 -10027 0
-98 -10027 0
-144 98 10027 0
96 -10028 0
-236 -10028 0
-96 236 10028 0
173 -10029 0
-119 -10029 0
-173 119 10029 0
-232 -10030 0
299 -10030 0
232 -299 10030 0
687 -10031 0
-755 -10031 0
-687 755 10031 0
-186 -10032 0
997 -10032 0
186 -997 10032 0
607 -10033 0
188 -10033 0
-607 -188 10033 0
-178 -10034 0
278 -10034 0
178 -278 10034 0
-705 -10035 0
309 -10035 0
705 -309 10035 0
205 -10036 0
-887 -10036 0
-205 887 10036 0
-913 -10037 0
322 -10037 0
913 -322 10037 0
62 -10038 0
-126 -10038 0
-62 126 10038 0
327 -10039 0
-674 -10039 0
-327 674 10039 0
-391 -10040 0
105 -10040 0
391 -105 10040 0
511 -10041 0
915 -10041 0
-511 -915 10041 0
225 -10042 0
-879 -10042 0
-225 879 10042 0
885 -10043 0
269 -10043 0
-885 -269 10043 0
-36 -10044 0
850 -10044 0
36 -850 10044 0
307 -10045 0
489 -10045 0
-307 -489 10045 0
379 -10046 0
-14 -10046 0
-379 14 10046 0
216 -10047 0
719 -10047 0
-216 -719 10047 0
-639 -10048 0
57 -10048 0
639 -57 10048 0
-261 -10049 0
35 -10049 0
261 -35 10049 0
51 -10050 0
977 -10050 0
-51 -977 10050 0
-3 -10051 0
909 -10051 0
3 -909 10051 0
688 -10052 0
-684 -10052 0
-688 684 10052 0
160 -10053 0
-612 -10053 0
-160 612 10053 0
326 -10054 0
547 -10054 0
-326 -547 10054 0
-509 -10055 0
395 -10055 0
509 -395 10055 0
-784 -10056 0
919 -10056 0
784 -919 10056 0
-626 -10057 0
899 -10057 0
626 -899 10057 0
-454 -10058 0
602 -10058 0
454 -602 10058 0
420 -10059 0
-445 -10059 0
-420 445 10059 0
534 -10060 0
-871 -10060 0
-534 871 10060 0
-89 -10061 0
154 -10061 0
89 -154 10061 0
-918 -10062 0
153 -10062 0
918 -153 10062 0
997 -10063 0
-87 -10063 0
-997 87 10063 0
816 -10064 0
-963 -10064 0
-816 963 10064 0
558 -10065 0
172 -10065 0
-558 -172 10065 0
584 -10066 0
597 -10066 0
-584 -597 10066 0
862 -10067 0
-103 -10067 0
-862 103 10067 0
207 -10068 0
85 -10068 0
-207 -85 10068 0
301 -10069 0
642 -10069 0
-301 -642 10069 0
75 -10070 0
578 -10070 0
-75 -578 10070 0
216 -10071 0
-660 -10071 0
-216 660 10071 0
992 -10072 0
-914 -10072 0
-992 914 10072 0
398 -10073 0
589 -10073 0
-398 -589 10073 0
167 -10074 0
741 -10074 0
-167 -741 10074 0
-808 -10075 0
798 -10075 0
808 -798 10075 0
-861 -10076 0
953 -10076 0
861 -953 10076 0
935 -10077 0
-265 -10077 0
-935 265 10077 0
-136 -10078 0
15 -10078 0
136 -15 10078 0
272 -10079 0
-924 -10079 0
-272 924 10079 0
-289 -10080 0
988 -10080 0
289 -988 10080 0
-9 -10081 0
828 -10081 0
9 -828 10081 0
-803 -10082 0
4 -10082 0
803 -4 10082 0
433 -10083 0
-623 -10083 0
-433 623 10083 0
486 -10084 0
193 -10084 0
-486 -193 10084 0
943 -10085 0
898 -10085 0
-943 -898 10085 0
-50 -10086 0
706 -10086 0
50 -706 10086 0
972 -10087 0
-598 -10087 0
-972 598 10087 0
470 -10088 0
-540 -10088 0
-470 540 10088 0
813 -10089 0
890 -10089 0
-813 -890 10089 0
-611 -10090 0
690 -10090 0
611 -690 10090 0
964 -10091 0
513 -10091 0
-964 -513 10091 0
749 -10092 0
917 -10092 0
-749 -917 10092 0
235 -10093 0
-487 -10093 0
-235 487 10093 0
851 -10094 0
145 -10094 0
-851 -145 10094 0
-321 -10095 0
820 -10095 0
321 -820 10095 0
886 -10096 0
793 -10096 0
-886 -793 10096 0
966 -10097 0
513 -10097 0
-966 -513 10097 0
893 -10098 0
715 -10098 0
-893 -715 10098 0
-930 -10099 0
42 -10099 0
930 -42 10099 0
704 -10100 0
-93 -10100 0
-704 93 10100 0
147 -10101 0
121 -10101 0
-147 -121 10101 0
-236 -10102 0
331 -10102 0
236 -331 10102 0
183 -10103 0
-163 -10103 0
-183 163 10103 0
423 -10104 0
662 -10104 0
-423 -662 10104 0
-75 -10105 0
761 -10105 0
75 -761 10105 0
732 -10106 0
465 -10106 0
-732 -465 10106 0
-24 -10107 0
990 -10107 0
24 -990 10107 0
-330 -10108 0
548 -10108 0
330 -548 10108 0
888 -10109 0
190 -10109 0
-888 -190 10109 0
-835 -10110 0
555 -10110 0
835 -555 10110 0
519 -10111 0
-685 -10111 0
-519 685 10111 0
-240 -10112 0
915 -10112 0
240 -915 10112 0
728 -10113 0
-635 -10113 0
-728 635 10113 0
379 -10114 0
-503 -10114 0
-379 503 10114 0
71 -10115 0
652 -10115 0
-71 -652 10115 0
-218 -10116 0
778 -10116 0
218 -778 10116 0
-499 -10117 0
977 -10117 0
499 -977 10117 0
568 -10118 0
543 -10118 0
-568 -543 10118 0
928 -10119 0
927 -10119 0
-928 -927 10119 0
125 -10120 0
322 -10120 0
-125 -322 10120 0
-824 -10121 0
479 -10121 0
824 -479 10121 0
-409 -10122 0
89 -10122 0
409 -89 10122 0
949 -10123 0
778 -10123 0
-949 -778 10123 0
380 -10124 0
617 -10124 0
-380 -617 10124 0
-571 -10125 0
315 -10125 0
571 -315 10125 0
375 -10126 0
795 -10126 0
-375 -795 10126 0
-248 -10127 0
708 -10127 0
248 -708 10127 0
960 -10128 0
-340 -10128 0
-960 340 10128 0
973 -10129 0
-279 -10129 0
-973 279 10129 0
-668 -10130 0
410 -10130 0
668 -410 10130 0
-628 -10131 0
555 -10131 0
628 -555 10131 0
-482 -10132 0
273 -10132 0
482 -273 10132 0
302 -10133 0
459 -10133 0
-302 -459 10133 0
-730 -10134 0
412 -10134 0
730 -412 10134 0
989 -10135 0
-963 -10135 0
-989 963 10135 0
672 -10136 0
-844 -10136 0
-672 844 10136 0
453 -10137 0
797 -10137 0
-453 -797 10137 0
717 -10138 0
-381 -10138 0
-717 381 10138 0
360 -10139 0
100 -10139 0
-360 -100 10139 0
-453 -10140 0
921 -10140 0
453 -921 10140 0
829 -10141 0
-679 -10141 0
-829 679 10141 0
702 -10142 0
-950 -10142 0
-702 950 10142 0
228 -10143 0
-796 -10143 0
-228 796 10143 0
-403 -10144 0
161 -10144 0
403 -161 10144 0
-66 -10145 0
202 -10145 0
66 -202 10145 0
-424 -10146 0
868 -10146 0
424 -868 10146 0
631 -10147 0
-710 -10147 0
-631 710 10147 0
-592 -10148 0
253 -10148 0
592 -253 10148 0
175 -10149 0
-427 -10149 0
-175 427 10149 0
262 -10150 0
420 -10150 0
-262 -420 10150 0
582 -10151 0
65 -10151 0
-582 -65 10151 0
500 -10152 0
-263 -10152 0
-500 263 10152 0
-369 -10153 0
523 -10153 0
369 -523 10153 0
-466 -10154 0
93 -10154 0
466 -93 10154 0
-625 -10155 0
12 -10155 0
625 -12 10155 0
311 -10156 0
-630 -10156 0
-311 630 10156 0
660 -10157 0
331 -10157 0
-660 -331 10157 0
284 -10158 0
-453 -10158 0
-284 453 10158 0
952 -10159 0
-561 -10159 0
-952 561 10159 0
-58 -10160 0
20 -10160 0
58 -20 10160 0
-274 -10161 0
578 -10161 0
274 -578 10161 0
895 -10162 0
187 -10162 0
-895 -187 10162 0
302 -10163 0
-405 -10163 0
-302 405 10163 0
44 -10164 0
-974 -10164 0
-44 974 10164 0
567 -10165 0
-501 -10165 0
-567 501 10165 0
919 -10166 0
-604 -10166 0
-919 604 10166 0
62 -10167 0
-349 -10167 0
-62 349 10167 0
-372 -10168 0
682 -10168 0
372 -682 10168 0
261 -10169 0
691 -10169 0
-261 -691 10169 0
-416 -10170 0
772 -10170 0
416 -772 10170 0
-817 -10171 0
332 -10171 0
817 -332 10171 0
-778 -10172 0
549 -10172 0
778 -549 10172 0
708 -10173 0
931 -10173 0
-708 -931 10173 0
62 -10174 0
-571 -10174 0
-62 571 10174 0
-690 -10175 0
676 -10175 0
690 -676 10175 0
-371 -10176 0
698 -10176 0
371 -698 10176 0
-378 -10177 0
866 -10177 0
378 -866 10177 0
217 -10178 0
297 -10178 0
-217 -297 10178 0
-256 -10179 0
830 -10179 0
256 -830 10179 0
63 -10180 0
535 -10180 0
-63 -535 10180 0
-513 -10181 0
633 -10181 0
513 -633 10181 0
423 -10182 0
271 -10182 0
-423 -271 10182 0
-696 -10183 0
408 -10183 0
696 -408 10183 0
-940 -10184 0
546 -10184 0
940 -546 10184 0
-792 -10185 0
204 -10185 0
792 -204 10185 0
78 -10186 0
505 -10186 0
-78 -505 10186 0
555 -10187 0
-750 -10187 0
-555 750 10187 0
847 -10188 0
-230 -10188 0
-847 230 10188 0
55 -10189 0
-500 -10189 0
-55 500 10189 0
-465 -10190 0
58 -10190 0
465 -58 10190 0
903 -10191 0
411 -10191 0
-903 -411 10191 0
413 -10192 0
-255 -10192 0
-413 255 10192 0
471 -10193 0
295 -10193 0
-471 -295 10193 0
45 -10194 0
-366 -10194 0
-45 366 10194 0
706 -10195 0
-423 -10195 0
-706 423 10195 0
510 -10196 0
742 -10196 0
-510 -742 10196 0
-665 -10197 0
41 -10197 0
665 -41 10197 0
208 -10198 0
826 -10198 0
-208 -826 10198 0
492 -10199 0
891 -10199 0
-492 -891 10199 0
629 -10200 0
-755 -10200 0
-629 755 10200 0
741 -10201 0
-908 -10201 0
-741 908 10201 0
805 -10202 0
-79 -10202 0
-805 79 10202 0
103 -10203 0
-439 -10203 0
-103 439 10203 0
911 -10204 0
146 -10204 0
-911 -146 10204 0
-746 -10205 0
589 -10205 0
746 -589 10205 0
667 -10206 0
-471 -10206 0
-667 471 10206 0
132 -10207 0
444 -10207 0
-132 -444 10207 0
-106 -10208 0
826 -10208 0
106 -826 10208 0
431 -10209 0
-590 -10209 0
-431 590 10209 0
115 -10210 0
529 -10210 0
-115 -529 10210 0
-340 -10211 0
298 -10211 0
340 -298 10211 0
168 -10212 0
900 -10212 0
-168 -900 10212 0
-752 -10213 0
611 -10213 0
752 -611 10213 0
776 -10214 0
-976 -10214 0
-776 976 10214 0
254 -10215 0
324 -10215 0
-254 -324 10215 0
-146 -10216 0
67 -10216 0
146 -67 10216 0
379 -10217 0
-319 -10217 0
-379 319 10217 0
648 -10218 0
-314 -10218 0
-648 314 10218 0
330 -10219 0
778 -10219 0
-330 -778 10219 0
768 -10220 0
81 -10220 0
-768 -81 10220 0
456 -10221 0
-345 -10221 0
-456 345 10221 0
845 -10222 0
-101 -10222 0
-845 101 10222 0
864 -10223 0
625 -10223 0
-864 -625 10223 0
245 -10224 0
881 -10224 0
-245 -881 10224 0
920 -10225 0
-671 -10225 0
-920 671 10225 0
-570 -10226 0
826 -10226 0
570 -826 10226 0
-377 -10227 0
822 -10227 0
377 -822 10227 0
884 -10228 0
433 -10228 0
-884 -433 10228 0
44 -10229 0
-548 -10229 0
-44 548 10229 0
639 -10230 0
790 -10230 0
-639 -790 10230 0
630 -10231 0
-509 -10231 0
-630 509 10231 0
-524 -10232 0
449 -10232 0
524 -449 10232 0
-708 -10233 0
386 -10233 0
708 -386 10233 0
740 -10234 0
-663 -10234 0
-740 663 10234 0
447 -10235 0
-894 -10235 0
-447 894 10235 0
631 -10236 0
903 -10236 0
-631 -903 10236 0
535 -10237 0
-148 -10237 0
-535 148 10237 0
-241 -10238 0
957 -10238 0
241 -957 10238 0
-288 -10239 0
905 -10239 0
288 -905 10239 0
-485 -10240 0
707 -10240 0
485 -707 10240 0
308 -10241 0
-229 -10241 0
-308 229 10241 0
216 -10242 0
-433 -10242 0
-216 433 10242 0
848 -10243 0
-144 -10243 0
-848 144 10243 0
476 -10244 0
930 -10244 0
-476 -930 10244 0
1000 -10245 0
-109 -10245 0
-1000 109 10245 0
837 -10246 0
-798 -10246 0
-837 798 10246 0
-762 -10247 0
106 -10247 0
762 -106 10247 0
782 -10248 0
-181 -10248 0
-782 181 10248 0
36 -10249 0
820 -10249 0
-36 -820 10249 0
-557 -10250 0
977 -10250 0
557 -977 10250 0
-825 -10251 0
130 -10251 0
825 -130 10251 0
290 -10252 0
305 -10252 0
-290 -305 10252 0
-280 -10253 0
514 -10253 0
280 -514 10253 0
-332 -10254 0
195 -10254 0
332 -195 10254 0
728 -10255 0
539 -10255 0
-728 -539 10255 0
324 -10256 0
-798 -10256 0
-324 798 10256 0
351 -10257 0
-971 -10257 0
-351 971 10257 0
771 -10258 0
-247 -10258 0
-771 247 10258 0
-546 -10259 0
361 -10259 0
546 -361 10259 0
-260 -10260 0
953 -10260 0
260 -953 10260 0
-89 -10261 0
383 -10261 0
89 -383 10261 0
742 -10262 0
508 -10262 0
-742 -508 10262 0
-584 -10263 0
722 -10263 0
584 -722 10263 0
-926 -10264 0
698 -10264 0
926 -698 10264 0
318 -10265 0
-595 -10265 0
-318 595 10265 0
-9 -10266 0
710 -10266 0
9 -710 10266 0
184 -10267 0
90 -10267 0
-184 -90 10267 0
200 -10268 0
-811 -10268 0
-200 811 10268 0
-741 -10269 0
427 -10269 0
741 -427 10269 0
199 -10270 0
-167 -10270 0
-199 167 10270 0
308 -10271 0
-390 -10271 0
-308 390 10271 0
626 -10272 0
265 -10272 0
-626 -265 10272 0
652 -10273 0
-734 -10273 0
-652 734 10273 0
470 -10274 0
-581 -10274 0
-470 581 10274 0
952 -10275 0
369 -10275 0
-952 -369 10275 0
926 -10276 0
-746 -10276 0
-926 746 10276 0
423 -10277 0
479 -10277 0
-423 -479 10277 0
904 -10278 0
799 -10278 0
-904 -799 10278 0
720 -10279 0
-817 -10279 0
-720 817 10279 0
-314 -10280 0
925 -10280 0
314 -925 10280 0
-387 -10281 0
804 -10281 0
387 -804 10281 0
725 -10282 0
937 -10282 0
-725 -937 10282 0
164 -10283 0
866 -10283 0
-164 -866 10283 0
965 -10284 0
732 -10284 0
-965 -732 10284 0
277 -10285 0
849 -10285 0
-277 -849 10285 0
791 -10286 0
-598 -10286 0
-791 598 10286 0
-417 -10287 0
387 -10287 0
417 -387 10287 0
155 -10288 0
121 -10288 0
-155 -121 10288 0
336 -10289 0
435 -10289 0
-336 -435 10289 0
796 -10290 0
-799 -10290 0
-796 799 10290 0
893 -10291 0
25 -10291 0
-893 -25 10291 0
-250 -10292 0
506 -10292 0
250 -506 10292 0
427 -10293 0
18 -10293 0
-427 -18 10293 0
272 -10294 0
-936 -10294 0
-272 936 10294 0
-603 -10295 0
796 -10295 0
603 -796 10295 0
-856 -10296 0
63 -10296 0
856 -63 10296 0
-337 -10297 0
303 -10297 0
337 -303 10297 0
963 -10298 0
-647 -10298 0
-963 647 10298 0
816 -10299 0
-374 -10299 0
-816 374 10299 0
-26 -10300 0
385 -10300 0
26 -385 10300 0
-747 -10301 0
947 -10301 0
747 -947 10301 0
566 -10302 0
540 -10302 0
-566 -540 10302 0
100 -10303 0
985 -10303 0
-100 -985 10303 0
-277 -10304 0
730 -10304 0
277 -730 10304 0
251 -10305 0
-966 -10305 0
-251 966 10305 0
983 -10306 0
-485 -10306 0
-983 485 10306 0
-589 -10307 0
578 -10307 0
589 -578 10307 0
687 -10308 0
-147 -10308 0
-687 147 10308 0
381 -10309 0
657 -10309 0
-381 -657 10309 0
-425 -10310 0
771 -10310 0
425 -771 10310 0
83 -10311 0
146 -10311 0
-83 -146 10311 0
-52 -10312 0
138 -10312 0
52 -138 10312 0
72 -10313 0
-983 -10313 0
-72 983 10313 0
226 -10314 0
553 -10314 0
-226 -553 10314 0
632 -10315 0
-26 -10315 0
-632 26 10315 0
-937 -10316 0
577 -10316 0
937 -577 10316 0
990 -10317 0
260 -10317 0
-990 -260 10317 0
663 -10318 0
-239 -10318 0
-663 239 10318 0
-755 -10319 0
857 -10319 0
755 -857 10319 0
-769 -10320 0
655 -10320 0
769 -655 10320 0
405 -10321 0
299 -10321 0
-405 -299 10321 0
117 -10322 0
-292 -10322 0
-117 292 10322 0
198 -10323 0
-915 -10323 0
-198 915 10323 0
-410 -10324 0
803 -10324 0
410 -803 10324 0
-65 -10325 0
377 -10325 0
65 -377 10325 0
-705 -10326 0
14 -10326 0
705 -14 10326 0
-571 -10327 0
851 -10327 0
571 -851 10327 0
-612 -10328 0
460 -10328 0
612 -460 10328 0
413 -10329 0
-31 -10329 0
-413 31 10329 0
285 -10330 0
209 -10330 0
-285 -209 10330 0
976 -10331 0
-614 -10331 0
-976 614 10331 0
159 -10332 0
-90 -10332 0
-159 90 10332 0
-560 -10333 0
229 -10333 0
560 -229 10333 0
462 -10334 0
-303 -10334 0
-462 303 10334 0
726 -10335 0
-653 -10335 0
-726 653 10335 0
536 -10336 0
247 -10336 0
-536 -247 10336 0
-310 -10337 0
817 -10337 0
310 -817 10337 0
212 -10338 0
139 -10338 0
-212 -139 10338 0
592 -10339 0
-722 -10339 0
-592 722 10339 0
-29 -10340 0
945 -10340 0
29 -945 10340 0
800 -10341 0
-822 -10341 0
-800 822 10341 0
-165 -10342 0
249 -10342 0
165 -249 10342 0
-49 -10343 0
79 -10343 0
49 -79 10343 0
646 -10344 0
-877 -10344 0
-646 877 10344 0
591 -10345 0
-629 -10345 0
-591 629 10345 0
869 -10346 0
-247 -10346 0
-869 247 10346 0
135 -10347 0
557 -10347 0
-135 -557 10347 0
751 -10348 0
-434 -10348 0
-751 434 10348 0
76 -10349 0
83 -10349 0
-76 -83 10349 0
85 -10350 0
298 -10350 0
-85 -298 10350 0
34 -10351 0
-502 -10351 0
-34 502 10351 0
991 -10352 0
603 -10352 0
-991 -603 10352 0
749 -10353 0
-93 -10353 0
-749 93 10353 0
379 -10354 0
-286 -10354 0
-379 286 10354 0
246 -10355 0
12 -10355 0
-246 -12 10355 0
-411 -10356 0
738 -10356 0
411 -738 10356 0
551 -10357 0
-210 -10357 0
-551 210 10357 0
943 -10358 0
249 -10358 0
-943 -249 10358 0
110 -10359 0
993 -10359 0
-110 -993 10359 0
-874 -10360 0
578 -10360 0
874 -578 10360 0
112 -10361 0
51 -10361 0
-112 -51 10361 0
203 -10362 0
930 -10362 0
-203 -930 10362 0
749 -10363 0
124 -10363 0
-749 -124 10363 0
-992 -10364 0
764 -10364 0
992 -764 10364 0
-179 -10365 0
323 -10365 0
179 -323 10365 0
39 -10366 0
-977 -10366 0
-39 977 10366 0
355 -10367 0
-990 -10367 0
-355 990 10367 0
564 -10368 0
-230 -10368 0
-564 230 10368 0
200 -10369 0
479 -10369 0
-200 -479 10369 0
704 -10370 0
68 -10370 0
-704 -68 10370 0
404 -10371 0
802 -10371 0
-404 -802 10371 0
-851 -10372 0
489 -10372 0
851 -489 10372 0
183 -10373 0
300 -10373 0
-183 -300 10373 0
982 -10374 0
-540 -10374 0
-982 540 10374 0
628 -10375 0
-677 -10375 0
-628 677 10375 0
-146 -10376 0
107 -10376 0
146 -107 10376 0
127 -10377 0
-308 -10377 0
-127 308 10377 0
-700 -10378 0
250 -10378 0
700 -250 10378 0
901 -10379 0
338 -10379 0
-901 -338 10379 0
442 -10380 0
793 -10380 0
-442 -793 10380 0
-251 -10381 0
628 -10381 0
251 -628 10381 0
84 -10382 0
-709 -10382 0
-84 709 10382 0
-68 -10383 0
201 -10383 0
68 -201 10383 0
-66 -10384 0
683 -10384 0
66 -683 10384 0
-936 -10385 0
517 -10385 0
936 -517 10385 0
407 -10386 0
209 -10386 0
-407 -209 10386 0
70 -10387 0
91 -10387 0
-70 -91 10387 0
-401 -10388 0
517 -10388 0
401 -517 10388 0
558 -10389 0
198 -10389 0
-558 -198 10389 0
232 -10390 0
-691 -10390 0
-232 691 10390 0
536 -10391 0
-297 -10391 0
-536 297 10391 0
-101 -10392 0
322 -10392 0
101 -322 10392 0
547 -10393 0
-429 -10393 0
-547 429 10393 0
584 -10394 0
-919 -10394 0
-584 919 10394 0
880 -10395 0
293 -10395 0
-880 -293 10395 0
-410 -10396 0
612 -10396 0
410 -612 10396 0
-114 -10397 0
513 -10397 0
114 -513 10397 0
515 -10398 0
90 -10398 0
-515 -90 10398 0
152 -10399 0
257 -10399 0
-152 -257 10399 0
-929 -10400 0
11 -10400 0
929 -11 10400 0
281 -10401 0
105 -10401 0
-281 -105 10401 0
263 -10402 0
43 -10402 0
-263 -43 10402 0
676 -10403 0
378 -10403 0
-676 -378 10403 0
-781 -10404 0
833 -10404 0
781 -833 10404 0
901 -10405 0
-907 -10405 0
-901 907 10405 0
-474 -10406 0
124 -10406 0
474 -124 10406 0
472 -10407 0
752 -10407 0
-472 -752 10407 0
12 -10408 0
738 -10408 0
-12 -738 10408 0
-860 -10409 0
643 -10409 0
860 -643 10409 0
692 -10410 0
-439 -10410 0
-692 439 10410 0
101 -10411 0
-395 -10411 0
-101 395 10411 0
-643 -10412 0
68 -10412 0
643 -68 10412 0
719 -10413 0
-755 -10413 0
-719 755 10413 0
272 -10414 0
-797 -10414 0
-272 797 10414 0
535 -10415 0
298 -10415 0
-535 -298 10415 0
566 -10416 0
332 -10416 0
-566 -332 10416 0
319 -10417 0
-743 -10417 0
-319 743 10417 0
-81 -10418 0
131 -10418 0
81 -131 10418 0
-541 -10419 0
283 -10419 0
541 -283 10419 0
631 -10420 0
937 -10420 0
-631 -937 10420 0
624 -10421 0
-703 -10421 0
-624 703 10421 0
-364 -10422 0
500 -10422 0
364 -500 10422 0
-532 -10423 0
283 -10423 0
532 -283 10423 0
766 -10424 0
195 -10424 0
-766 -195 10424 0
519 -10425 0
-754 -10425 0
-519 754 10425 0
614 -10426 0
-939 -10426 0
-614 939 10426 0
392 -10427 0
343 -10427 0
-392 -343 10427 0
933 -10428 0
545 -10428 0
-933 -545 10428 0
116 -10429 0
660 -10429 0
-116 -660 10429 0
66 -10430 0
-878 -10430 0
-66 878 10430 0
439 -10431 0
263 -10431 0
-439 -263 10431 0
-475 -10432 0
668 -10432 0
475 -668 10432 0
-281 -10433 0
851 -10433 0
281 -851 10433 0
624 -10434 0
655 -10434 0
-624 -655 10434 0
-42 -10435 0
132 -10435 0
42 -132 10435 0
968 -10436 0
-989 -10436 0
-968 989 10436 0
693 -10437 0
-964 -10437 0
-693 964 10437 0
-872 -10438 0
731 -10438 0
872 -731 10438 0
948 -10439 0
338 -10439 0
-948 -338 10439 0
520 -10440 0
100 -10440 0
-520 -100 10440 0
-248 -10441 0
346 -10441 0
248 -346 10441 0
280 -10442 0
262 -10442 0
-280 -262 10442 0
-289 -10443 0
765 -10443 0
289 -765 10443 0
132 -10444 0
108 -10444 0
-132 -108 10444 0
-175 -10445 0
737 -10445 0
175 -737 10445 0
252 -10446 0
947 -10446 0
-252 -947 10446 0
911 -10447 0
-290 -10447 0
-911 290 10447 0
-605 -10448 0
817 -10448 0
605 -817 10448 0
-465 -10449 0
358 -10449 0
465 -358 10449 0
837 -10450 0
513 -10450 0
-837 -513 10450 0
837 -10451 0
676 -10451 0
-837 -676 10451 0
639 -10452 0
-261 -10452 0
-639 261 10452 0
-777 -10453 0
708 -10453 0
777 -708 10453 0
23 -10454 0
-126 -10454 0
-23 126 10454 0
431 -10455 0
-996 -10455 0
-431 996 10455 0
-761 -10456 0
740 -10456 0
761 -740 10456 0
48 -10457 0
134 -10457 0
-48 -134 10457 0
830 -10458 0
691 -10458 0
-830 -691 10458 0
-362 -10459 0
386 -10459 0
362 -386 10459 0
160 -10460 0
-527 -10460 0
-160 527 10460 0
-360 -10461 0
469 -10461 0
360 -469 10461 0
-307 -10462 0
716 -10462 0
307 -716 10462 0
-241 -10463 0
843 -10463 0
241 -843 10463 0
838 -10464 0
145 -10464 0
-838 -145 10464 0
873 -10465 0
41 -10465 0
-873 -41 10465 0
31 -10466 0
389 -10466 0
-31 -389 10466 0
238 -10467 0
-895 -10467 0
-238 895 10467 0
798 -10468 0
-23 -10468 0
-798 23 10468 0
718 -10469 0
810 -10469 0
-718 -810 10469 0
943 -10470 0
950 -10470 0
-943 -950 10470 0
-682 -10471 0
802 -10471 0
682 -802 10471 0
-309 -10472 0
570 -10472 0
309 -570 10472 0
488 -10473 0
721 -10473 0
-488 -721 10473 0
410 -10474 0
737 -10474 0
-410 -737 10474 0
-233 -10475 0
685 -10475 0
233 -685 10475 0
739 -10476 0
258 -10476 0
-739 -258 10476 0
-532 -10477 0
627 -10477 0
532 -627 10477 0
679 -10478 0
78 -10478 0
-679 -78 10478 0
125 -10479 0
-308 -10479 0
-125 308 10479 0
-539 -10480 0
737 -10480 0
539 -737 10480 0
188 -10481 0
667 -10481 0
-188 -667 10481 0
251 -10482 0
985 -10482 0
-251 -985 10482 0
504 -10483 0
-12 -10483 0
-504 12 10483 0
72 -10484 0
411 -10484 0
-72 -411 10484 0
174 -10485 0
834 -10485 0
-174 -834 10485 0
222 -10486 0
652 -10486 0
-222 -652 10486 0
440 -10487 0
-102 -10487 0
-440 102 10487 0
558 -10488 0
325 -10488 0
-558 -325 10488 0
-561 -10489 0
235 -10489 0
561 -235 10489 0
-201 -10490 0
61 -10490 0
201 -61 10490 0
216 -10491 0
145 -10491 0
-216 -145 10491 0
88 -10492 0
-526 -10492 0
-88 526 10492 0
86 -10493 0
630 -10493 0
-86 -630 10493 0
659 -10494 0
-783 -10494 0
-659 783 10494 0
248 -10495 0
-444 -10495 0
-248 444 10495 0
766 -10496 0
630 -10496 0
-766 -630 10496 0
-707 -10497 0
739 -10497 0
707 -739 10497 0
621 -10498 0
-437 -10498 0
-621 437 10498 0
-763 -10499 0
827 -10499 0
763 -827 10499 0
963 -10500 0
531 -10500 0
-963 -531 10500 0
-131 -10501 0
284 -10501 0
131 -284 10501 0
316 -10502 0
370 -10502 0
-316 -370 10502 0
816 -10503 0
674 -10503 0
-816 -674 10503 0
1000 -10504 0
-484 -10504 0
-1000 484 10504 0
-378 -10505 0
252 -10505 0
378 -252 10505 0
-880 -10506 0
804 -10506 0
880 -804 10506 0
726 -10507 0
-909 -10507 0
-726 909 10507 0
214 -10508 0
821 -10508 0
-214 -821 10508 0
749 -10509 0
45 -10509 0
-749 -45 10509 0
456 -10510 0
-77 -10510 0
-456 77 10510 0
-533 -10511 0
217 -10511 0
533 -217 10511 0
693 -10512 0
596 -10512 0
-693 -596 10512 0
69 -10513 0
-247 -10513 0
-69 247 10513 0
-17 -10514 0
930 -10514 0
17 -930 10514 0
279 -10515 0
-999 -10515 0
-279 999 10515 0
742 -10516 0
121 -10516 0
-742 -121 10516 0
596 -10517 0
1 -10517 0
-596 -1 10517 0
-760 -10518 0
78 -10518 0
760 -78 10518 0
304 -10519 0
-783 -10519 0
-304 783 10519 0
-195 -10520 0
748 -10520 0
195 -748 10520 0
896 -10521 0
68 -10521 0
-896 -68 10521 0
567 -10522 0
700 -10522 0
-567 -700 10522 0
760 -10523 0
315 -10523 0
-760 -315 10523 0
109 -10524 0
81 -10524 0
-109 -81 10524 0
102 -10525 0
-998 -10525 0
-102 998 10525 0
685 -10526 0
-822 -10526 0
-685 822 10526 0
763 -10527 0
-142 -10527 0
-763 142 10527 0
-376 -10528 0
508 -10528 0
376 -508 10528 0
393 -10529 0
265 -10529 0
-393 -265 10529 0
-771 -10530 0
289 -10530 0
771 -289 10530 0
-484 -10531 0
378 -10531 0
484 -378 10531 0
727 -10532 0
-970 -10532 0
-727 970 10532 0
-304 -10533 0
857 -10533 0
304 -857 10533 0
-602 -10534 0
257 -10534 0
602 -257 10534 0
993 -10535 0
-319 -10535 0
-993 319 10535 0
254 -10536 0
393 -10536 0
-254 -393 10536 0
-264 -10537 0
35 -10537 0
264 -35 10537 0
943 -10538 0
75 -10538 0
-943 -75 10538 0
-891 -10539 0
53 -10539 0
891 -53 10539 0
149 -10540 0
-230 -10540 0
-149 230 10540 0
357 -10541 0
403 -10541 0
-357 -403 10541 0
630 -10542 0
202 -10542 0
-630 -202 10542 0
-986 -10543 0
958 -10543 0
986 -958 10543 0
15 -10544 0
-1 -10544 0
-15 1 10544 0
254 -10545 0
-60 -10545 0
-254 60 10545 0
615 -10546 0
-863 -10546 0
-615 863 10546 0
623 -10547 0
249 -10547 0
-623 -249 10547 0
-432 -10548 0
514 -10548 0
432 -514 10548 0
206 -10549 0
867 -10549 0
-206 -867 10549 0
112 -10550 0
-819 -10550 0
-112 819 10550 0
510 -10551 0
-317 -10551 0
-510 317 10551 0
-99 -10552 0
779 -10552 0
99 -779 10552 0
396 -10553 0
-207 -10553 0
-396 207 10553 0
-130 -10554 0
348 -10554 0
130 -348 10554 0
558 -10555 0
638 -10555 0
-558 -638 10555 0
-625 -10556 0
444 -10556 0
625 -444 10556 0
735 -10557 0
246 -10557 0
-735 -246 10557 0
256 -10558 0
-440 -10558 0
-256 440 10558 0
-882 -10559 0
51 -10559 0
882 -51 10559 0
-338 -10560 0
580 -10560 0
338 -580 10560 0
643 -10561 0
-974 -10561 0
-643 974 10561 0
72 -10562 0
819 -10562 0
-72 -819 10562 0
-625 -10563 0
589 -10563 0
625 -589 10563 0
392 -10564 0
-557 -10564 0
-392 557 10564 0
-104 -10565 0
693 -10565 0
104 -693 10565 0
-473 -10566 0
991 -10566 0
473 -991 10566 0
61 -10567 0
908 -10567 0
-61 -908 10567 0
160 -10568 0
-701 -10568 0
-160 701 10568 0
-96 -10569 0
425 -10569 0
96 -425 10569 0
-560 -10570 0
197 -10570 0
560 -197 10570 0
-466 -10571 0
107 -10571 0
466 -107 10571 0
-952 -10572 0
711 -10572 0
952 -711 10572 0
294 -10573 0
998 -10573 0
-294 -998 10573 0
824 -10574 0
-839 -10574 0
-824 839 10574 0
423 -10575 0
-796 -10575 0
-423 796 10575 0
575 -10576 0
762 -10576 0
-575 -762 10576 0
494 -10577 0
-855 -10577 0
-494 855 10577 0
792 -10578 0
676 -10578 0
-792 -676 10578 0
22 -10579 0
-650 -10579 0
-22 650 10579 0
-426 -10580 0
894 -10580 0
426 -894 10580 0
-356 -10581 0
905 -10581 0
356 -905 10581 0
704 -10582 0
-473 -10582 0
-704 473 10582 0
570 -10583 0
593 -10583 0
-570 -593 10583 0
114 -10584 0
-167 -10584 0
-114 167 10584 0
757 -10585 0
673 -10585 0
-757 -673 10585 0
316 -10586 0
977 -10586 0
-316 -977 10586 0
808 -10587 0
448 -10587 0
-808 -448 10587 0
181 -10588 0
113 -10588 0
-181 -113 10588 0
-937 -10589 0
147 -10589 0
937 -147 10589 0
-941 -10590 0
537 -10590 0
941 -537 10590 0
820 -10591 0
186 -10591 0
-820 -186 10591 0
974 -10592 0
492 -10592 0
-974 -492 10592 0
48 -10593 0
114 -10593 0
-48 -114 10593 0
7 -10594 0
-236 -10594 0
-7 236 10594 0
13 -10595 0
-812 -10595 0
-13 812 10595 0
519 -10596 0
938 -10596 0
-519 -938 10596 0
-425 -10597 0
403 -10597 0
425 -403 10597 0
-368 -10598 0
173 -10598 0
368 -173 10598 0
390 -10599 0
306 -10599 0
-390 -306 10599 0
455 -10600 0
807 -10600 0
-455 -807 10600 0
704 -10601 0
353 -10601 0
-704 -353 10601 0
243 -10602 0
-887 -10602 0
-243 887 10602 0
582 -10603 0
-949 -10603 0
-582 949 10603 0
-560 -10604 0
861 -10604 0
560 -861 10604 0
420 -10605 0
-901 -10605 0
-420 901 10605 0
-921 -10606 0
698 -10606 0
921 -698 10606 0
984 -10607 0
-642 -10607 0
-984 642 10607 0
-385 -10608 0
566 -10608 0
385 -566 10608 0
158 -10609 0
633 -10609 0
-158 -633 10609 0
-632 -10610 0
435 -10610 0
632 -435 10610 0
-890 -10611 0
308 -10611 0
890 -308 10611 0
-53 -10612 0
258 -10612 0
53 -258 10612 0
420 -10613 0
-829 -10613 0
-420 829 10613 0
677 -10614 0
-93 -10614 0
-677 93 10614 0
341 -10615 0
-773 -10615 0
-341 773 10615 0
172 -10616 0
650 -10616 0
-172 -650 10616 0
597 -10617 0
-31 -10617 0
-597 31 10617 0
-537 -10618 0
508 -10618 0
537 -508 10618 0
502 -10619 0
947 -10619 0
-502 -947 10619 0
343 -10620 0
-62 -10620 0
-343 62 10620 0
248 -10621 0
477 -10621 0
-248 -477 10621 0
88 -10622 0
167 -10622 0
-88 -167 10622 0
-242 -10623 0
299 -10623 0
242 -299 10623 0
638 -10624 0
85 -10624 0
-638 -85 10624 0
78 -10625 0
-323 -10625 0
-78 323 10625 0
-825 -10626 0
757 -10626 0
825 -757 10626 0
295 -10627 0
918 -10627 0
-295 -918 10627 0
834 -10628 0
-798 -10628 0
-834 798 10628 0
792 -10629 0
202 -10629 0
-792 -202 10629 0
288 -10630 0
623 -10630 0
-288 -623 10630 0
463 -10631 0
-596 -10631 0
-463 596 10631 0
-301 -10632 0
874 -10632 0
301 -874 10632 0
200 -10633 0
-210 -10633 0
-200 210 10633 0
-563 -10634 0
835 -10634 0
563 -835 10634 0
40 -10635 0
810 -10635 0
-40 -810 10635 0
887 -10636 0
-22 -10636 0
-887 22 10636 0
772 -10637 0
-661 -10637 0
-772 661 10637 0
690 -10638 0
-62 -10638 0
-690 62 10638 0
820 -10639 0
-621 -10639 0
-820 621 10639 0
165 -10640 0
325 -10640 0
-165 -325 10640 0
800 -10641 0
-477 -10641 0
-800 477 10641 0
296 -10642 0
-841 -10642 0
-296 841 10642 0
863 -10643 0
-490 -10643 0
-863 490 10643 0
704 -10644 0
-947 -10644 0
-704 947 10644 0
-808 -10645 0
717 -10645 0
808 -717 10645 0
207 -10646 0
185 -10646 0
-207 -185 10646 0
431 -10647 0
2 -10647 0
-431 -2 10647 0
-842 -10648 0
740 -10648 0
842 -740 10648 0
724 -10649 0
987 -10649 0
-724 -987 10649 0
-36 -10650 0
387 -10650 0
36 -387 10650 0
130 -10651 0
538 -10651 0
-130 -538 10651 0
-560 -10652 0
157 -10652 0
560 -157 10652 0
419 -10653 0
51 -10653 0
-419 -51 10653 0
456 -10654 0
-809 -10654 0
-456 809 10654 0
-872 -10655 0
464 -10655 0
872 -464 10655 0
622 -10656 0
85 -10656 0
-622 -85 10656 0
650 -10657 0
-502 -10657 0
-650 502 10657 0
8 -10658 0
-983 -10658 0
-8 983 10658 0
-130 -10659 0
786 -10659 0
130 -786 10659 0
-600 -10660 0
828 -10660 0
600 -828 10660 0
199 -10661 0
954 -10661 0
-199 -954 10661 0
288 -10662 0
392 -10662 0
-288 -392 10662 0
42 -10663 0
-423 -10663 0
-42 423 10663 0
-325 -10664 0
169 -10664 0
325 -169 10664 0
102 -10665 0
867 -10665 0
-102 -867 10665 0
183 -10666 0
-598 -10666 0
-183 598 10666 0
360 -10667 0
729 -10667 0
-360 -729 10667 0
-924 -10668 0
666 -10668 0
924 -666 10668 0
767 -10669 0
-195 -10669 0
-767 195 10669 0
-146 -10670 0
221 -10670 0
146 -221 10670 0
-264 -10671 0
283 -10671 0
264 -283 10671 0
93 -10672 0
-332 -10672 0
-93 332 10672 0
352 -10673 0
-550 -10673 0
-352 550 10673 0
760 -10674 0
595 -10674 0
-760 -595 10674 0
71 -10675 0
127 -10675 0
-71 -127 10675 0
429 -10676 0
37 -10676 0
-429 -37 10676 0
776 -10677 0
-430 -10677 0
-776 430 10677 0
98 -10678 0
-14 -10678 0
-98 14 10678 0
427 -10679 0
-830 -10679 0
-427 830 10679 0
912 -10680 0
-588 -10680 0
-912 588 10680 0
24 -10681 0
319 -10681 0
-24 -319 10681 0
735 -10682 0
349 -10682 0
-735 -349 10682 0
258 -10683 0
-543 -10683 0
-258 543 10683 0
-846 -10684 0
418 -10684 0
846 -418 10684 0
-352 -10685 0
693 -10685 0
352 -693 10685 0
-44 -10686 0
865 -10686 0
44 -865 10686 0
383 -10687 0
-637 -10687 0
-383 637 10687 0
40 -10688 0
-59 -10688 0
-40 59 10688 0
388 -10689 0
905 -10689 0
-388 -905 10689 0
69 -10690 0
802 -10690 0
-69 -802 10690 0
612 -10691 0
-268 -10691 0
-612 268 10691 0
-72 -10692 0
398 -10692 0
72 -398 10692 0
388 -10693 0
-901 -10693 0
-388 901 10693 0
-48 -10694 0
656 -10694 0
48 -656 10694 0
580 -10695 0
683 -10695 0
-580 -683 10695 0
640 -10696 0
805 -10696 0
-640 -805 10696 0
-606 -10697 0
369 -10697 0
606 -369 10697 0
7 -10698 0
290 -10698 0
-7 -290 10698 0
-388 -10699 0
91 -10699 0
388 -91 10699 0
414 -10700 0
-438 -10700 0
-414 438 10700 0
77 -10701 0
282 -10701 0
-77 -282 10701 0
-747 -10702 0
739 -10702 0
747 -739 10702 0
-921 -10703 0
435 -10703 0
921 -435 10703 0
-849 -10704 0
383 -10704 0
849 -383 10704 0
-920 -10705 0
561 -10705 0
920 -561 10705 0
-664 -10706 0
589 -10706 0
664 -589 10706 0
-248 -10707 0
815 -10707 0
248 -815 10707 0
-928 -10708 0
619 -10708 0
928 -619 10708 0
687 -10709 0
748 -10709 0
-687 -748 10709 0
176 -10710 0
475 -10710 0
-176 -475 10710 0
519 -10711 0
425 -10711 0
-519 -425 10711 0
-442 -10712 0
773 -10712 0
442 -773 10712 0
-65 -10713 0
478 -10713 0
65 -478 10713 0
927 -10714 0
547 -10714 0
-927 -547 10714 0
967 -10715 0
-109 -10715 0
-967 109 10715 0
-958 -10716 0
786 -10716 0
958 -786 10716 0
674 -10717 0
-815 -10717 0
-674 815 10717 0
-328 -10718 0
591 -10718 0
328 -591 10718 0
86 -10719 0
981 -10719 0
-86 -981 10719 0
226 -10720 0
-783 -10720 0
-226 783 10720 0
51 -10721 0
-583 -10721 0
-51 583 10721 0
624 -10722 0
-385 -10722 0
-624 385 10722 0
-123 -10723 0
427 -10723 0
123 -427 10723 0
687 -10724 0
-551 -10724 0
-687 551 10724 0
402 -10725 0
777 -10725 0
-402 -777 10725 0
972 -10726 0
778 -10726 0
-972 -778 10726 0
-619 -10727 0
346 -10727 0
619 -346 10727 0
597 -10728 0
268 -10728 0
-597 -268 10728 0
-520 -10729 0
111 -10729 0
520 -111 10729 0
884 -10730 0
-780 -10730 0
-884 780 10730 0
461 -10731 0
644 -10731 0
-461 -644 10731 0
-506 -10732 0
420 -10732 0
506 -420 10732 0
-131 -10733 0
90 -10733 0
131 -90 10733 0
-544 -10734 0
154 -10734 0
544 -154 10734 0
-248 -10735 0
789 -10735 0
248 -789 10735 0
296 -10736 0
-688 -10736 0
-296 688 10736 0
568 -10737 0
-405 -10737 0
-568 405 10737 0
646 -10738 0
-550 -10738 0
-646 550 10738 0
635 -10739 0
-935 -10739 0
-635 935 10739 0
429 -10740 0
545 -10740 0
-429 -545 10740 0
499 -10741 0
-71 -10741 0
-499 71 10741 0
455 -10742 0
789 -10742 0
-455 -789 10742 0
359 -10743 0
922 -10743 0
-359 -922 10743 0
568 -10744 0
451 -10744 0
-568 -451 10744 0
960 -10745 0
-742 -10745 0
-960 742 10745 0
-22 -10746 0
449 -10746 0
22 -449 10746 0
728 -10747 0
242 -10747 0
-728 -242 10747 0
-776 -10748 0
261 -10748 0
776 -261 10748 0
-80 -10749 0
768 -10749 0
80 -768 10749 0
-484 -10750 0
275 -10750 0
484 -275 10750 0
-928 -10751 0
838 -10751 0
928 -838 10751 0
743 -10752 0
-721 -10752 0
-743 721 10752 0
971 -10753 0
91 -10753 0
-971 -91 10753 0
411 -10754 0
595 -10754 0
-411 -595 10754 0
-160 -10755 0
151 -10755 0
160 -151 10755 0
-138 -10756 0
230 -10756 0
138 -230 10756 0
496 -10757 0
532 -10757 0
-496 -532 10757 0
94 -10758 0
-974 -10758 0
-94 974 10758 0
659 -10759 0
121 -10759 0
-659 -121 10759 0
864 -10760 0
-200 -10760 0
-864 200 10760 0
358 -10761 0
430 -10761 0
-358 -430 10761 0
438 -10762 0
932 -10762 0
-438 -932 10762 0
-264 -10763 0
117 -10763 0
264 -117 10763 0
852 -10764 0
435 -10764 0
-852 -435 10764 0
-952 -10765 0
406 -10765 0
952 -406 10765 0
-800 -10766 0
605 -10766 0
800 -605 10766 0
878 -10767 0
612 -10767 0
-878 -612 10767 0
22 -10768 0
-99 -10768 0
-22 99 10768 0
552 -10769 0
-490 -10769 0
-552 490 10769 0
-952 -10770 0
870 -10770 0
952 -870 10770 0
-393 -10771 0
501 -10771 0
393 -501 10771 0
40 -10772 0
821 -10772 0
-40 -821 10772 0
519 -10773 0
379 -10773 0
-519 -379 10773 0
146 -10774 0
514 -10774 0
-146 -514 10774 0
926 -10775 0
949 -10775 0
-926 -949 10775 0
819 -10776 0
986 -10776 0
-819 -986 10776 0
-118 -10777 0
362 -10777 0
118 -362 10777 0
552 -10778 0
887 -10778 0
-552 -887 10778 0
-369 -10779 0
875 -10779 0
369 -875 10779 0
-589 -10780 0
579 -10780 0
589 -579 10780 0
446 -10781 0
-308 -10781 0
-446 308 10781 0
-689 -10782 0
979 -10782 0
689 -979 10782 0
-951 -10783 0
801 -10783 0
951 -801 10783 0
661 -10784 0
692 -10784 0
-661 -692 10784 0
839 -10785 0
493 -10785 0
-839 -493 10785 0
-258 -10786 0
449 -10786 0
258 -449 10786 0
391 -10787 0
765 -10787 0
-391 -765 10787 0
376 -10788 0
631 -10788 0
-376 -631 10788 0
-904 -10789 0
963 -10789 0
904 -963 10789 0
-938 -10790 0
637 -10790 0
938 -637 10790 0
741 -10791 0
844 -10791 0
-741 -844 10791 0
199 -10792 0
386 -10792 0
-199 -386 10792 0
976 -10793 0
-326 -10793 0
-976 326 10793 0
743 -10794 0
857 -10794 0
-743 -857 10794 0
206 -10795 0
-62 -10795 0
-206 62 10795 0
-957 -10796 0
785 -10796 0
957 -785 10796 0
-626 -10797 0
436 -10797 0
626 -436 10797 0
-817 -10798 0
708 -10798 0
817 -708 10798 0
307 -10799 0
458 -10799 0
-307 -458 10799 0
-821 -10800 0
130 -10800 0
821 -130 10800 0
968 -10801 0
-523 -10801 0
-968 523 10801 0
895 -10802 0
394 -10802 0
-895 -394 10802 0
774 -10803 0
706 -10803 0
-774 -706 10803 0
-173 -10804 0
977 -10804 0
173 -977 10804 0
-136 -10805 0
338 -10805 0
136 -338 10805 0
-831 -10806 0
393 -10806 0
831 -393 10806 0
134 -10807 0
947 -10807 0
-134 -947 10807 0
-3 -10808 0
452 -10808 0
3 -452 10808 0
397 -10809 0
641 -10809 0
-397 -641 10809 0
391 -10810 0
913 -10810 0
-391 -913 10810 0
830 -10811 0
-83 -10811 0
-830 83 10811 0
909 -10812 0
876 -10812 0
-909 -876 10812 0
365 -10813 0
179 -10813 0
-365 -179 10813 0
964 -10814 0
851 -10814 0
-964 -851 10814 0
-885 -10815 0
33 -10815 0
885 -33 10815 0
-531 -10816 0
339 -10816 0
531 -339 10816 0
203 -10817 0
114 -10817 0
-203 -114 10817 0
-452 -10818 0
548 -10818 0
452 -548 10818 0
477 -10819 0
261 -10819 0
-477 -261 10819 0
101 -10820 0
-71 -10820 0
-101 71 10820 0
643 -10821 0
729 -10821 0
-643 -729 10821 0
931 -10822 0
499 -10822 0
-931 -499 10822 0
-115 -10823 0
637 -10823 0
115 -637 10823 0
752 -10824 0
365 -10824 0
-752 -365 10824 0
95 -10825 0
852 -10825 0
-95 -852 10825 0
-255 -10826 0
737 -10826 0
255 -737 10826 0
728 -10827 0
-853 -10827 0
-728 853 10827 0
315 -10828 0
753 -10828 0
-315 -753 10828 0
544 -10829 0
-682 -10829 0
-544 682 10829 0
124 -10830 0
-269 -10830 0
-124 269 10830 0
750 -10831 0
-525 -10831 0
-750 525 10831 0
-817 -10832 0
482 -10832 0
817 -482 10832 0
-894 -10833 0
417 -10833 0
894 -417 10833 0
176 -10834 0
-357 -10834 0
-176 357 10834 0
-336 -10835 0
948 -10835 0
336 -948 10835 0
719 -10836 0
145 -10836 0
-719 -145 10836 0
121 -10837 0
-79 -10837 0
-121 79 10837 0
998 -10838 0
-117 -10838 0
-998 117 10838 0
-120 -10839 0
972 -10839 0
120 -972 10839 0
-209 -10840 0
939 -10840 0
209 -939 10840 0
-507 -10841 0
476 -10841 0
507 -476 10841 0
992 -10842 0
653 -10842 0
-992 -653 10842 0
975 -10843 0
361 -10843 0
-975 -361 10843 0
-723 -10844 0
986 -10844 0
723 -986 10844 0
677 -10845 0
113 -10845 0
-677 -113 10845 0
455 -10846 0
317 -10846 0
-455 -317 10846 0
495 -10847 0
-817 -10847 0
-495 817 10847 0
-97 -10848 0
676 -10848 0
97 -676 10848 0
-453 -10849 0
715 -10849 0
453 -715 10849 0
-540 -10850 0
618 -10850 0
540 -618 10850 0
511 -10851 0
-233 -10851 0
-511 233 10851 0
160 -10852 0
-209 -10852 0
-160 209 10852 0
-67 -10853 0
691 -10853 0
67 -691 10853 0
71 -10854 0
-497 -10854 0
-71 497 10854 0
709 -10855 0
-884 -10855 0
-709 884 10855 0
-664 -10856 0
992 -10856 0
664 -992 10856 0
45 -10857 0
-147 -10857 0
-45 147 10857 0
888 -10858 0
178 -10858 0
-888 -178 10858 0
-410 -10859 0
59 -10859 0
410 -59 10859 0
333 -10860 0
723 -10860 0
-333 -723 10860 0
422 -10861 0
531 -10861 0
-422 -531 10861 0
879 -10862 0
453 -10862 0
-879 -453 10862 0
792 -10863 0
28 -10863 0
-792 -28 10863 0
951 -10864 0
785 -10864 0
-951 -785 10864 0
572 -10865 0
-228 -10865 0
-572 228 10865 0
604 -10866 0
316 -10866 0
-604 -316 10866 0
-780 -10867 0
281 -10867 0
780 -281 10867 0
462 -10868 0
781 -10868 0
-462 -781 10868 0
71 -10869 0
491 -10869 0
-71 -491 10869 0
928 -10870 0
268 -10870 0
-928 -268 10870 0
70 -10871 0
-223 -10871 0
-70 223 10871 0
474 -10872 0
505 -10872 0
-474 -505 10872 0
876 -10873 0
91 -10873 0
-876 -91 10873 0
36 -10874 0
-412 -10874 0
-36 412 10874 0
-869 -10875 0
929 -10875 0
869 -929 10875 0
315 -10876 0
-55 -10876 0
-315 55 10876 0
-304 -10877 0
856 -10877 0
304 -856 10877 0
957 -10878 0
-645 -10878 0
-957 645 10878 0
48 -10879 0
-116 -10879 0
-48 116 10879 0
-794 -10880 0
146 -10880 0
794 -146 10880 0
-697 -10881 0
369 -10881 0
697 -369 10881 0
-49 -10882 0
849 -10882 0
49 -849 10882 0
975 -10883 0
-972 -10883 0
-975 972 10883 0
640 -10884 0
920 -10884 0
-640 -920 10884 0
309 -10885 0
115 -10885 0
-309 -115 10885 0
7 -10886 0
-988 -10886 0
-7 988 10886 0
-329 -10887 0
867 -10887 0
329 -867 10887 0
727 -10888 0
975 -10888 0
-727 -975 10888 0
571 -10889 0
74 -10889 0
-571 -74 10889 0
-939 -10890 0
164 -10890 0
939 -164 10890 0
38 -10891 0
-815 -10891 0
-38 815 10891 0
286 -10892 0
-549 -10892 0
-286 549 10892 0
548 -10893 0
-12 -10893 0
-548 12 10893 0
927 -10894 0
-731 -10894 0
-927 731 10894 0
-93 -10895 0
938 -10895 0
93 -938 10895 0
-248 -10896 0
529 -10896 0
248 -529 10896 0
181 -10897 0
281 -10897 0
-181 -281 10897 0
403 -10898 0
945 -10898 0
-403 -945 10898 0
611 -10899 0
-998 -10899 0
-611 998 10899 0
-520 -10900 0
315 -10900 0
520 -315 10900 0
172 -10901 0
419 -10901 0
-172 -419 10901 0
1 -10902 0
33 -10902 0
-1 -33 10902 0
-201 -10903 0
843 -10903 0
201 -843 10903 0
646 -10904 0
235 -10904 0
-646 -235 10904 0
158 -10905 0
-558 -10905 0
-158 558 10905 0
732 -10906 0
891 -10906 0
-732 -891 10906 0
694 -10907 0
-403 -10907 0
-694 403 10907 0
-432 -10908 0
265 -10908 0
432 -265 10908 0
-156 -10909 0
138 -10909 0
156 -138 10909 0
956 -10910 0
457 -10910 0
-956 -457 10910 0
-74 -10911 0
562 -10911 0
74 -562 10911 0
-712 -10912 0
915 -10912 0
712 -915 10912 0
800 -10913 0
-182 -10913 0
-800 182 10913 0
-338 -10914 0
746 -10914 0
338 -746 10914 0
-313 -10915 0
451 -10915 0
313 -451 10915 0
-221 -10916 0
89 -10916 0
221 -89 10916 0
332 -10917 0
59 -10917 0
-332 -59 10917 0
-907 -10918 0
275 -10918 0
907 -275 10918 0
-497 -10919 0
614 -10919 0
497 -614 10919 0
806 -10920 0
-370 -10920 0
-806 370 10920 0
-226 -10921 0
932 -10921 0
226 -932 10921 0
830 -10922 0
-98 -10922 0
-830 98 10922 0
87 -10923 0
-298 -10923 0
-87 298 10923 0
-764 -10924 0
873 -10924 0
764 -873 10924 0
87 -10925 0
476 -10925 0
-87 -476 10925 0
795 -10926 0
-213 -10926 0
-795 213 10926 0
-801 -10927 0
741 -10927 0
801 -741 10927 0
563 -10928 0
881 -10928 0
-563 -881 10928 0
-533 -10929 0
977 -10929 0
533 -977 10929 0
279 -10930 0
53 -10930 0
-279 -53 10930 0
911 -10931 0
379 -10931 0
-911 -379 10931 0
-701 -10932 0
379 -10932 0
701 -379 10932 0
455 -10933 0
-797 -10933 0
-455 797 10933 0
413 -10934 0
-246 -10934 0
-413 246 10934 0
157 -10935 0
-404 -10935 0
-157 404 10935 0
-267 -10936 0
475 -10936 0
267 -475 10936 0
551 -10937 0
116 -10937 0
-551 -116 10937 0
359 -10938 0
174 -10938 0
-359 -174 10938 0
197 -10939 0
-110 -10939 0
-197 110 10939 0
-415 -10940 0
73 -10940 0
415 -73 10940 0
527 -10941 0
58 -10941 0
-527 -58 10941 0
-852 -10942 0
857 -10942 0
852 -857 10942 0
539 -10943 0
937 -10943 0
-539 -937 10943 0
623 -10944 0
101 -10944 0
-623 -101 10944 0
-687 -10945 0
705 -10945 0
687 -705 10945 0
-925 -10946 0
993 -10946 0
925 -993 10946 0
508 -10947 0
-5 -10947 0
-508 5 10947 0
-616 -10948 0
688 -10948 0
616 -688 10948 0
540 -10949 0
-285 -10949 0
-540 285 10949 0
-853 -10950 0
442 -10950 0
853 -442 10950 0
800 -10951 0
-849 -10951 0
-800 849 10951 0
-328 -10952 0
256 -10952 0
328 -256 10952 0
-552 -10953 0
122 -10953 0
552 -122 10953 0
601 -10954 0
449 -10954 0
-601 -449 10954 0
623 -10955 0
-499 -10955 0
-623 499 10955 0
136 -10956 0
69 -10956 0
-136 -69 10956 0
807 -10957 0
-509 -10957 0
-807 509 10957 0
693 -10958 0
-219 -10958 0
-693 219 10958 0
256 -10959 0
751 -10959 0
-256 -751 10959 0
639 -10960 0
465 -10960 0
-639 -465 10960 0
807 -10961 0
306 -10961 0
-807 -306 10961 0
-753 -10962 0
510 -10962 0
753 -510 10962 0
725 -10963 0
875 -10963 0
-725 -875 10963 0
192 -10964 0
-508 -10964 0
-192 508 10964 0
292 -10965 0
-653 -10965 0
-292 653 10965 0
64 -10966 0
723 -10966 0
-64 -723 10966 0
705 -10967 0
345 -10967 0
-705 -345 10967 0
-337 -10968 0
395 -10968 0
337 -395 10968 0
101 -10969 0
251 -10969 0
-101 -251 10969 0
976 -10970 0
-788 -10970 0
-976 788 10970 0
615 -10971 0
-658 -10971 0
-615 658 10971 0
811 -10972 0
858 -10972 0
-811 -858 10972 0
-521 -10973 0
515 -10973 0
521 -515 10973 0
525 -10974 0
-228 -10974 0
-525 228 10974 0
-477 -10975 0
835 -10975 0
477 -835 10975 0
-379 -10976 0
308 -10976 0
379 -308 10976 0
156 -10977 0
362 -10977 0
-156 -362 10977 0
503 -10978 0
365 -10978 0
-503 -365 10978 0
-931 -10979 0
11 -10979 0
931 -11 10979 0
-683 -10980 0
977 -10980 0
683 -977 10980 0
-89 -10981 0
513 -10981 0
89 -513 10981 0
887 -10982 0
-803 -10982 0
-887 803 10982 0
168 -10983 0
100 -10983 0
-168 -100 10983 0
287 -10984 0
438 -10984 0
-287 -438 10984 0
882 -10985 0
-215 -10985 0
-882 215 10985 0
786 -10986 0
361 -10986 0
-786 -361 10986 0
775 -10987 0
330 -10987 0
-775 -330 10987 0
864 -10988 0
-654 -10988 0
-864 654 10988 0
774 -10989 0
-747 -10989 0
-774 747 10989 0
34 -10990 0
-598 -10990 0
-34 598 10990 0
-904 -10991 0
993 -10991 0
904 -993 10991 0
462 -10992 0
-238 -10992 0
-462 238 10992 0
-977 -10993 0
738 -10993 0
977 -738 10993 0
243 -10994 0
-806 -10994 0
-243 806 10994 0
746 -10995 0
33 -10995 0
-746 -33 10995 0
-978 -10996 0
860 -10996 0
978 -860 10996 0
-875 -10997 0
650 -10997 0
875 -650 10997 0
894 -10998 0
-703 -10998 0
-894 703 10998 0
-169 -10999 0
474 -10999 0
169 -474 10999 0
-673 -11000 0
941 -11000 0
673 -941 11000 0
-737 -11001 0
805 -11002 0
530 -11002 0
-805 -530 11002 0
-83 -11003 0
859 -11003 0
83 -859 11003 0
148 -11004 0
-214 -11004 0
-148 214 11004 0
288 -11005 0
684 -11005 0
-288 -684 11005 0
638 -11006 0
561 -11006 0
-638 -561 11006 0
480 -11007 0
-194 -11007 0
-480 194 11007 0
-547 -11008 0
356 -11008 0
547 -356 11008 0
47 -11009 0
531 -11009 0
-47 -531 11009 0
595 -11010 0
-206 -11010 0
-595 206 11010 0
765 -11011 0
594 -11011 0
-765 -594 11011 0
604 -11012 0
-887 -11012 0
-604 887 11012 0
-896 -11013 0
36 -11013 0
896 -36 11013 0
751 -11014 0
493 -11014 0
-751 -493 11014 0
-649 -11015 0
293 -11015 0
649 -293 11015 0
600 -11016 0
-132 -11016 0
-600 132 11016 0
365 -11017 0
-734 -11017 0
-365 734 11017 0
537 -11018 0
81 -11018 0
-537 -81 11018 0
32 -11019 0
-281 -11019 0
-32 281 11019 0
320 -11020 0
-414 -11020 0
-320 414 11020 0
-633 -11021 0
673 -11021 0
633 -673 11021 0
-105 -11022 0
133 -11022 0
105 -133 11022 0
419 -11023 0
-326 -11023 0
-419 326 11023 0
234 -11024 0
689 -11024 0
-234 -689 11024 0
384 -11025 0
-72 -11025 0
-384 72 11025 0
-1 -11026 0
785 -11026 0
1 -785 11026 0
333 -11027 0
-44 -11027 0
-333 44 11027 0
-289 -11028 0
716 -11028 0
289 -716 11028 0
327 -11029 0
629 -11029 0
-327 -629 11029 0
452 -11030 0
386 -11030 0
-452 -386 11030 0
962 -11031 0
-199 -11031 0
-962 199 11031 0
341 -11032 0
-493 -11032 0
-341 493 11032 0
462 -11033 0
178 -11033 0
-462 -178 11033 0
-190 -11034 0
577 -11034 0
190 -577 11034 0
524 -11035 0
-646 -11035 0
-524 646 11035 0
966 -11036 0
42 -11036 0
-966 -42 11036 0
795 -11037 0
482 -11037 0
-795 -482 11037 0
519 -11038 0
-798 -11038 0
-519 798 11038 0
883 -11039 0
-215 -11039 0
-883 215 11039 0
-33 -11040 0
225 -11040 0
33 -225 11040 0
352 -11041 0
274 -11041 0
-352 -274 11041 0
-464 -11042 0
852 -11042 0
464 -852 11042 0
237 -11043 0
122 -11043 0
-237 -122 11043 0
904 -11044 0
674 -11044 0
-904 -674 11044 0
741 -11045 0
325 -11045 0
-741 -325 11045 0
700 -11046 0
697 -11046 0
-700 -697 11046 0
-749 -11047 0
873 -11047 0
749 -873 11047 0
259 -11048 0
-885 -11048 0
-259 885 11048 0
-45 -11049 0
3 -11049 0
45 -3 11049 0
828 -11050 0
-101 -11050 0
-828 101 11050 0
88 -11051 0
-147 -11051 0
-88 147 11051 0
-362 -11052 0
225 -11052 0
362 -225 11052 0
885 -11053 0
674 -11053 0
-885 -674 11053 0
808 -11054 0
119 -11054 0
-808 -119 11054 0
-304 -11055 0
148 -11055 0
304 -148 11055 0
-808 -11056 0
472 -11056 0
808 -472 11056 0
415 -11057 0
317 -11057 0
-415 -317 11057 0
-445 -11058 0
906 -11058 0
445 -906 11058 0
637 -11059 0
-726 -11059 0
-637 726 11059 0
656 -11060 0
530 -11060 0
-656 -530 11060 0
967 -11061 0
758 -11061 0
-967 -758 11061 0
807 -11062 0
-687 -11062 0
-807 687 11062 0
924 -11063 0
-119 -11063 0
-924 119 11063 0
333 -11064 0
-660 -11064 0
-333 660 11064 0
-331 -11065 0
265 -11065 0
331 -265 11065 0
-220 -11066 0
12 -11066 0
220 -12 11066 0
600 -11067 0
-774 -11067 0
-600 774 11067 0
-505 -11068 0
108 -11068 0
505 -108 11068 0
613 -11069 0
-46 -11069 0
-613 46 11069 0
677 -11070 0
969 -11070 0
-677 -969 11070 0
462 -11071 0
-463 -11071 0
-462 463 11071 0
664 -11072 0
-415 -11072 0
-664 415 11072 0
-621 -11073 0
113 -11073 0
621 -113 11073 0
357 -11074 0
-598 -11074 0
-357 598 11074 0
607 -11075 0
-565 -11075 0
-607 565 11075 0
855 -11076 0
-269 -11076 0
-855 269 11076 0
415 -11077 0
-689 -11077 0
-415 689 11077 0
785 -11078 0
497 -11078 0
-785 -497 11078 0
-392 -11079 0
242 -11079 0
392 -242 11079 0
-657 -11080 0
73 -11080 0
657 -73 11080 0
751 -11081 0
-47 -11081 0
-751 47 11081 0
-897 -11082 0
777 -11082 0
897 -777 11082 0
-965 -11083 0
250 -11083 0
965 -250 11083 0
644 -11084 0
57 -11084 0
-644 -57 11084 0
856 -11085 0
676 -11085 0
-856 -676 11085 0
505 -11086 0
465 -11086 0
-505 -465 11086 0
185 -11087 0
-887 -11087 0
-185 887 11087 0
373 -11088 0
257 -11088 0
-373 -257 11088 0
316 -11089 0
361 -11089 0
-316 -361 11089 0
-200 -11090 0
2 -11090 0
200 -2 11090 0
-579 -11091 0
733 -11091 0
579 -733 11091 0
526 -11092 0
-844 -11092 0
-526 844 11092 0
700 -11093 0
-702 -11093 0
-700 702 11093 0
-16 -11094 0
714 -11094 0
16 -714 11094 0
995 -11095 0
545 -11095 0
-995 -545 11095 0
167 -11096 0
994 -11096 0
-167 -994 11096 0
-850 -11097 0
868 -11097 0
850 -868 11097 0
302 -11098 0
325 -11098 0
-302 -325 11098 0
640 -11099 0
831 -11099 0
-640 -831 11099 0
732 -11100 0
172 -11100 0
-732 -172 11100 0
688 -11101 0
679 -11101 0
-688 -679 11101 0
168 -11102 0
-409 -11102 0
-168 409 11102 0
668 -11103 0
-790 -11103 0
-668 790 11103 0
19 -11104 0
410 -11104 0
-19 -410 11104 0
143 -11105 0
798 -11105 0
-143 -798 11105 0
-496 -11106 0
144 -11106 0
496 -144 11106 0
749 -11107 0
396 -11107 0
-749 -396 11107 0
179 -11108 0
713 -11108 0
-179 -713 11108 0
-204 -11109 0
754 -11109 0
204 -754 11109 0
503 -11110 0
220 -11110 0
-503 -220 11110 0
-840 -11111 0
816 -11111 0
840 -816 11111 0
-42 -11112 0
971 -11112 0
42 -971 11112 0
-696 -11113 0
385 -11113 0
696 -385 11113 0
526 -11114 0
-893 -11114 0
-526 893 11114 0
-190 -11115 0
801 -11115 0
190 -801 11115 0
88 -11116 0
-851 -11116 0
-88 851 11116 0
216 -11117 0
-522 -11117 0
-216 522 11117 0
-52 -11118 0
945 -11118 0
52 -945 11118 0
158 -11119 0
317 -11119 0
-158 -317 11119 0
423 -11120 0
-719 -11120 0
-423 719 11120 0
536 -11121 0
-812 -11121 0
-536 812 11121 0
872 -11122 0
572 -11122 0
-872 -572 11122 0
8 -11123 0
-954 -11123 0
-8 954 11123 0
679 -11124 0
28 -11124 0
-679 -28 11124 0
936 -11125 0
462 -11125 0
-936 -462 11125 0
-560 -11126 0
708 -11126 0
560 -708 11126 0
806 -11127 0
-506 -11127 0
-806 506 11127 0
247 -11128 0
769 -11128 0
-247 -769 11128 0
-776 -11129 0
918 -11129 0
776 -918 11129 0
143 -11130 0
-828 -11130 0
-143 828 11130 0
304 -11131 0
417 -11131 0
-304 -417 11131 0
-96 -11132 0
518 -11132 0
96 -518 11132 0
-808 -11133 0
954 -11133 0
808 -954 11133 0
276 -11134 0
-295 -11134 0
-276 295 11134 0
-26 -11135 0
421 -11135 0
26 -421 11135 0
663 -11136 0
-60 -11136 0
-663 60 11136 0
613 -11137 0
-28 -11137 0
-613 28 11137 0
-656 -11138 0
371 -11138 0
656 -371 11138 0
542 -11139 0
-839 -11139 0
-542 839 11139 0
655 -11140 0
-510 -11140 0
-655 510 11140 0
798 -11141 0
517 -11141 0
-798 -517 11141 0
78 -11142 0
-821 -11142 0
-78 821 11142 0
830 -11143 0
-591 -11143 0
-830 591 11143 0
103 -11144 0
-675 -11144 0
-103 675 11144 0
-121 -11145 0
566 -11145 0
121 -566 11145 0
815 -11146 0
-94 -11146 0
-815 94 11146 0
-212 -11147 0
116 -11147 0
212 -116 11147 0
159 -11148 0
594 -11148 0
-159 -594 11148 0
285 -11149 0
4 -11149 0
-285 -4 11149 0
10 -11150 0
786 -11150 0
-10 -786 11150 0
876 -11151 0
-845 -11151 0
-876 845 11151 0
127 -11152 0
571 -11152 0
-127 -571 11152 0
-422 -11153 0
226 -11153 0
422 -226 11153 0
-57 -11154 0
774 -11154 0
57 -774 11154 0
-568 -11155 0
27 -11155 0
568 -27 11155 0
-968 -11156 0
31 -11156 0
968 -31 11156 0
695 -11157 0
-379 -11157 0
-695 379 11157 0
-680 -11158 0
822 -11158 0
680 -822 11158 0
727 -11159 0
-716 -11159 0
-727 716 11159 0
224 -11160 0
-281 -11160 0
-224 281 11160 0
23 -11161 0
744 -11162 0
166 -11162 0
-744 -166 11162 0
160 -11163 0
-663 -11163 0
-160 663 11163 0
531 -11164 0
-254 -11164 0
-531 254 11164 0
-992 -11165 0
748 -11165 0
992 -748 11165 0
-105 -11166 0
878 -11166 0
105 -878 11166 0
955 -11167 0
-214 -11167 0
-955 214 11167 0
-830 -11168 0
825 -11168 0
830 -825 11168 0
-57 -11169 0
323 -11169 0
57 -323 11169 0
-690 -11170 0
204 -11170 0
690 -204 11170 0
-385 -11171 0
100 -11171 0
385 -100 11171 0
-379 -11172 0
490 -11172 0
379 -490 11172 0
846 -11173 0
828 -11173 0
-846 -828 11173 0
709 -11174 0
-735 -11174 0
-709 735 11174 0
813 -11175 0
524 -11175 0
-813 -524 11175 0
-825 -11176 0
473 -11176 0
825 -473 11176 0
262 -11177 0
245 -11177 0
-262 -245 11177 0
87 -11178 0
-603 -11178 0
-87 603 11178 0
150 -11179 0
-675 -11179 0
-150 675 11179 0
-513 -11180 0
122 -11180 0
513 -122 11180 0
704 -11181 0
782 -11181 0
-704 -782 11181 0
975 -11182 0
-867 -11182 0
-975 867 11182 0
200 -11183 0
546 -11183 0
-200 -546 11183 0
996 -11184 0
-326 -11184 0
-996 326 11184 0
246 -11185 0
745 -11185 0
-246 -745 11185 0
671 -11186 0
-531 -11186 0
-671 531 11186 0
-10 -11187 0
781 -11187 0
10 -781 11187 0
168 -11188 0
-481 -11188 0
-168 481 11188 0
256 -11189 0
-405 -11189 0
-256 405 11189 0
80 -11190 0
-646 -11190 0
-80 646 11190 0
-149 -11191 0
867 -11191 0
149 -867 11191 0
280 -11192 0
-217 -11192 0
-280 217 11192 0
32 -11193 0
-501 -11193 0
-32 501 11193 0
753 -11194 0
-799 -11194 0
-753 799 11194 0
926 -11195 0
-663 -11195 0
-926 663 11195 0
63 -11196 0
374 -11196 0
-63 -374 11196 0
486 -11197 0
546 -11197 0
-486 -546 11197 0
340 -11198 0
-437 -11198 0
-340 437 11198 0
-926 -11199 0
817 -11199 0
926 -817 11199 0
-650 -11200 0
468 -11200 0
650 -468 11200 0
-370 -11201 0
187 -11201 0
370 -187 11201 0
-392 -11202 0
76 -11202 0
392 -76 11202 0
886 -11203 0
-766 -11203 0
-886 766 11203 0
296 -11204 0
-866 -11204 0
-296 866 11204 0
926 -11205 0
34 -11205 0
-926 -34 11205 0
-644 -11206 0
818 -11206 0
644 -818 11206 0
736 -11207 0
-694 -11207 0
-736 694 11207 0
455 -11208 0
-772 -11208 0
-455 772 11208 0
901 -11209 0
652 -11209 0
-901 -652 11209 0
783 -11210 0
870 -11210 0
-783 -870 11210 0
623 -11211 0
865 -11211 0
-623 -865 11211 0
144 -11212 0
91 -11212 0
-144 -91 11212 0
510 -11213 0
646 -11213 0
-510 -646 11213 0
-840 -11214 0
247 -11214 0
840 -247 11214 0
-945 -11215 0
789 -11215 0
945 -789 11215 0
765 -11216 0
-132 -11216 0
-765 132 11216 0
768 -11217 0
-285 -11217 0
-768 285 11217 0
192 -11218 0
-220 -11218 0
-192 220 11218 0
259 -11219 0
578 -11219 0
-259 -578 11219 0
790 -11220 0
-575 -11220 0
-790 575 11220 0
-808 -11221 0
682 -11221 0
808 -682 11221 0
454 -11222 0
745 -11222 0
-454 -745 11222 0
603 -11223 0
-510 -11223 0
-603 510 11223 0
15 -11224 0
-242 -11224 0
-15 242 11224 0
303 -11225 0
-877 -11225 0
-303 877 11225 0
-368 -11226 0
685 -11226 0
368 -685 11226 0
199 -11227 0
604 -11227 0
-199 -604 11227 0
744 -11228 0
755 -11228 0
-744 -755 11228 0
-377 -11229 0
875 -11229 0
377 -875 11229 0
-370 -11230 0
997 -11230 0
370 -997 11230 0
280 -11231 0
892 -11231 0
-280 -892 11231 0
-171 -11232 0
331 -11232 0
171 -331 11232 0
256 -11233 0
575 -11233 0
-256 -575 11233 0
840 -11234 0
33 -11234 0
-840 -33 11234 0
-544 -11235 0
321 -11235 0
544 -321 11235 0
166 -11236 0
-652 -11236 0
-166 652 11236 0
-224 -11237 0
815 -11237 0
224 -815 11237 0
108 -11238 0
393 -11238 0
-108 -393 11238 0
-553 -11239 0
914 -11239 0
553 -914 11239 0
712 -11240 0
-250 -11240 0
-712 250 11240 0
16 -11241 0
-181 -11241 0
-16 181 11241 0
638 -11242 0
-699 -11242 0
-638 699 11242 0
308 -11243 0
-743 -11243 0
-308 743 11243 0
757 -11244 0
787 -11244 0
-757 -787 11244 0
215 -11245 0
-977 -11245 0
-215 977 11245 0
-909 -11246 0
930 -11246 0
909 -930 11246 0
-845 -11247 0
899 -11247 0
845 -899 11247 0
927 -11248 0
-788 -11248 0
-927 788 11248 0
-835 -11249 0
285 -11249 0
835 -285 11249 0
-67 -11250 0
69 -11250 0
67 -69 11250 0
-3 -11251 0
242 -11251 0
3 -242 11251 0
-992 -11252 0
42 -11252 0
992 -42 11252 0
-875 -11253 0
73 -11253 0
875 -73 11253 0
111 -11254 0
979 -11254 0
-111 -979 11254 0
4 -11255 0
-461 -11255 0
-4 461 11255 0
-158 -11256 0
42 -11256 0
158 -42 11256 0
477 -11257 0
-251 -11257 0
-477 251 11257 0
-781 -11258 0
674 -11258 0
781 -674 11258 0
608 -11259 0
850 -11259 0
-608 -850 11259 0
-328 -11260 0
131 -11260 0
328 -131 11260 0
-675 -11261 0
195 -11261 0
675 -195 11261 0
-722 -11262 0
186 -11262 0
722 -186 11262 0
496 -11263 0
436 -11263 0
-496 -436 11263 0
-368 -11264 0
812 -11264 0
368 -812 11264 0
575 -11265 0
794 -11265 0
-575 -794 11265 0
937 -11266 0
-271 -11266 0
-937 271 11266 0
-867 -11267 0
716 -11267 0
867 -716 11267 0
-996 -11268 0
465 -11268 0
996 -465 11268 0
335 -11269 0
634 -11269 0
-335 -634 11269 0
-328 -11270 0
680 -11270 0
328 -680 11270 0
477 -11271 0
892 -11271 0
-477 -892 11271 0
416 -11272 0
-70 -11272 0
-416 70 11272 0
463 -11273 0
116 -11273 0
-463 -116 11273 0
-330 -11274 0
595 -11274 0
330 -595 11274 0
-507 -11275 0
899 -11275 0
507 -899 11275 0
230 -11276 0
946 -11276 0
-230 -946 11276 0
-457 -11277 0
637 -11277 0
457 -637 11277 0
426 -11278 0
-87 -11278 0
-426 87 11278 0
987 -11279 0
913 -11279 0
-987 -913 11279 0
453 -11280 0
898 -11280 0
-453 -898 11280 0
357 -11281 0
404 -11281 0
-357 -404 11281 0
95 -11282 0
70 -11282 0
-95 -70 11282 0
703 -11283 0
-265 -11283 0
-703 265 11283 0
635 -11284 0
-846 -11284 0
-635 846 11284 0
-633 -11285 0
326 -11285 0
633 -326 11285 0
718 -11286 0
445 -11286 0
-718 -445 11286 0
-971 -11287 0
610 -11287 0
971 -610 11287 0
670 -11288 0
-828 -11288 0
-670 828 11288 0
132 -11289 0
713 -11289 0
-132 -713 11289 0
966 -11290 0
-134 -11290 0
-966 134 11290 0
175 -11291 0
-332 -11291 0
-175 332 11291 0
-681 -11292 0
19 -11292 0
681 -19 11292 0
527 -11293 0
18 -11293 0
-527 -18 11293 0
416 -11294 0
-55 -11294 0
-416 55 11294 0
533 -11295 0
819 -11295 0
-533 -819 11295 0
-200 -11296 0
977 -11296 0
200 -977 11296 0
47 -11297 0
-71 -11297 0
-47 71 11297 0
-129 -11298 0
180 -11298 0
129 -180 11298 0
-396 -11299 0
778 -11299 0
396 -778 11299 0
822 -11300 0
812 -11300 0
-822 -812 11300 0
-793 -11301 0
411 -11301 0
793 -411 11301 0
88 -11302 0
394 -11302 0
-88 -394 11302 0
-114 -11303 0
281 -11303 0
114 -281 11303 0
935 -11304 0
674 -11304 0
-935 -674 11304 0
647 -11305 0
-716 -11305 0
-647 716 11305 0
-985 -11306 0
556 -11306 0
985 -556 11306 0
174 -11307 0
875 -11307 0
-174 -875 11307 0
-856 -11308 0
797 -11308 0
856 -797 11308 0
463 -11309 0
222 -11309 0
-463 -222 11309 0
63 -11310 0
253 -11310 0
-63 -253 11310 0
232 -11311 0
-687 -11311 0
-232 687 11311 0
-713 -11312 0
646 -11312 0
713 -646 11312 0
233 -11313 0
977 -11313 0
-233 -977 11313 0
-619 -11314 0
153 -11314 0
619 -153 11314 0
688 -11315 0
-848 -11315 0
-688 848 11315 0
568 -11316 0
873 -11316 0
-568 -873 11316 0
337 -11317 0
17 -11317 0
-337 -17 11317 0
116 -11318 0
-559 -11318 0
-116 559 11318 0
552 -11319 0
-952 -11319 0
-552 952 11319 0
480 -11320 0
-208 -11320 0
-480 208 11320 0
935 -11321 0
-554 -11321 0
-935 554 11321 0
-881 -11322 0
163 -11322 0
881 -163 11322 0
87 -11323 0
-446 -11323 0
-87 446 11323 0
444 -11324 0
-991 -11324 0
-444 991 11324 0
443 -11325 0
-71 -11325 0
-443 71 11325 0
767 -11326 0
-711 -11326 0
-767 711 11326 0
-147 -11327 0
649 -11327 0
147 -649 11327 0
607 -11328 0
-404 -11328 0
-607 404 11328 0
-585 -11329 0
878 -11329 0
585 -878 11329 0
616 -11330 0
766 -11330 0
-616 -766 11330 0
480 -11331 0
-508 -11331 0
-480 508 11331 0
-779 -11332 0
434 -11332 0
779 -434 11332 0
768 -11333 0
-940 -11333 0
-768 940 11333 0
39 -11334 0
809 -11334 0
-39 -809 11334 0
-764 -11335 0
602 -11335 0
764 -602 11335 0
360 -11336 0
-417 -11336 0
-360 417 11336 0
-962 -11337 0
761 -11337 0
962 -761 11337 0
125 -11338 0
-884 -11338 0
-125 884 11338 0
-744 -11339 0
151 -11339 0
744 -151 11339 0
-812 -11340 0
457 -11340 0
812 -457 11340 0
-171 -11341 0
995 -11341 0
171 -995 11341 0
438 -11342 0
-541 -11342 0
-438 541 11342 0
879 -11343 0
283 -11343 0
-879 -283 11343 0
480 -11344 0
-833 -11344 0
-480 833 11344 0
-638 -11345 0
538 -11345 0
638 -538 11345 0
888 -11346 0
-271 -11346 0
-888 271 11346 0
-547 -11347 0
362 -11347 0
547 -362 11347 0
432 -11348 0
-124 -11348 0
-432 124 11348 0
248 -11349 0
50 -11349 0
-248 -50 11349 0
965 -11350 0
587 -11350 0
-965 -587 11350 0
147 -11351 0
-510 -11351 0
-147 510 11351 0
185 -11352 0
633 -11352 0
-185 -633 11352 0
359 -11353 0
373 -11353 0
-359 -373 11353 0
80 -11354 0
569 -11354 0
-80 -569 11354 0
-657 -11355 0
914 -11355 0
657 -914 11355 0
492 -11356 0
-782 -11356 0
-492 782 11356 0
813 -11357 0
505 -11357 0
-813 -505 11357 0
107 -11358 0
442 -11358 0
-107 -442 11358 0
368 -11359 0
-18 -11359 0
-368 18 11359 0
694 -11360 0
-126 -11360 0
-694 126 11360 0
703 -11361 0
453 -11361 0
-703 -453 11361 0
139 -11362 0
-118 -11362 0
-139 118 11362 0
944 -11363 0
-988 -11363 0
-944 988 11363 0
148 -11364 0
-783 -11364 0
-148 783 11364 0
-209 -11365 0
836 -11365 0
209 -836 11365 0
-98 -11366 0
66 -11366 0
98 -66 11366 0
727 -11367 0
-498 -11367 0
-727 498 11367 0
816 -11368 0
395 -11368 0
-816 -395 11368 0
-986 -11369 0
220 -11369 0
986 -220 11369 0
486 -11370 0
-655 -11370 0
-486 655 11370 0
-572 -11371 0
834 -11371 0
572 -834 11371 0
175 -11372 0
199 -11372 0
-175 -199 11372 0
-52 -11373 0
778 -11373 0
52 -778 11373 0
423 -11374 0
839 -11374 0
-423 -839 11374 0
438 -11375 0
-623 -11375 0
-438 623 11375 0
958 -11376 0
-995 -11376 0
-958 995 11376 0
34 -11377 0
418 -11377 0
-34 -418 11377 0
-874 -11378 0
137 -11378 0
874 -137 11378 0
480 -11379 0
-735 -11379 0
-480 735 11379 0
132 -11380 0
642 -11380 0
-132 -642 11380 0
365 -11381 0
788 -11381 0
-365 -788 11381 0
190 -11382 0
-482 -11382 0
-190 482 11382 0
-962 -11383 0
173 -11383 0
962 -173 11383 0
189 -11384 0
-84 -11384 0
-189 84 11384 0
-982 -11385 0
594 -11385 0
982 -594 11385 0
-801 -11386 0
701 -11386 0
801 -701 11386 0
134 -11387 0
501 -11387 0
-134 -501 11387 0
-19 -11388 0
739 -11388 0
19 -739 11388 0
-464 -11389 0
699 -11389 0
464 -699 11389 0
446 -11390 0
939 -11390 0
-446 -939 11390 0
-508 -11391 0
321 -11391 0
508 -321 11391 0
612 -11392 0
778 -11392 0
-612 -778 11392 0
565 -11393 0
-915 -11393 0
-565 915 11393 0
127 -11394 0
36 -11394 0
-127 -36 11394 0
350 -11395 0
182 -11395 0
-350 -182 11395 0
550 -11396 0
-118 -11396 0
-550 118 11396 0
-858 -11397 0
731 -11397 0
858 -731 11397 0
-944 -11398 0
982 -11398 0
944 -982 11398 0
756 -11399 0
201 -11399 0
-756 -201 11399 0
597 -11400 0
540 -11400 0
-597 -540 11400 0
879 -11401 0
-658 -11401 0
-879 658 11401 0
419 -11402 0
833 -11402 0
-419 -833 11402 0
597 -11403 0
500 -11403 0
-597 -500 11403 0
136 -11404 0
-840 -11404 0
-136 840 11404 0
-811 -11405 0
700 -11405 0
811 -700 11405 0
-190 -11406 0
498 -11406 0
190 -498 11406 0
739 -11407 0
689 -11407 0
-739 -689 11407 0
-784 -11408 0
448 -11408 0
784 -448 11408 0
856 -11409 0
947 -11409 0
-856 -947 11409 0
112 -11410 0
-4 -11410 0
-112 4 11410 0
746 -11411 0
-750 -11411 0
-746 750 11411 0
429 -11412 0
-982 -11412 0
-429 982 11412 0
731 -11413 0
-575 -11413 0
-731 575 11413 0
160 -11414 0
378 -11414 0
-160 -378 11414 0
-334 -11415 0
473 -11415 0
334 -473 11415 0
263 -11416 0
-290 -11416 0
-263 290 11416 0
948 -11417 0
481 -11417 0
-948 -481 11417 0
-688 -11418 0
706 -11418 0
688 -706 11418 0
589 -11419 0
393 -11419 0
-589 -393 11419 0
399 -11420 0
-290 -11420 0
-399 290 11420 0
-598 -11421 0
513 -11421 0
598 -513 11421 0
573 -11422 0
738 -11422 0
-573 -738 11422 0
316 -11423 0
747 -11423 0
-316 -747 11423 0
-492 -11424 0
260 -11424 0
492 -260 11424 0
37 -11425 0
564 -11425 0
-37 -564 11425 0
-329 -11426 0
131 -11426 0
329 -131 11426 0
766 -11427 0
235 -11427 0
-766 -235 11427 0
966 -11428 0
-643 -11428 0
-966 643 11428 0
688 -11429 0
631 -11429 0
-688 -631 11429 0
774 -11430 0
597 -11430 0
-774 -597 11430 0
-1 -11431 0
596 -11431 0
1 -596 11431 0
559 -11432 0
315 -11432 0
-559 -315 11432 0
829 -11433 0
529 -11433 0
-829 -529 11433 0
911 -11434 0
-359 -11434 0
-911 359 11434 0
263 -11435 0
-125 -11435 0
-263 125 11435 0
802 -11436 0
986 -11436 0
-802 -986 11436 0
134 -11437 0
476 -11437 0
-134 -476 11437 0
200 -11438 0
-258 -11438 0
-200 258 11438 0
602 -11439 0
-247 -11439 0
-602 247 11439 0
403 -11440 0
-981 -11440 0
-403 981 11440 0
-233 -11441 0
188 -11441 0
233 -188 11441 0
-960 -11442 0
294 -11442 0
960 -294 11442 0
869 -11443 0
5 -11443 0
-869 -5 11443 0
164 -11444 0
-655 -11444 0
-164 655 11444 0
455 -11445 0
-556 -11445 0
-455 556 11445 0
778 -11446 0
-831 -11446 0
-778 831 11446 0
880 -11447 0
286 -11447 0
-880 -286 11447 0
-315 -11448 0
745 -11448 0
315 -745 11448 0
11 -11449 0
-589 -11449 0
-11 589 11449 0
251 -11450 0
-262 -11450 0
-251 262 11450 0
-1000 -11451 0
925 -11451 0
1000 -925 11451 0
391 -11452 0
-50 -11452 0
-391 50 11452 0
-233 -11453 0
115 -11453 0
233 -115 11453 0
-657 -11454 0
833 -11454 0
657 -833 11454 0
767 -11455 0
729 -11455 0
-767 -729 11455 0
-922 -11456 0
171 -11456 0
922 -171 11456 0
-936 -11457 0
195 -11457 0
936 -195 11457 0
-530 -11458 0
950 -11458 0
530 -950 11458 0
-260 -11459 0
427 -11459 0
260 -427 11459 0
-177 -11460 0
537 -11460 0
177 -537 11460 0
32 -11461 0
223 -11461 0
-32 -223 11461 0
-737 -11462 0
967 -11462 0
737 -967 11462 0
461 -11463 0
-175 -11463 0
-461 175 11463 0
-820 -11464 0
419 -11464 0
820 -419 11464 0
718 -11465 0
-783 -11465 0
-718 783 11465 0
-867 -11466 0
130 -11466 0
867 -130 11466 0
-671 -11467 0
737 -11467 0
671 -737 11467 0
740 -11468 0
89 -11468 0
-740 -89 11468 0
-296 -11469 0
939 -11469 0
296 -939 11469 0
104 -11470 0
521 -11470 0
-104 -521 11470 0
965 -11471 0
-499 -11471 0
-965 499 11471 0
78 -11472 0
-650 -11472 0
-78 650 11472 0
-547 -11473 0
109 -11473 0
547 -109 11473 0
255 -11474 0
-20 -11474 0
-255 20 11474 0
157 -11475 0
-548 -11475 0
-157 548 11475 0
86 -11476 0
-999 -11476 0
-86 999 11476 0
-593 -11477 0
866 -11477 0
593 -866 11477 0
710 -11478 0
-110 -11478 0
-710 110 11478 0
408 -11479 0
825 -11479 0
-408 -825 11479 0
893 -11480 0
1 -11480 0
-893 -1 11480 0
20 -11481 0
289 -11481 0
-20 -289 11481 0
-124 -11482 0
585 -11482 0
124 -585 11482 0
715 -11483 0
98 -11483 0
-715 -98 11483 0
230 -11484 0
990 -11484 0
-230 -990 11484 0
-795 -11485 0
804 -11485 0
795 -804 11485 0
-165 -11486 0
169 -11486 0
165 -169 11486 0
-212 -11487 0
132 -11487 0
212 -132 11487 0
435 -11488 0
490 -11488 0
-435 -490 11488 0
749 -11489 0
348 -11489 0
-749 -348 11489 0
47 -11490 0
-555 -11490 0
-47 555 11490 0
70 -11491 0
148 -11491 0
-70 -148 11491 0
916 -11492 0
-358 -11492 0
-916 358 11492 0
12 -11493 0
-854 -11493 0
-12 854 11493 0
449 -11494 0
809 -11494 0
-449 -809 11494 0
-468 -11495 0
9 -11495 0
468 -9 11495 0
-659 -11496 0
483 -11496 0
659 -483 11496 0
799 -11497 0
802 -11497 0
-799 -802 11497 0
-821 -11498 0
865 -11498 0
821 -865 11498 0
-379 -11499 0
69 -11499 0
379 -69 11499 0
742 -11500 0
53 -11500 0
-742 -53 11500 0
263 -11501 0
-511 -11501 0
-263 511 11501 0
428 -11502 0
-597 -11502 0
-428 597 11502 0
-659 -11503 0
507 -11503 0
659 -507 11503 0
967 -11504 0
665 -11504 0
-967 -665 11504 0
672 -11505 0
-322 -11505 0
-672 322 11505 0
866 -11506 0
-535 -11506 0
-866 535 11506 0
-845 -11507 0
953 -11507 0
845 -953 11507 0
347 -11508 0
-735 -11508 0
-347 735 11508 0
103 -11509 0
572 -11509 0
-103 -572 11509 0
392 -11510 0
826 -11510 0
-392 -826 11510 0
399 -11511 0
234 -11511 0
-399 -234 11511 0
160 -11512 0
-413 -11512 0
-160 413 11512 0
419 -11513 0
-469 -11513 0
-419 469 11513 0
-198 -11514 0
353 -11514 0
198 -353 11514 0
672 -11515 0
-906 -11515 0
-672 906 11515 0
653 -11516 0
-845 -11516 0
-653 845 11516 0
-737 -11517 0
822 -11517 0
737 -822 11517 0
424 -11518 0
588 -11518 0
-424 -588 11518 0
-552 -11519 0
633 -11519 0
552 -633 11519 0
565 -11520 0
-527 -11520 0
-565 527 11520 0
467 -11521 0
-853 -11521 0
-467 853 11521 0
954 -11522 0
89 -11522 0
-954 -89 11522 0
-424 -11523 0
961 -11523 0
424 -961 11523 0
302 -11524 0
-307 -11524 0
-302 307 11524 0
-123 -11525 0
57 -11525 0
123 -57 11525 0
-224 -11526 0
380 -11526 0
224 -380 11526 0
-404 -11527 0
121 -11527 0
404 -121 11527 0
784 -11528 0
-347 -11528 0
-784 347 11528 0
934 -11529 0
410 -11529 0
-934 -410 11529 0
841 -11530 0
-591 -11530 0
-841 591 11530 0
-690 -11531 0
507 -11531 0
690 -507 11531 0
-237 -11532 0
826 -11532 0
237 -826 11532 0
825 -11533 0
481 -11533 0
-825 -481 11533 0
217 -11534 0
497 -11534 0
-217 -497 11534 0
-290 -11535 0
22 -11535 0
290 -22 11535 0
661 -11536 0
594 -11536 0
-661 -594 11536 0
-938 -11537 0
628 -11537 0
938 -628 11537 0
-555 -11538 0
428 -11538 0
555 -428 11538 0
-314 -11539 0
538 -11539 0
314 -538 11539 0
312 -11540 0
-276 -11540 0
-312 276 11540 0
-505 -11541 0
451 -11541 0
505 -451 11541 0
-545 -11542 0
777 -11542 0
545 -777 11542 0
223 -11543 0
225 -11543 0
-223 -225 11543 0
-549 -11544 0
123 -11544 0
549 -123 11544 0
568 -11545 0
172 -11545 0
-568 -172 11545 0
160 -11546 0
668 -11546 0
-160 -668 11546 0
-333 -11547 0
105 -11547 0
333 -105 11547 0
23 -11548 0
-997 -11548 0
-23 997 11548 0
944 -11549 0
-4 -11549 0
-944 4 11549 0
7 -11550 0
198 -11550 0
-7 -198 11550 0
-347 -11551 0
51 -11551 0
347 -51 11551 0
531 -11552 0
58 -11552 0
-531 -58 11552 0
-624 -11553 0
558 -11553 0
624 -558 11553 0
960 -11554 0
491 -11554 0
-960 -491 11554 0
96 -11555 0
882 -11555 0
-96 -882 11555 0
964 -11556 0
-109 -11556 0
-964 109 11556 0
360 -11557 0
-138 -11557 0
-360 138 11557 0
-360 -11558 0
772 -11558 0
360 -772 11558 0
872 -11559 0
-470 -11559 0
-872 470 11559 0
951 -11560 0
106 -11560 0
-951 -106 11560 0
-522 -11561 0
164 -11561 0
522 -164 11561 0
-884 -11562 0
641 -11562 0
884 -641 11562 0
-776 -11563 0
147 -11563 0
776 -147 11563 0
188 -11564 0
236 -11564 0
-188 -236 11564 0
383 -11565 0
694 -11565 0
-383 -694 11565 0
11 -11566 0
497 -11566 0
-11 -497 11566 0
350 -11567 0
997 -11567 0
-350 -997 11567 0
-242 -11568 0
995 -11568 0
242 -995 11568 0
870 -11569 0
-300 -11569 0
-870 300 11569 0
314 -11570 0
961 -11570 0
-314 -961 11570 0
599 -11571 0
-519 -11571 0
-599 519 11571 0
112 -11572 0
-333 -11572 0
-112 333 11572 0
298 -11573 0
-239 -11573 0
-298 239 11573 0
615 -11574 0
-598 -11574 0
-615 598 11574 0
928 -11575 0
-790 -11575 0
-928 790 11575 0
91 -11576 0
594 -11576 0
-91 -594 11576 0
587 -11577 0
170 -11577 0
-587 -170 11577 0
612 -11578 0
-183 -11578 0
-612 183 11578 0
467 -11579 0
-693 -11579 0
-467 693 11579 0
-674 -11580 0
12 -11580 0
674 -12 11580 0
613 -11581 0
-431 -11581 0
-613 431 11581 0
-634 -11582 0
355 -11582 0
634 -355 11582 0
927 -11583 0
-10 -11583 0
-927 10 11583 0
-10 -11584 0
133 -11584 0
10 -133 11584 0
496 -11585 0
561 -11585 0
-496 -561 11585 0
222 -11586 0
-967 -11586 0
-222 967 11586 0
-275 -11587 0
660 -11587 0
275 -660 11587 0
746 -11588 0
-695 -11588 0
-746 695 11588 0
160 -11589 0
-752 -11589 0
-160 752 11589 0
-464 -11590 0
611 -11590 0
464 -611 11590 0
-257 -11591 0
532 -11591 0
257 -532 11591 0
386 -11592 0
833 -11592 0
-386 -833 11592 0
-497 -11593 0
627 -11593 0
497 -627 11593 0
-102 -11594 0
57 -11594 0
102 -57 11594 0
-168 -11595 0
655 -11595 0
168 -655 11595 0
989 -11596 0
545 -11596 0
-989 -545 11596 0
-624 -11597 0
451 -11597 0
624 -451 11597 0
840 -11598 0
-871 -11598 0
-840 871 11598 0
863 -11599 0
598 -11599 0
-863 -598 11599 0
968 -11600 0
344 -11600 0
-968 -344 11600 0
446 -11601 0
747 -11601 0
-446 -747 11601 0
912 -11602 0
-746 -11602 0
-912 746 11602 0
-347 -11603 0
545 -11603 0
347 -545 11603 0
968 -11604 0
-609 -11604 0
-968 609 11604 0
991 -11605 0
569 -11605 0
-991 -569 11605 0
292 -11606 0
-311 -11606 0
-292 311 11606 0
687 -11607 0
108 -11607 0
-687 -108 11607 0
419 -11608 0
-422 -11608 0
-419 422 11608 0
896 -11609 0
724 -11609 0
-896 -724 11609 0
934 -11610 0
-340 -11610 0
-934 340 11610 0
448 -11611 0
-219 -11611 0
-448 219 11611 0
486 -11612 0
772 -11612 0
-486 -772 11612 0
-42 -11613 0
84 -11613 0
42 -84 11613 0
945 -11614 0
-287 -11614 0
-945 287 11614 0
-66 -11615 0
965 -11615 0
66 -965 11615 0
-426 -11616 0
212 -11616 0
426 -212 11616 0
-770 -11617 0
82 -11617 0
770 -82 11617 0
716 -11618 0
-807 -11618 0
-716 807 11618 0
32 -11619 0
211 -11619 0
-32 -211 11619 0
878 -11620 0
390 -11620 0
-878 -390 11620 0
326 -11621 0
339 -11621 0
-326 -339 11621 0
784 -11622 0
475 -11622 0
-784 -475 11622 0
46 -11623 0
873 -11623 0
-46 -873 11623 0
-384 -11624 0
467 -11624 0
384 -467 11624 0
797 -11625 0
-868 -11625 0
-797 868 11625 0
392 -11626 0
-751 -11626 0
-392 751 11626 0
-785 -11627 0
973 -11627 0
785 -973 11627 0
462 -11628 0
947 -11628 0
-462 -947 11628 0
469 -11629 0
3 -11629 0
-469 -3 11629 0
-117 -11630 0
586 -11630 0
117 -586 11630 0
94 -11631 0
-996 -11631 0
-94 996 11631 0
771 -11632 0
505 -11632 0
-771 -505 11632 0
386 -11633 0
218 -11633 0
-386 -218 11633 0
318 -11634 0
-701 -11634 0
-318 701 11634 0
555 -11635 0
843 -11635 0
-555 -843 11635 0
-210 -11636 0
233 -11636 0
210 -233 11636 0
599 -11637 0
903 -11637 0
-599 -903 11637 0
255 -11638 0
-979 -11638 0
-255 979 11638 0
-122 -11639 0
994 -11639 0
122 -994 11639 0
-297 -11640 0
94 -11640 0
297 -94 11640 0
-91 -11641 0
955 -11641 0
91 -955 11641 0
-838 -11642 0
514 -11642 0
838 -514 11642 0
-745 -11643 0
278 -11643 0
745 -278 11643 0
-419 -11644 0
277 -11644 0
419 -277 11644 0
12 -11645 0
-941 -11645 0
-12 941 11645 0
428 -11646 0
402 -11646 0
-428 -402 11646 0
734 -11647 0
585 -11647 0
-734 -585 11647 0
758 -11648 0
441 -11648 0
-758 -441 11648 0
952 -11649 0
-851 -11649 0
-952 851 11649 0
77 -11650 0
987 -11650 0
-77 -987 11650 0
462 -11651 0
-182 -11651 0
-462 182 11651 0
-553 -11652 0
41 -11652 0
553 -41 11652 0
815 -11653 0
133 -11653 0
-815 -133 11653 0
375 -11654 0
-516 -11654 0
-375 516 11654 0
-835 -11655 0
308 -11655 0
835 -308 11655 0
134 -11656 0
505 -11656 0
-134 -505 11656 0
-852 -11657 0
705 -11657 0
852 -705 11657 0
909 -11658 0
377 -11658 0
-909 -377 11658 0
-274 -11659 0
718 -11659 0
274 -718 11659 0
920 -11660 0
39 -11660 0
-920 -39 11660 0
271 -11661 0
44 -11661 0
-271 -44 11661 0
-570 -11662 0
548 -11662 0
570 -548 11662 0
-376 -11663 0
42 -11663 0
376 -42 11663 0
404 -11664 0
-462 -11664 0
-404 462 11664 0
259 -11665 0
-22 -11665 0
-259 22 11665 0
856 -11666 0
831 -11666 0
-856 -831 11666 0
-251 -11667 0
978 -11667 0
251 -978 11667 0
202 -11668 0
-702 -11668 0
-202 702 11668 0
-937 -11669 0
153 -11669 0
937 -153 11669 0
-300 -11670 0
762 -11670 0
300 -762 11670 0
533 -11671 0
-147 -11671 0
-533 147 11671 0
942 -11672 0
444 -11672 0
-942 -444 11672 0
-4 -11673 0
547 -11673 0
4 -547 11673 0
456 -11674 0
907 -11674 0
-456 -907 11674 0
-9 -11675 0
243 -11675 0
9 -243 11675 0
941 -11676 0
235 -11676 0
-941 -235 11676 0
164 -11677 0
-725 -11677 0
-164 725 11677 0
326 -11678 0
45 -11679 0
545 -11679 0
-45 -545 11679 0
919 -11680 0
-6 -11680 0
-919 6 11680 0
488 -11681 0
-218 -11681 0
-488 218 11681 0
-662 -11682 0
81 -11682 0
662 -81 11682 0
325 -11683 0
364 -11683 0
-325 -364 11683 0
-658 -11684 0
105 -11684 0
658 -105 11684 0
560 -11685 0
889 -11685 0
-560 -889 11685 0
-288 -11686 0
810 -11686 0
288 -810 11686 0
311 -11687 0
-902 -11687 0
-311 902 11687 0
672 -11688 0
-58 -11688 0
-672 58 11688 0
182 -11689 0
813 -11689 0
-182 -813 11689 0
-376 -11690 0
231 -11690 0
376 -231 11690 0
856 -11691 0
-815 -11691 0
-856 815 11691 0
-859 -11692 0
538 -11692 0
859 -538 11692 0
182 -11693 0
-197 -11693 0
-182 197 11693 0
-241 -11694 0
813 -11694 0
241 -813 11694 0
672 -11695 0
460 -11695 0
-672 -460 11695 0
80 -11696 0
234 -11696 0
-80 -234 11696 0
-217 -11697 0
6 -11697 0
217 -6 11697 0
375 -11698 0
740 -11698 0
-375 -740 11698 0
-899 -11699 0
924 -11699 0
899 -924 11699 0
-236 -11700 0
922 -11700 0
236 -922 11700 0
-17 -11701 0
306 -11701 0
17 -306 11701 0
748 -11702 0
666 -11702 0
-748 -666 11702 0
42 -11703 0
-655 -11703 0
-42 655 11703 0
839 -11704 0
746 -11704 0
-839 -746 11704 0
672 -11705 0
580 -11705 0
-672 -580 11705 0
453 -11706 0
-583 -11706 0
-453 583 11706 0
-105 -11707 0
755 -11707 0
105 -755 11707 0
-844 -11708 0
841 -11708 0
844 -841 11708 0
-99 -11709 0
133 -11709 0
99 -133 11709 0
616 -11710 0
850 -11710 0
-616 -850 11710 0
622 -11711 0
-943 -11711 0
-622 943 11711 0
37 -11712 0
-958 -11712 0
-37 958 11712 0
-537 -11713 0
63 -11713 0
537 -63 11713 0
-952 -11714 0
802 -11714 0
952 -802 11714 0
656 -11715 0
187 -11715 0
-656 -187 11715 0
150 -11716 0
-46 -11716 0
-150 46 11716 0
-468 -11717 0
636 -11717 0
468 -636 11717 0
134 -11718 0
-503 -11718 0
-134 503 11718 0
-192 -11719 0
462 -11719 0
192 -462 11719 0
461 -11720 0
36 -11720 0
-461 -36 11720 0
-296 -11721 0
30 -11721 0
296 -30 11721 0
542 -11722 0
293 -11722 0
-542 -293 11722 0
-393 -11723 0
853 -11723 0
393 -853 11723 0
959 -11724 0
454 -11724 0
-959 -454 11724 0
-433 -11725 0
812 -11725 0
433 -812 11725 0
200 -11726 0
-640 -11726 0
-200 640 11726 0
875 -11727 0
-103 -11727 0
-875 103 11727 0
59 -11728 0
650 -11728 0
-59 -650 11728 0
141 -11729 0
-630 -11729 0
-141 630 11729 0
34 -11730 0
161 -11730 0
-34 -161 11730 0
836 -11731 0
89 -11731 0
-836 -89 11731 0
-69 -11732 0
555 -11732 0
69 -555 11732 0
907 -11733 0
650 -11733 0
-907 -650 11733 0
971 -11734 0
-719 -11734 0
-971 719 11734 0
-785 -11735 0
713 -11735 0
785 -713 11735 0
63 -11736 0
-580 -11736 0
-63 580 11736 0
210 -11737 0
721 -11737 0
-210 -721 11737 0
998 -11738 0
-70 -11738 0
-998 70 11738 0
845 -11739 0
-309 -11739 0
-845 309 11739 0
709 -11740 0
-325 -11740 0
-709 325 11740 0
398 -11741 0
-981 -11741 0
-398 981 11741 0
-674 -11742 0
382 -11742 0
674 -382 11742 0
-251 -11743 0
917 -11743 0
251 -917 11743 0
-184 -11744 0
913 -11744 0
184 -913 11744 0
606 -11745 0
-405 -11745 0
-606 405 11745 0
543 -11746 0
516 -11746 0
-543 -516 11746 0
262 -11747 0
594 -11747 0
-262 -594 11747 0
710 -11748 0
557 -11748 0
-710 -557 11748 0
487 -11749 0
310 -11749 0
-487 -310 11749 0
40 -11750 0
-934 -11750 0
-40 934 11750 0
-432 -11751 0
212 -11751 0
432 -212 11751 0
542 -11752 0
515 -11752 0
-542 -515 11752 0
669 -11753 0
771 -11753 0
-669 -771 11753 0
877 -11754 0
786 -11754 0
-877 -786 11754 0
-619 -11755 0
429 -11755 0
619 -429 11755 0
541 -11756 0
946 -11756 0
-541 -946 11756 0
-745 -11757 0
601 -11757 0
745 -601 11757 0
54 -11758 0
-269 -11758 0
-54 269 11758 0
130 -11759 0
-286 -11759 0
-130 286 11759 0
-862 -11760 0
481 -11760 0
862 -481 11760 0
-626 -11761 0
234 -11761 0
626 -234 11761 0
827 -11762 0
-935 -11762 0
-827 935 11762 0
-328 -11763 0
525 -11763 0
328 -525 11763 0
308 -11764 0
124 -11764 0
-308 -124 11764 0
225 -11765 0
929 -11765 0
-225 -929 11765 0
816 -11766 0
761 -11766 0
-816 -761 11766 0
55 -11767 0
35 -11767 0
-55 -35 11767 0
960 -11768 0
-186 -11768 0
-960 186 11768 0
936 -11769 0
897 -11769 0
-936 -897 11769 0
850 -11770 0
-407 -11770 0
-850 407 11770 0
179 -11771 0
962 -11771 0
-179 -962 11771 0
216 -11772 0
494 -11772 0
-216 -494 11772 0
-521 -11773 0
243 -11773 0
521 -243 11773 0
440 -11774 0
711 -11774 0
-440 -711 11774 0
-966 -11775 0
889 -11775 0
966 -889 11775 0
-52 -11776 0
682 -11776 0
52 -682 11776 0
271 -11777 0
978 -11777 0
-271 -978 11777 0
965 -11778 0
443 -11778 0
-965 -443 11778 0
327 -11779 0
466 -11779 0
-327 -466 11779 0
127 -11780 0
462 -11780 0
-127 -462 11780 0
877 -11781 0
-477 -11781 0
-877 477 11781 0
-56 -11782 0
987 -11782 0
56 -987 11782 0
366 -11783 0
601 -11783 0
-366 -601 11783 0
8 -11784 0
-33 -11784 0
-8 33 11784 0
936 -11785 0
-650 -11785 0
-936 650 11785 0
652 -11786 0
460 -11786 0
-652 -460 11786 0
902 -11787 0
315 -11787 0
-902 -315 11787 0
-872 -11788 0
14 -11788 0
872 -14 11788 0
209 -11789 0
73 -11789 0
-209 -73 11789 0
-475 -11790 0
612 -11790 0
475 -612 11790 0
-498 -11791 0
986 -11791 0
498 -986 11791 0
53 -11792 0
-923 -11792 0
-53 923 11792 0
366 -11793 0
-30 -11793 0
-366 30 11793 0
-865 -11794 0
921 -11794 0
865 -921 11794 0
-460 -11795 0
948 -11795 0
460 -948 11795 0
255 -11796 0
334 -11796 0
-255 -334 11796 0
348 -11797 0
635 -11797 0
-348 -635 11797 0
-547 -11798 0
132 -11798 0
547 -132 11798 0
388 -11799 0
818 -11799 0
-388 -818 11799 0
-997 -11800 0
371 -11800 0
997 -371 11800 0
317 -11801 0
-765 -11801 0
-317 765 11801 0
494 -11802 0
733 -11802 0
-494 -733 11802 0
-523 -11803 0
669 -11803 0
523 -669 11803 0
607 -11804 0
-226 -11804 0
-607 226 11804 0
-707 -11805 0
492 -11805 0
707 -492 11805 0
165 -11806 0
196 -11806 0
-165 -196 11806 0
-169 -11807 0
155 -11807 0
169 -155 11807 0
-924 -11808 0
721 -11808 0
924 -721 11808 0
223 -11809 0
-271 -11809 0
-223 271 11809 0
909 -11810 0
682 -11810 0
-909 -682 11810 0
131 -11811 0
-967 -11811 0
-131 967 11811 0
388 -11812 0
257 -11812 0
-388 -257 11812 0
-521 -11813 0
12 -11813 0
521 -12 11813 0
-816 -11814 0
550 -11814 0
816 -550 11814 0
592 -11815 0
-753 -11815 0
-592 753 11815 0
326 -11816 0
-510 -11816 0
-326 510 11816 0
181 -11817 0
-541 -11817 0
-181 541 11817 0
-113 -11818 0
543 -11818 0
113 -543 11818 0
798 -11819 0
-628 -11819 0
-798 628 11819 0
957 -11820 0
805 -11820 0
-957 -805 11820 0
276 -11821 0
411 -11821 0
-276 -411 11821 0
552 -11822 0
-930 -11822 0
-552 930 11822 0
288 -11823 0
110 -11823 0
-288 -110 11823 0
152 -11824 0
86 -11824 0
-152 -86 11824 0
535 -11825 0
-451 -11825 0
-535 451 11825 0
-756 -11826 0
811 -11826 0
756 -811 11826 0
773 -11827 0
425 -11827 0
-773 -425 11827 0
863 -11828 0
218 -11828 0
-863 -218 11828 0
364 -11829 0
-372 -11829 0
-364 372 11829 0
678 -11830 0
-783 -11830 0
-678 783 11830 0
348 -11831 0
106 -11831 0
-348 -106 11831 0
807 -11832 0
388 -11832 0
-807 -388 11832 0
808 -11833 0
-790 -11833 0
-808 790 11833 0
-326 -11834 0
201 -11834 0
326 -201 11834 0
-364 -11835 0
874 -11835 0
364 -874 11835 0
-960 -11836 0
742 -11836 0
960 -742 11836 0
-840 -11837 0
53 -11837 0
840 -53 11837 0
-368 -11838 0
408 -11838 0
368 -408 11838 0
-953 -11839 0
65 -11839 0
953 -65 11839 0
923 -11840 0
499 -11840 0
-923 -499 11840 0
-323 -11841 0
395 -11841 0
323 -395 11841 0
-731 -11842 0
969 -11842 0
731 -969 11842 0
424 -11843 0
967 -11843 0
-424 -967 11843 0
988 -11844 0
489 -11844 0
-988 -489 11844 0
124 -11845 0
-294 -11845 0
-124 294 11845 0
-756 -11846 0
833 -11846 0
756 -833 11846 0
-412 -11847 0
964 -11847 0
412 -964 11847 0
443 -11848 0
-677 -11848 0
-443 677 11848 0
-133 -11849 0
993 -11849 0
133 -993 11849 0
381 -11850 0
-261 -11850 0
-381 261 11850 0
40 -11851 0
-589 -11851 0
-40 589 11851 0
94 -11852 0
858 -11852 0
-94 -858 11852 0
297 -11853 0
881 -11853 0
-297 -881 11853 0
900 -11854 0
675 -11854 0
-900 -675 11854 0
789 -11855 0
-62 -11855 0
-789 62 11855 0
427 -11856 0
-318 -11856 0
-427 318 11856 0
248 -11857 0
-42 -11857 0
-248 42 11857 0
-148 -11858 0
417 -11858 0
148 -417 11858 0
916 -11859 0
884 -11859 0
-916 -884 11859 0
624 -11860 0
497 -11860 0
-624 -497 11860 0
294 -11861 0
445 -11861 0
-294 -445 11861 0
734 -11862 0
-780 -11862 0
-734 780 11862 0
-664 -11863 0
457 -11863 0
664 -457 11863 0
301 -11864 0
233 -11864 0
-301 -233 11864 0
475 -11865 0
-655 -11865 0
-475 655 11865 0
890 -11866 0
-751 -11866 0
-890 751 11866 0
-491 -11867 0
180 -11867 0
491 -180 11867 0
630 -11868 0
514 -11868 0
-630 -514 11868 0
643 -11869 0
433 -11869 0
-643 -433 11869 0
-712 -11870 0
866 -11870 0
712 -866 11870 0
-412 -11871 0
666 -11871 0
412 -666 11871 0
933 -11872 0
-164 -11872 0
-933 164 11872 0
-899 -11873 0
59 -11873 0
899 -59 11873 0
987 -11874 0
-493 -11874 0
-987 493 11874 0
63 -11875 0
-220 -11875 0
-63 220 11875 0
-258 -11876 0
93 -11876 0
258 -93 11876 0
-868 -11877 0
922 -11877 0
868 -922 11877 0
572 -11878 0
1 -11878 0
-572 -1 11878 0
-283 -11879 0
389 -11879 0
283 -389 11879 0
580 -11880 0
-997 -11880 0
-580 997 11880 0
818 -11881 0
-895 -11881 0
-818 895 11881 0
616 -11882 0
100 -11882 0
-616 -100 11882 0
167 -11883 0
-271 -11883 0
-167 271 11883 0
573 -11884 0
-717 -11884 0
-573 717 11884 0
351 -11885 0
383 -11885 0
-351 -383 11885 0
233 -11886 0
321 -11886 0
-233 -321 11886 0
397 -11887 0
873 -11887 0
-397 -873 11887 0
462 -11888 0
-124 -11888 0
-462 124 11888 0
190 -11889 0
-407 -11889 0
-190 407 11889 0
414 -11890 0
-454 -11890 0
-414 454 11890 0
30 -11891 0
-438 -11891 0
-30 438 11891 0
870 -11892 0
-391 -11892 0
-870 391 11892 0
-698 -11893 0
604 -11893 0
698 -604 11893 0
-626 -11894 0
429 -11894 0
626 -429 11894 0
742 -11895 0
852 -11895 0
-742 -852 11895 0
900 -11896 0
-679 -11896 0
-900 679 11896 0
469 -11897 0
-844 -11897 0
-469 844 11897 0
-401 -11898 0
178 -11898 0
401 -178 11898 0
-682 -11899 0
323 -11899 0
682 -323 11899 0
491 -11900 0
746 -11900 0
-491 -746 11900 0
975 -11901 0
-119 -11901 0
-975 119 11901 0
502 -11902 0
921 -11902 0
-502 -921 11902 0
327 -11903 0
-475 -11903 0
-327 475 11903 0
424 -11904 0
359 -11904 0
-424 -359 11904 0
-656 -11905 0
413 -11905 0
656 -413 11905 0
716 -11906 0
-725 -11906 0
-716 725 11906 0
760 -11907 0
18 -11907 0
-760 -18 11907 0
46 -11908 0
-667 -11908 0
-46 667 11908 0
-97 -11909 0
161 -11909 0
97 -161 11909 0
552 -11910 0
-970 -11910 0
-552 970 11910 0
-781 -11911 0
19 -11911 0
781 -19 11911 0
-276 -11912 0
713 -11912 0
276 -713 11912 0
72 -11913 0
-817 -11913 0
-72 817 11913 0
574 -11914 0
388 -11914 0
-574 -388 11914 0
829 -11915 0
538 -11915 0
-829 -538 11915 0
200 -11916 0
569 -11916 0
-200 -569 11916 0
326 -11917 0
-699 -11917 0
-326 699 11917 0
688 -11918 0
-581 -11918 0
-688 581 11918 0
-604 -11919 0
393 -11919 0
604 -393 11919 0
-83 -11920 0
925 -11920 0
83 -925 11920 0
686 -11921 0
-125 -11921 0
-686 125 11921 0
76 -11922 0
-270 -11922 0
-76 270 11922 0
-70 -11923 0
273 -11923 0
70 -273 11923 0
472 -11924 0
50 -11924 0
-472 -50 11924 0
-552 -11925 0
386 -11925 0
552 -386 11925 0
310 -11926 0
785 -11926 0
-310 -785 11926 0
795 -11927 0
-166 -11927 0
-795 166 11927 0
568 -11928 0
211 -11928 0
-568 -211 11928 0
332 -11929 0
-703 -11929 0
-332 703 11929 0
640 -11930 0
325 -11930 0
-640 -325 11930 0
-608 -11931 0
40 -11931 0
608 -40 11931 0
997 -11932 0
-263 -11932 0
-997 263 11932 0
812 -11933 0
121 -11933 0
-812 -121 11933 0
-96 -11934 0
251 -11934 0
96 -251 11934 0
-674 -11935 0
980 -11935 0
674 -980 11935 0
-652 -11936 0
977 -11936 0
652 -977 11936 0
942 -11937 0
-53 -11937 0
-942 53 11937 0
-716 -11938 0
292 -11938 0
716 -292 11938 0
695 -11939 0
790 -11939 0
-695 -790 11939 0
415 -11940 0
-814 -11940 0
-415 814 11940 0
144 -11941 0
783 -11941 0
-144 -783 11941 0
196 -11942 0
875 -11942 0
-196 -875 11942 0
-336 -11943 0
398 -11943 0
336 -398 11943 0
-292 -11944 0
99 -11944 0
292 -99 11944 0
-920 -11945 0
572 -11945 0
920 -572 11945 0
-113 -11946 0
906 -11946 0
113 -906 11946 0
5 -11947 0
-781 -11947 0
-5 781 11947 0
416 -11948 0
-804 -11948 0
-416 804 11948 0
342 -11949 0
515 -11949 0
-342 -515 11949 0
-408 -11950 0
647 -11950 0
408 -647 11950 0
-314 -11951 0
762 -11951 0
314 -762 11951 0
103 -11952 0
756 -11952 0
-103 -756 11952 0
824 -11953 0
37 -11953 0
-824 -37 11953 0
-368 -11954 0
57 -11954 0
368 -57 11954 0
533 -11955 0
597 -11955 0
-533 -597 11955 0
246 -11956 0
-430 -11956 0
-246 430 11956 0
-360 -11957 0
559 -11957 0
360 -559 11957 0
-720 -11958 0
536 -11958 0
720 -536 11958 0
-532 -11959 0
939 -11959 0
532 -939 11959 0
607 -11960 0
595 -11960 0
-607 -595 11960 0
686 -11961 0
-219 -11961 0
-686 219 11961 0
323 -11962 0
881 -11962 0
-323 -881 11962 0
696 -11963 0
-915 -11963 0
-696 915 11963 0
508 -11964 0
-583 -11964 0
-508 583 11964 0
-458 -11965 0
25 -11965 0
458 -25 11965 0
949 -11966 0
25 -11966 0
-949 -25 11966 0
-793 -11967 0
798 -11967 0
793 -798 11967 0
888 -11968 0
-815 -11968 0
-888 815 11968 0
495 -11969 0
5 -11969 0
-495 -5 11969 0
848 -11970 0
794 -11970 0
-848 -794 11970 0
847 -11971 0
-630 -11971 0
-847 630 11971 0
493 -11972 0
778 -11972 0
-493 -778 11972 0
-786 -11973 0
155 -11973 0
786 -155 11973 0
431 -11974 0
-87 -11974 0
-431 87 11974 0
184 -11975 0
-258 -11975 0
-184 258 11975 0
-690 -11976 0
146 -11976 0
690 -146 11976 0
616 -11977 0
429 -11977 0
-616 -429 11977 0
-626 -11978 0
201 -11978 0
626 -201 11978 0
-592 -11979 0
94 -11979 0
592 -94 11979 0
997 -11980 0
297 -11980 0
-997 -297 11980 0
514 -11981 0
921 -11981 0
-514 -921 11981 0
200 -11982 0
-830 -11982 0
-200 830 11982 0
-694 -11983 0
817 -11983 0
694 -817 11983 0
-146 -11984 0
412 -11984 0
146 -412 11984 0
650 -11985 0
-807 -11985 0
-650 807 11985 0
399 -11986 0
545 -11986 0
-399 -545 11986 0
712 -11987 0
622 -11987 0
-712 -622 11987 0
255 -11988 0
931 -11988 0
-255 -931 11988 0
-848 -11989 0
191 -11989 0
848 -191 11989 0
670 -11990 0
155 -11990 0
-670 -155 11990 0
662 -11991 0
221 -11991 0
-662 -221 11991 0
459 -11992 0
265 -11992 0
-459 -265 11992 0
77 -11993 0
-437 -11993 0
-77 437 11993 0
40 -11994 0
321 -11994 0
-40 -321 11994 0
519 -11995 0
-390 -11995 0
-519 390 11995 0
988 -11996 0
43 -11996 0
-988 -43 11996 0
204 -11997 0
-39 -11997 0
-204 39 11997 0
-632 -11998 0
468 -11998 0
632 -468 11998 0
552 -11999 0
434 -11999 0
-552 -434 11999 0
927 -12000 0
91 -12000 0
-927 -91 12000 0
796 -12001 0
-359 -12001 0
-796 359 12001 0
287 -12002 0
1 -12002 0
-287 -1 12002 0
888 -12003 0
-484 -12003 0
-888 484 12003 0
246 -12004 0
313 -12004 0
-246 -313 12004 0
384 -12005 0
802 -12005 0
-384 -802 12005 0
-518 -12006 0
498 -12006 0
518 -498 12006 0
94 -12007 0
-159 -12007 0
-94 159 12007 0
-712 -12008 0
827 -12008 0
712 -827 12008 0
509 -12009 0
757 -12009 0
-509 -757 12009 0
70 -12010 0
517 -12010 0
-70 -517 12010 0
686 -12011 0
961 -12011 0
-686 -961 12011 0
175 -12012 0
-97 -12012 0
-175 97 12012 0
-536 -12013 0
10 -12013 0
536 -10 12013 0
-52 -12014 0
650 -12014 0
52 -650 12014 0
694 -12015 0
-90 -12015 0
-694 90 12015 0
463 -12016 0
188 -12016 0
-463 -188 12016 0
251 -12017 0
-22 -12017 0
-251 22 12017 0
-216 -12018 0
583 -12018 0
216 -583 12018 0
692 -12019 0
-719 -12019 0
-692 719 12019 0
892 -12020 0
-564 -12020 0
-892 564 12020 0
50 -12021 0
-367 -12021 0
-50 367 12021 0
422 -12022 0
161 -12022 0
-422 -161 12022 0
88 -12023 0
196 -12023 0
-88 -196 12023 0
100 -12024 0
-140 -12024 0
-100 140 12024 0
656 -12025 0
342 -12025 0
-656 -342 12025 0
720 -12026 0
594 -12026 0
-720 -594 12026 0
-938 -12027 0
22 -12027 0
938 -22 12027 0
755 -12028 0
-39 -12028 0
-755 39 12028 0
126 -12029 0
253 -12029 0
-126 -253 12029 0
-828 -12030 0
658 -12030 0
828 -658 12030 0
32 -12031 0
839 -12031 0
-32 -839 12031 0
-865 -12032 0
798 -12032 0
865 -798 12032 0
-827 -12033 0
698 -12033 0
827 -698 12033 0
-947 -12034 0
465 -12034 0
947 -465 12034 0
966 -12035 0
-846 -12035 0
-966 846 12035 0
-624 -12036 0
95 -12036 0
624 -95 12036 0
-178 -12037 0
522 -12037 0
178 -522 12037 0
695 -12038 0
-711 -12038 0
-695 711 12038 0
827 -12039 0
106 -12039 0
-827 -106 12039 0
-128 -12040 0
799 -12040 0
128 -799 12040 0
583 -12041 0
177 -12041 0
-583 -177 12041 0
-760 -12042 0
551 -12042 0
760 -551 12042 0
796 -12043 0
-455 -12043 0
-796 455 12043 0
488 -12044 0
757 -12044 0
-488 -757 12044 0
912 -12045 0
783 -12045 0
-912 -783 12045 0
662 -12046 0
-687 -12046 0
-662 687 12046 0
414 -12047 0
625 -12047 0
-414 -625 12047 0
173 -12048 0
507 -12048 0
-173 -507 12048 0
95 -12049 0
309 -12049 0
-95 -309 12049 0
370 -12050 0
834 -12050 0
-370 -834 12050 0
901 -12051 0
-158 -12051 0
-901 158 12051 0
189 -12052 0
948 -12052 0
-189 -948 12052 0
237 -12053 0
-877 -12053 0
-237 877 12053 0
-798 -12054 0
161 -12054 0
798 -161 12054 0
378 -12055 0
282 -12055 0
-378 -282 12055 0
679 -12056 0
-84 -12056 0
-679 84 12056 0
-527 -12057 0
761 -12057 0
527 -761 12057 0
78 -12058 0
974 -12058 0
-78 -974 12058 0
430 -12059 0
4 -12059 0
-430 -4 12059 0
770 -12060 0
785 -12060 0
-770 -785 12060 0
-677 -12061 0
937 -12061 0
677 -937 12061 0
-424 -12062 0
262 -12062 0
424 -262 12062 0
-977 -12063 0
188 -12063 0
977 -188 12063 0
-392 -12064 0
740 -12064 0
392 -740 12064 0
-192 -12065 0
938 -12065 0
192 -938 12065 0
-490 -12066 0
3 -12066 0
490 -3 12066 0
874 -12067 0
993 -12067 0
-874 -993 12067 0
741 -12068 0
451 -12068 0
-741 -451 12068 0
407 -12069 0
-245 -12069 0
-407 245 12069 0
311 -12070 0
-3 -12070 0
-311 3 12070 0
520 -12071 0
467 -12071 0
-520 -467 12071 0
992 -12072 0
-75 -12072 0
-992 75 12072 0
424 -12073 0
-854 -12073 0
-424 854 12073 0
-33 -12074 0
667 -12074 0
33 -667 12074 0
654 -12075 0
-26 -12075 0
-654 26 12075 0
376 -12076 0
-160 -12076 0
-376 160 12076 0
-665 -12077 0
204 -12077 0
665 -204 12077 0
249 -12078 0
-647 -12078 0
-249 647 12078 0
-369 -12079 0
949 -12079 0
369 -949 12079 0
463 -12080 0
-614 -12080 0
-463 614 12080 0
279 -12081 0
-959 -12081 0
-279 959 12081 0
758 -12082 0
593 -12082 0
-758 -593 12082 0
-252 -12083 0
883 -12083 0
252 -883 12083 0
352 -12084 0
15 -12084 0
-352 -15 12084 0
614 -12085 0
769 -12085 0
-614 -769 12085 0
-893 -12086 0
314 -12086 0
893 -314 12086 0
718 -12087 0
-925 -12087 0
-718 925 12087 0
716 -12088 0
73 -12088 0
-716 -73 12088 0
-153 -12089 0
638 -12089 0
153 -638 12089 0
36 -12090 0
-853 -12090 0
-36 853 12090 0
511 -12091 0
217 -12091 0
-511 -217 12091 0
895 -12092 0
41 -12092 0
-895 -41 12092 0
619 -12093 0
306 -12093 0
-619 -306 12093 0
551 -12094 0
-591 -12094 0
-551 591 12094 0
-416 -12095 0
243 -12095 0
416 -243 12095 0
552 -12096 0
-138 -12096 0
-552 138 12096 0
504 -12097 0
-55 -12097 0
-504 55 12097 0
404 -12098 0
-325 -12098 0
-404 325 12098 0
16 -12099 0
864 -12099 0
-16 -864 12099 0
399 -12100 0
169 -12100 0
-399 -169 12100 0
622 -12101 0
683 -12101 0
-622 -683 12101 0
-421 -12102 0
50 -12102 0
421 -50 12102 0
64 -12103 0
-912 -12103 0
-64 912 12103 0
-248 -12104 0
230 -12104 0
248 -230 12104 0
-897 -12105 0
742 -12105 0
897 -742 12105 0
-365 -12106 0
859 -12106 0
365 -859 12106 0
286 -12107 0
-926 -12107 0
-286 926 12107 0
607 -12108 0
865 -12108 0
-607 -865 12108 0
-234 -12109 0
228 -12109 0
234 -228 12109 0
-477 -12110 0
67 -12110 0
477 -67 12110 0
902 -12111 0
-468 -12111 0
-902 468 12111 0
-220 -12112 0
434 -12112 0
220 -434 12112 0
342 -12113 0
-932 -12113 0
-342 932 12113 0
822 -12114 0
172 -12114 0
-822 -172 12114 0
600 -12115 0
-271 -12115 0
-600 271 12115 0
-4 -12116 0
107 -12116 0
4 -107 12116 0
-932 -12117 0
394 -12117 0
932 -394 12117 0
-601 -12118 0
593 -12118 0
601 -593 12118 0
-67 -12119 0
565 -12119 0
67 -565 12119 0
-649 -12120 0
956 -12120 0
649 -956 12120 0
856 -12121 0
-635 -12121 0
-856 635 12121 0
13 -12122 0
825 -12122 0
-13 -825 12122 0
11 -12123 0
-815 -12123 0
-11 815 12123 0
696 -12124 0
646 -12124 0
-696 -646 12124 0
383 -12125 0
-479 -12125 0
-383 479 12125 0
597 -12126 0
-509 -12126 0
-597 509 12126 0
886 -12127 0
-98 -12127 0
-886 98 12127 0
-786 -12128 0
467 -12128 0
786 -467 12128 0
706 -12129 0
713 -12129 0
-706 -713 12129 0
-57 -12130 0
511 -12130 0
57 -511 12130 0
-577 -12131 0
477 -12131 0
577 -477 12131 0
29 -12132 0
561 -12132 0
-29 -561 12132 0
-932 -12133 0
699 -12133 0
932 -699 12133 0
70 -12134 0
868 -12134 0
-70 -868 12134 0
-216 -12135 0
48 -12135 0
216 -48 12135 0
616 -12136 0
-748 -12136 0
-616 748 12136 0
647 -12137 0
727 -12137 0
-647 -727 12137 0
639 -12138 0
-292 -12138 0
-639 292 12138 0
-112 -12139 0
308 -12139 0
112 -308 12139 0
43 -12140 0
362 -12140 0
-43 -362 12140 0
63 -12141 0
823 -12141 0
-63 -823 12141 0
261 -12142 0
-799 -12142 0
-261 799 12142 0
-745 -12143 0
598 -12143 0
745 -598 12143 0
58 -12144 0
242 -12144 0
-58 -242 12144 0
372 -12145 0
35 -12145 0
-372 -35 12145 0
-49 -12146 0
436 -12146 0
49 -436 12146 0
751 -12147 0
757 -12147 0
-751 -757 12147 0
342 -12148 0
-652 -12148 0
-342 652 12148 0
-822 -12149 0
625 -12149 0
822 -625 12149 0
422 -12150 0
-538 -12150 0
-422 538 12150 0
287 -12151 0
422 -12151 0
-287 -422 12151 0
603 -12152 0
-46 -12152 0
-603 46 12152 0
699 -12153 0
913 -12153 0
-699 -913 12153 0
303 -12154 0
619 -12154 0
-303 -619 12154 0
-92 -12155 0
771 -12155 0
92 -771 12155 0
467 -12156 0
-335 -12156 0
-467 335 12156 0
70 -12157 0
-700 -12157 0
-70 700 12157 0
792 -12158 0
-486 -12158 0
-792 486 12158 0
175 -12159 0
-490 -12159 0
-175 490 12159 0
-627 -12160 0
485 -12160 0
627 -485 12160 0
-641 -12161 0
982 -12161 0
641 -982 12161 0
972 -12162 0
-541 -12162 0
-972 541 12162 0
-473 -12163 0
202 -12163 0
473 -202 12163 0
-706 -12164 0
827 -12164 0
706 -827 12164 0
768 -12165 0
508 -12165 0
-768 -508 12165 0
-536 -12166 0
587 -12166 0
536 -587 12166 0
63 -12167 0
-718 -12167 0
-63 718 12167 0
974 -12168 0
636 -12168 0
-974 -636 12168 0
759 -12169 0
700 -12169 0
-759 -700 12169 0
598 -12170 0
-252 -12170 0
-598 252 12170 0
-153 -12171 0
802 -12171 0
153 -802 12171 0
941 -12172 0
-439 -12172 0
-941 439 12172 0
300 -12173 0
-341 -12173 0
-300 341 12173 0
423 -12174 0
908 -12174 0
-423 -908 12174 0
120 -12175 0
510 -12175 0
-120 -510 12175 0
580 -12176 0
-318 -12176 0
-580 318 12176 0
445 -12177 0
-259 -12177 0
-445 259 12177 0
-150 -12178 0
809 -12178 0
150 -809 12178 0
502 -12179 0
-829 -12179 0
-502 829 12179 0
975 -12180 0
947 -12180 0
-975 -947 12180 0
36 -12181 0
27 -12181 0
-36 -27 12181 0
446 -12182 0
426 -12182 0
-446 -426 12182 0
-770 -12183 0
757 -12183 0
770 -757 12183 0
710 -12184 0
361 -12184 0
-710 -361 12184 0
165 -12185 0
492 -12185 0
-165 -492 12185 0
294 -12186 0
-204 -12186 0
-294 204 12186 0
643 -12187 0
-159 -12187 0
-643 159 12187 0
134 -12188 0
-172 -12188 0
-134 172 12188 0
197 -12189 0
321 -12189 0
-197 -321 12189 0
831 -12190 0
122 -12190 0
-831 -122 12190 0
-905 -12191 0
677 -12191 0
905 -677 12191 0
-56 -12192 0
316 -12192 0
56 -316 12192 0
300 -12193 0
-518 -12193 0
-300 518 12193 0
472 -12194 0
956 -12194 0
-472 -956 12194 0
71 -12195 0
-665 -12195 0
-71 665 12195 0
919 -12196 0
-618 -12196 0
-919 618 12196 0
-842 -12197 0
345 -12197 0
842 -345 12197 0
120 -12198 0
659 -12198 0
-120 -659 12198 0
-755 -12199 0
220 -12199 0
755 -220 12199 0
288 -12200 0
-685 -12200 0
-288 685 12200 0
632 -12201 0
110 -12201 0
-632 -110 12201 0
520 -12202 0
121 -12202 0
-520 -121 12202 0
86 -12203 0
-826 -12203 0
-86 826 12203 0
-355 -12204 0
396 -12204 0
355 -396 12204 0
-616 -12205 0
42 -12205 0
616 -42 12205 0
399 -12206 0
-455 -12206 0
-399 455 12206 0
748 -12207 0
66 -12207 0
-748 -66 12207 0
625 -12208 0
649 -12208 0
-625 -649 12208 0
172 -12209 0
107 -12209 0
-172 -107 12209 0
696 -12210 0
-795 -12210 0
-696 795 12210 0
-589 -12211 0
722 -12211 0
589 -722 12211 0
774 -12212 0
-124 -12212 0
-774 124 12212 0
-113 -12213 0
658 -12213 0
113 -658 12213 0
744 -12214 0
-130 -12214 0
-744 130 12214 0
-992 -12215 0
472 -12215 0
992 -472 12215 0
-939 -12216 0
954 -12216 0
939 -954 12216 0
223 -12217 0
741 -12217 0
-223 -741 12217 0
46 -12218 0
-691 -12218 0
-46 691 12218 0
-315 -12219 0
867 -12219 0
315 -867 12219 0
723 -12220 0
826 -12220 0
-723 -826 12220 0
710 -12221 0
-931 -12221 0
-710 931 12221 0
-51 -12222 0
573 -12222 0
51 -573 12222 0
-489 -12223 0
890 -12223 0
489 -890 12223 0
339 -12224 0
426 -12224 0
-339 -426 12224 0
184 -12225 0
564 -12225 0
-184 -564 12225 0
229 -12226 0
-22 -12226 0
-229 22 12226 0
-89 -12227 0
887 -12227 0
89 -887 12227 0
-227 -12228 0
355 -12228 0
227 -355 12228 0
88 -12229 0
-150 -12229 0
-88 150 12229 0
-381 -12230 0
418 -12230 0
381 -418 12230 0
-561 -12231 0
297 -12231 0
561 -297 12231 0
783 -12232 0
403 -12232 0
-783 -403 12232 0
256 -12233 0
-766 -12233 0
-256 766 12233 0
149 -12234 0
531 -12234 0
-149 -531 12234 0
-514 -12235 0
499 -12235 0
514 -499 12235 0
140 -12236 0
-31 -12236 0
-140 31 12236 0
-993 -12237 0
493 -12237 0
993 -493 12237 0
-748 -12238 0
811 -12238 0
748 -811 12238 0
550 -12239 0
747 -12239 0
-550 -747 12239 0
279 -12240 0
523 -12240 0
-279 -523 12240 0
-538 -12241 0
629 -12241 0
538 -629 12241 0
648 -12242 0
-110 -12242 0
-648 110 12242 0
626 -12243 0
114 -12243 0
-626 -114 12243 0
720 -12244 0
305 -12244 0
-720 -305 12244 0
-354 -12245 0
673 -12245 0
354 -673 12245 0
934 -12246 0
-117 -12246 0
-934 117 12246 0
454 -12247 0
421 -12247 0
-454 -421 12247 0
-568 -12248 0
479 -12248 0
568 -479 12248 0
-376 -12249 0
887 -12249 0
376 -887 12249 0
832 -12250 0
-225 -12250 0
-832 225 12250 0
-355 -12251 0
874 -12251 0
355 -874 12251 0
331 -12252 0
73 -12252 0
-331 -73 12252 0
43 -12253 0
-485 -12253 0
-43 485 12253 0
755 -12254 0
-646 -12254 0
-755 646 12254 0
439 -12255 0
-114 -12255 0
-439 114 12255 0
422 -12256 0
765 -12256 0
-422 -765 12256 0
-80 -12257 0
988 -12257 0
80 -988 12257 0
511 -12258 0
-611 -12258 0
-511 611 12258 0
808 -12259 0
377 -12259 0
-808 -377 12259 0
-594 -12260 0
893 -12260 0
594 -893 12260 0
272 -12261 0
211 -12261 0
-272 -211 12261 0
479 -12262 0
7 -12262 0
-479 -7 12262 0
-556 -12263 0
274 -12263 0
556 -274 12263 0
936 -12264 0
567 -12264 0
-936 -567 12264 0
47 -12265 0
-36 -12265 0
-47 36 12265 0
424 -12266 0
733 -12266 0
-424 -733 12266 0
-324 -12267 0
284 -12267 0
324 -284 12267 0
735 -12268 0
309 -12268 0
-735 -309 12268 0
96 -12269 0
-524 -12269 0
-96 524 12269 0
655 -12270 0
-660 -12270 0
-655 660 12270 0
383 -12271 0
962 -12271 0
-383 -962 12271 0
-995 -12272 0
202 -12272 0
995 -202 12272 0
156 -12273 0
860 -12273 0
-156 -860 12273 0
784 -12274 0
-688 -12274 0
-784 688 12274 0
-706 -12275 0
50 -12275 0
706 -50 12275 0
645 -12276 0
772 -12276 0
-645 -772 12276 0
-444 -12277 0
897 -12277 0
444 -897 12277 0
756 -12278 0
-590 -12278 0
-756 590 12278 0
884 -12279 0
370 -12279 0
-884 -370 12279 0
-771 -12280 0
596 -12280 0
771 -596 12280 0
307 -12281 0
531 -12281 0
-307 -531 12281 0
691 -12282 0
-71 -12282 0
-691 71 12282 0
259 -12283 0
-6 -12283 0
-259 6 12283 0
338 -12284 0
-895 -12284 0
-338 895 12284 0
-210 -12285 0
12 -12285 0
210 -12 12285 0
183 -12286 0
773 -12286 0
-183 -773 12286 0
-930 -12287 0
316 -12287 0
930 -316 12287 0
167 -12288 0
-250 -12288 0
-167 250 12288 0
-52 -12289 0
964 -12289 0
52 -964 12289 0
-125 -12290 0
610 -12290 0
125 -610 12290 0
797 -12291 0
586 -12291 0
-797 -586 12291 0
880 -12292 0
70 -12292 0
-880 -70 12292 0
230 -12293 0
622 -12293 0
-230 -622 12293 0
515 -12294 0
595 -12294 0
-515 -595 12294 0
503 -12295 0
6 -12295 0
-503 -6 12295 0
784 -12296 0
671 -12296 0
-784 -671 12296 0
-533 -12297 0
465 -12297 0
533 -465 12297 0
-952 -12298 0
231 -12298 0
952 -231 12298 0
288 -12299 0
-544 -12299 0
-288 544 12299 0
-512 -12300 0
459 -12300 0
512 -459 12300 0
-475 -12301 0
277 -12301 0
475 -277 12301 0
107 -12302 0
-374 -12302 0
-107 374 12302 0
286 -12303 0
-725 -12303 0
-286 725 12303 0
-936 -12304 0
274 -12304 0
936 -274 12304 0
679 -12305 0
-619 -12305 0
-679 619 12305 0
181 -12306 0
931 -12306 0
-181 -931 12306 0
400 -12307 0
690 -12307 0
-400 -690 12307 0
21 -12308 0
-103 -12308 0
-21 103 12308 0
-369 -12309 0
919 -12309 0
369 -919 12309 0
38 -12310 0
618 -12310 0
-38 -618 12310 0
-33 -12311 0
469 -12311 0
33 -469 12311 0
-776 -12312 0
478 -12312 0
776 -478 12312 0
166 -12313 0
857 -12313 0
-166 -857 12313 0
-649 -12314 0
644 -12314 0
649 -644 12314 0
926 -12315 0
17 -12315 0
-926 -17 12315 0
372 -12316 0
571 -12316 0
-372 -571 12316 0
618 -12317 0
353 -12317 0
-618 -353 12317 0
701 -12318 0
379 -12318 0
-701 -379 12318 0
149 -12319 0
-340 -12319 0
-149 340 12319 0
430 -12320 0
-365 -12320 0
-430 365 12320 0
-739 -12321 0
565 -12321 0
739 -565 12321 0
157 -12322 0
49 -12322 0
-157 -49 12322 0
880 -12323 0
82 -12323 0
-880 -82 12323 0
-224 -12324 0
618 -12324 0
224 -618 12324 0
348 -12325 0
-415 -12325 0
-348 415 12325 0
487 -12326 0
293 -12326 0
-487 -293 12326 0
168 -12327 0
65 -12327 0
-168 -65 12327 0
52 -12328 0
123 -12328 0
-52 -123 12328 0
61 -12329 0
-287 -12329 0
-61 287 12329 0
773 -12330 0
587 -12330 0
-773 -587 12330 0
512 -12331 0
-469 -12331 0
-512 469 12331 0
-809 -12332 0
75 -12332 0
809 -75 12332 0
454 -12333 0
-396 -12333 0
-454 396 12333 0
645 -12334 0
570 -12334 0
-645 -570 12334 0
144 -12335 0
-812 -12335 0
-144 812 12335 0
-377 -12336 0
495 -12336 0
377 -495 12336 0
629 -12337 0
57 -12337 0
-629 -57 12337 0
502 -12338 0
325 -12338 0
-502 -325 12338 0
629 -12339 0
637 -12339 0
-629 -637 12339 0
451 -12340 0
602 -12340 0
-451 -602 12340 0
-788 -12341 0
746 -12341 0
788 -746 12341 0
-564 -12342 0
106 -12342 0
564 -106 12342 0
424 -12343 0
470 -12343 0
-424 -470 12343 0
-544 -12344 0
492 -12344 0
544 -492 12344 0
359 -12345 0
977 -12345 0
-359 -977 12345 0
-136 -12346 0
639 -12346 0
136 -639 12346 0
302 -12347 0
-522 -12347 0
-302 522 12347 0
-715 -12348 0
2 -12348 0
715 -2 12348 0
-353 -12349 0
52 -12349 0
353 -52 12349 0
-836 -12350 0
491 -12350 0
836 -491 12350 0
203 -12351 0
-94 -12351 0
-203 94 12351 0
407 -12352 0
303 -12352 0
-407 -303 12352 0
-806 -12353 0
658 -12353 0
806 -658 12353 0
595 -12354 0
289 -12354 0
-595 -289 12354 0
151 -12355 0
663 -12355 0
-151 -663 12355 0
406 -12356 0
913 -12356 0
-406 -913 12356 0
798 -12357 0
-755 -12357 0
-798 755 12357 0
502 -12358 0
-943 -12358 0
-502 943 12358 0
597 -12359 0
57 -12359 0
-597 -57 12359 0
173 -12360 0
149 -12360 0
-173 -149 12360 0
719 -12361 0
948 -12361 0
-719 -948 12361 0
-665 -12362 0
844 -12362 0
665 -844 12362 0
-672 -12363 0
353 -12363 0
672 -353 12363 0
-98 -12364 0
508 -12364 0
98 -508 12364 0
29 -12365 0
-884 -12365 0
-29 884 12365 0
673 -12366 0
81 -12366 0
-673 -81 12366 0
326 -12367 0
-46 -12367 0
-326 46 12367 0
958 -12368 0
-437 -12368 0
-958 437 12368 0
-704 -12369 0
315 -12369 0
704 -315 12369 0
160 -12370 0
-235 -12370 0
-160 235 12370 0
416 -12371 0
-349 -12371 0
-416 349 12371 0
119 -12372 0
234 -12372 0
-119 -234 12372 0
934 -12373 0
-742 -12373 0
-934 742 12373 0
840 -12374 0
215 -12374 0
-840 -215 12374 0
-146 -12375 0
369 -12375 0
146 -369 12375 0
-624 -12376 0
187 -12376 0
624 -187 12376 0
334 -12377 0
-60 -12377 0
-334 60 12377 0
43 -12378 0
-415 -12378 0
-43 415 12378 0
283 -12379 0
449 -12379 0
-283 -449 12379 0
-946 -12380 0
260 -12380 0
946 -260 12380 0
807 -12381 0
-611 -12381 0
-807 611 12381 0
-163 -12382 0
921 -12382 0
163 -921 12382 0
787 -12383 0
-301 -12383 0
-787 301 12383 0
-344 -12384 0
860 -12384 0
344 -860 12384 0
295 -12385 0
625 -12385 0
-295 -625 12385 0
998 -12386 0
971 -12386 0
-998 -971 12386 0
-410 -12387 0
869 -12387 0
410 -869 12387 0
108 -12388 0
-607 -12388 0
-108 607 12388 0
335 -12389 0
748 -12389 0
-335 -748 12389 0
576 -12390 0
-103 -12390 0
-576 103 12390 0
700 -12391 0
-671 -12391 0
-700 671 12391 0
583 -12392 0
171 -12392 0
-583 -171 12392 0
485 -12393 0
-566 -12393 0
-485 566 12393 0
-531 -12394 0
945 -12394 0
531 -945 12394 0
-698 -12395 0
89 -12395 0
698 -89 12395 0
471 -12396 0
364 -12396 0
-471 -364 12396 0
-513 -12397 0
307 -12397 0
513 -307 12397 0
-150 -12398 0
321 -12398 0
150 -321 12398 0
-643 -12399 0
601 -12399 0
643 -601 12399 0
-853 -12400 0
883 -12400 0
853 -883 12400 0
-936 -12401 0
158 -12401 0
936 -158 12401 0
-788 -12402 0
195 -12402 0
788 -195 12402 0
679 -12403 0
-51 -12403 0
-679 51 12403 0
555 -12404 0
433 -12404 0
-555 -433 12404 0
284 -12405 0
-197 -12405 0
-284 197 12405 0
913 -12406 0
-287 -12406 0
-913 287 12406 0
106 -12407 0
-998 -12407 0
-106 998 12407 0
966 -12408 0
845 -12408 0
-966 -845 12408 0
-499 -12409 0
732 -12409 0
499 -732 12409 0
871 -12410 0
-549 -12410 0
-871 549 12410 0
-409 -12411 0
897 -12411 0
409 -897 12411 0
-601 -12412 0
932 -12412 0
601 -932 12412 0
-411 -12413 0
650 -12413 0
411 -650 12413 0
579 -12414 0
866 -12414 0
-579 -866 12414 0
-155 -12415 0
532 -12415 0
155 -532 12415 0
-157 -12416 0
505 -12416 0
157 -505 12416 0
-585 -12417 0
778 -12417 0
585 -778 12417 0
573 -12418 0
-623 -12418 0
-573 623 12418 0
506 -12419 0
345 -12419 0
-506 -345 12419 0
-907 -12420 0
893 -12421 0
322 -12421 0
-893 -322 12421 0
197 -12422 0
-151 -12422 0
-197 151 12422 0
936 -12423 0
-412 -12423 0
-936 412 12423 0
854 -12424 0
-189 -12424 0
-854 189 12424 0
629 -12425 0
940 -12425 0
-629 -940 12425 0
232 -12426 0
-998 -12426 0
-232 998 12426 0
766 -12427 0
-10 -12427 0
-766 10 12427 0
-688 -12428 0
91 -12428 0
688 -91 12428 0
-760 -12429 0
94 -12429 0
760 -94 12429 0
472 -12430 0
-861 -12430 0
-472 861 12430 0
848 -12431 0
-413 -12431 0
-848 413 12431 0
-454 -12432 0
2 -12432 0
454 -2 12432 0
156 -12433 0
-245 -12433 0
-156 245 12433 0
927 -12434 0
-903 -12434 0
-927 903 12434 0
507 -12435 0
-575 -12435 0
-507 575 12435 0
747 -12436 0
-182 -12436 0
-747 182 12436 0
-899 -12437 0
308 -12437 0
899 -308 12437 0
752 -12438 0
851 -12438 0
-752 -851 12438 0
783 -12439 0
253 -12439 0
-783 -253 12439 0
656 -12440 0
-780 -12440 0
-656 780 12440 0
749 -12441 0
-214 -12441 0
-749 214 12441 0
763 -12442 0
-117 -12442 0
-763 117 12442 0
64 -12443 0
959 -12443 0
-64 -959 12443 0
-947 -12444 0
322 -12444 0
947 -322 12444 0
569 -12445 0
-639 -12445 0
-569 639 12445 0
476 -12446 0
-629 -12446 0
-476 629 12446 0
383 -12447 0
211 -12447 0
-383 -211 12447 0
364 -12448 0
-437 -12448 0
-364 437 12448 0
-760 -12449 0
259 -12449 0
760 -259 12449 0
184 -12450 0
567 -12450 0
-184 -567 12450 0
-956 -12451 0
554 -12451 0
956 -554 12451 0
-256 -12452 0
258 -12452 0
256 -258 12452 0
-303 -12453 0
577 -12453 0
303 -577 12453 0
374 -12454 0
-399 -12454 0
-374 399 12454 0
-210 -12455 0
777 -12455 0
210 -777 12455 0
-48 -12456 0
625 -12456 0
48 -625 12456 0
736 -12457 0
372 -12457 0
-736 -372 12457 0
648 -12458 0
750 -12458 0
-648 -750 12458 0
896 -12459 0
295 -12459 0
-896 -295 12459 0
733 -12460 0
131 -12460 0
-733 -131 12460 0
-898 -12461 0
337 -12461 0
898 -337 12461 0
-730 -12462 0
773 -12462 0
730 -773 12462 0
605 -12463 0
-486 -12463 0
-605 486 12463 0
332 -12464 0
778 -12464 0
-332 -778 12464 0
926 -12465 0
-263 -12465 0
-926 263 12465 0
397 -12466 0
491 -12466 0
-397 -491 12466 0
-761 -12467 0
356 -12467 0
761 -356 12467 0
-330 -12468 0
668 -12468 0
330 -668 12468 0
566 -12469 0
729 -12469 0
-566 -729 12469 0
709 -12470 0
861 -12470 0
-709 -861 12470 0
655 -12471 0
-529 -12471 0
-655 529 12471 0
728 -12472 0
-338 -12472 0
-728 338 12472 0
517 -12473 0
-892 -12473 0
-517 892 12473 0
675 -12474 0
-293 -12474 0
-675 293 12474 0
-722 -12475 0
235 -12475 0
722 -235 12475 0
246 -12476 0
131 -12476 0
-246 -131 12476 0
509 -12477 0
-835 -12477 0
-509 835 12477 0
-434 -12478 0
539 -12478 0
434 -539 12478 0
-498 -12479 0
803 -12479 0
498 -803 12479 0
624 -12480 0
-25 -12480 0
-624 25 12480 0
-883 -12481 0
337 -12481 0
883 -337 12481 0
-200 -12482 0
197 -12482 0
200 -197 12482 0
152 -12483 0
974 -12483 0
-152 -974 12483 0
230 -12484 0
445 -12484 0
-230 -445 12484 0
398 -12485 0
955 -12485 0
-398 -955 12485 0
168 -12486 0
-693 -12486 0
-168 693 12486 0
816 -12487 0
611 -12487 0
-816 -611 12487 0
816 -12488 0
744 -12488 0
-816 -744 12488 0
-888 -12489 0
758 -12489 0
888 -758 12489 0
435 -12490 0
-149 -12490 0
-435 149 12490 0
-624 -12491 0
366 -12491 0
624 -366 12491 0
600 -12492 0
-961 -12492 0
-600 961 12492 0
696 -12493 0
-599 -12493 0
-696 599 12493 0
-595 -12494 0
988 -12494 0
595 -988 12494 0
-112 -12495 0
71 -12495 0
112 -71 12495 0
680 -12496 0
-726 -12496 0
-680 726 12496 0
744 -12497 0
-437 -12497 0
-744 437 12497 0
238 -12498 0
404 -12498 0
-238 -404 12498 0
-761 -12499 0
58 -12499 0
761 -58 12499 0
16 -12500 0
230 -12500 0
-16 -230 12500 0
808 -12501 0
521 -12501 0
-808 -521 12501 0
-930 -12502 0
241 -12502 0
930 -241 12502 0
34 -12503 0
617 -12503 0
-34 -617 12503 0
919 -12504 0
821 -12504 0
-919 -821 12504 0
394 -12505 0
-95 -12505 0
-394 95 12505 0
622 -12506 0
-438 -12506 0
-622 438 12506 0
-386 -12507 0
493 -12507 0
386 -493 12507 0
741 -12508 0
-975 -12508 0
-741 975 12508 0
-65 -12509 0
883 -12509 0
65 -883 12509 0
504 -12510 0
217 -12510 0
-504 -217 12510 0
319 -12511 0
621 -12511 0
-319 -621 12511 0
61 -12512 0
138 -12512 0
-61 -138 12512 0
-152 -12513 0
438 -12513 0
152 -438 12513 0
-897 -12514 0
489 -12514 0
897 -489 12514 0
64 -12515 0
382 -12515 0
-64 -382 12515 0
467 -12516 0
825 -12516 0
-467 -825 12516 0
-929 -12517 0
836 -12517 0
929 -836 12517 0
309 -12518 0
580 -12518 0
-309 -580 12518 0
856 -12519 0
301 -12519 0
-856 -301 12519 0
-827 -12520 0
650 -12520 0
827 -650 12520 0
184 -12521 0
-659 -12521 0
-184 659 12521 0
231 -12522 0
307 -12522 0
-231 -307 12522 0
-716 -12523 0
940 -12523 0
716 -940 12523 0
-480 -12524 0
866 -12524 0
480 -866 12524 0
-731 -12525 0
541 -12525 0
731 -541 12525 0
101 -12526 0
458 -12526 0
-101 -458 12526 0
581 -12527 0
529 -12527 0
-581 -529 12527 0
46 -12528 0
-740 -12528 0
-46 740 12528 0
253 -12529 0
211 -12529 0
-253 -211 12529 0
895 -12530 0
564 -12530 0
-895 -564 12530 0
985 -12531 0
-383 -12531 0
-985 383 12531 0
-182 -12532 0
97 -12532 0
182 -97 12532 0
590 -12533 0
-31 -12533 0
-590 31 12533 0
-747 -12534 0
881 -12534 0
747 -881 12534 0
308 -12535 0
194 -12535 0
-308 -194 12535 0
302 -12536 0
-774 -12536 0
-302 774 12536 0
-170 -12537 0
226 -12537 0
170 -226 12537 0
303 -12538 0
301 -12538 0
-303 -301 12538 0
87 -12539 0
-49 -12539 0
-87 49 12539 0
111 -12540 0
406 -12540 0
-111 -406 12540 0
713 -12541 0
-663 -12541 0
-713 663 12541 0
572 -12542 0
891 -12542 0
-572 -891 12542 0
-768 -12543 0
772 -12543 0
768 -772 12543 0
-82 -12544 0
585 -12544 0
82 -585 12544 0
-362 -12545 0
978 -12545 0
362 -978 12545 0
575 -12546 0
469 -12546 0
-575 -469 12546 0
23 -12547 0
493 -12547 0
-23 -493 12547 0
141 -12548 0
274 -12548 0
-141 -274 12548 0
-458 -12549 0
250 -12549 0
458 -250 12549 0
847 -12550 0
-801 -12550 0
-847 801 12550 0
-500 -12551 0
769 -12551 0
500 -769 12551 0
526 -12552 0
-563 -12552 0
-526 563 12552 0
997 -12553 0
-111 -12553 0
-997 111 12553 0
-81 -12554 0
-851 -12555 0
573 -12555 0
851 -573 12555 0
-24 -12556 0
957 -12556 0
24 -957 12556 0
704 -12557 0
103 -12557 0
-704 -103 12557 0
96 -12558 0
957 -12558 0
-96 -957 12558 0
859 -12559 0
-270 -12559 0
-859 270 12559 0
-365 -12560 0
26 -12560 0
365 -26 12560 0
229 -12561 0
-855 -12561 0
-229 855 12561 0
173 -12562 0
-507 -12562 0
-173 507 12562 0
-131 -12563 0
219 -12563 0
131 -219 12563 0
-354 -12564 0
996 -12564 0
354 -996 12564 0
599 -12565 0
-484 -12565 0
-599 484 12565 0
711 -12566 0
-653 -12566 0
-711 653 12566 0
246 -12567 0
-892 -12567 0
-246 892 12567 0
333 -12568 0
-573 -12568 0
-333 573 12568 0
-506 -12569 0
580 -12569 0
506 -580 12569 0
312 -12570 0
569 -12570 0
-312 -569 12570 0
998 -12571 0
-587 -12571 0
-998 587 12571 0
-57 -12572 0
401 -12572 0
57 -401 12572 0
919 -12573 0
273 -12573 0
-919 -273 12573 0
151 -12574 0
162 -12574 0
-151 -162 12574 0
-377 -12575 0
827 -12575 0
377 -827 12575 0
580 -12576 0
706 -12576 0
-580 -706 12576 0
309 -12577 0
-887 -12577 0
-309 887 12577 0
-851 -12578 0
437 -12578 0
851 -437 12578 0
431 -12579 0
-572 -12579 0
-431 572 12579 0
-216 -12580 0
213 -12580 0
216 -213 12580 0
719 -12581 0
932 -12581 0
-719 -932 12581 0
390 -12582 0
154 -12582 0
-390 -154 12582 0
103 -12583 0
-95 -12583 0
-103 95 12583 0
494 -12584 0
995 -12584 0
-494 -995 12584 0
298 -12585 0
-510 -12585 0
-298 510 12585 0
16 -12586 0
825 -12586 0
-16 -825 12586 0
989 -12587 0
-524 -12587 0
-989 524 12587 0
-384 -12588 0
575 -12588 0
384 -575 12588 0
471 -12589 0
228 -12589 0
-471 -228 12589 0
542 -12590 0
-378 -12590 0
-542 378 12590 0
586 -12591 0
313 -12591 0
-586 -313 12591 0
100 -12592 0
-37 -12592 0
-100 37 12592 0
-331 -12593 0
4 -12593 0
331 -4 12593 0
703 -12594 0
-84 -12594 0
-703 84 12594 0
751 -12595 0
204 -12595 0
-751 -204 12595 0
607 -12596 0
-422 -12596 0
-607 422 12596 0
439 -12597 0
-957 -12597 0
-439 957 12597 0
-379 -12598 0
461 -12598 0
379 -461 12598 0
-27 -12599 0
913 -12599 0
27 -913 12599 0
305 -12600 0
185 -12600 0
-305 -185 12600 0
-360 -12601 0
291 -12601 0
360 -291 12601 0
-64 -12602 0
479 -12602 0
64 -479 12602 0
269 -12603 0
884 -12603 0
-269 -884 12603 0
70 -12604 0
-227 -12604 0
-70 227 12604 0
450 -12605 0
689 -12605 0
-450 -689 12605 0
884 -12606 0
779 -12606 0
-884 -779 12606 0
-979 -12607 0
780 -12607 0
979 -780 12607 0
125 -12608 0
921 -12608 0
-125 -921 12608 0
-145 -12609 0
618 -12609 0
145 -618 12609 0
429 -12610 0
-175 -12610 0
-429 175 12610 0
-944 -12611 0
772 -12611 0
944 -772 12611 0
47 -12612 0
-965 -12612 0
-47 965 12612 0
-889 -12613 0
499 -12613 0
889 -499 12613 0
-11 -12614 0
1 -12614 0
11 -1 12614 0
583 -12615 0
985 -12615 0
-583 -985 12615 0
183 -12616 0
-954 -12616 0
-183 954 12616 0
452 -12617 0
-31 -12617 0
-452 31 12617 0
400 -12618 0
879 -12618 0
-400 -879 12618 0
367 -12619 0
-961 -12619 0
-367 961 12619 0
-660 -12620 0
316 -12620 0
660 -316 12620 0
852 -12621 0
834 -12621 0
-852 -834 12621 0
-448 -12622 0
747 -12622 0
448 -747 12622 0
611 -12623 0
354 -12623 0
-611 -354 12623 0
260 -12624 0
-508 -12624 0
-260 508 12624 0
-162 -12625 0
793 -12625 0
162 -793 12625 0
-234 -12626 0
485 -12626 0
234 -485 12626 0
-52 -12627 0
283 -12627 0
52 -283 12627 0
-257 -12628 0
613 -12628 0
257 -613 12628 0
535 -12629 0
27 -12629 0
-535 -27 12629 0
394 -12630 0
-342 -12630 0
-394 342 12630 0
227 -12631 0
18 -12631 0
-227 -18 12631 0
-59 -12632 0
27 -12632 0
59 -27 12632 0
620 -12633 0
19 -12633 0
-620 -19 12633 0
-136 -12634 0
11 -12634 0
136 -11 12634 0
161 -12635 0
89 -12635 0
-161 -89 12635 0
-385 -12636 0
714 -12636 0
385 -714 12636 0
-104 -12637 0
959 -12637 0
104 -959 12637 0
118 -12638 0
-612 -12638 0
-118 612 12638 0
518 -12639 0
-654 -12639 0
-518 654 12639 0
310 -12640 0
-183 -12640 0
-310 183 12640 0
256 -12641 0
-604 -12641 0
-256 604 12641 0
798 -12642 0
-315 -12642 0
-798 315 12642 0
518 -12643 0
-245 -12643 0
-518 245 12643 0
-584 -12644 0
270 -12644 0
584 -270 12644 0
228 -12645 0
947 -12645 0
-228 -947 12645 0
-94 -12646 0
594 -12646 0
94 -594 12646 0
918 -12647 0
-482 -12647 0
-918 482 12647 0
611 -12648 0
-662 -12648 0
-611 662 12648 0
-74 -12649 0
433 -12649 0
74 -433 12649 0
-520 -12650 0
90 -12650 0
520 -90 12650 0
934 -12651 0
-459 -12651 0
-934 459 12651 0
523 -12652 0
-405 -12652 0
-523 405 12652 0
-376 -12653 0
991 -12653 0
376 -991 12653 0
-738 -12654 0
645 -12654 0
738 -645 12654 0
-835 -12655 0
505 -12655 0
835 -505 12655 0
922 -12656 0
-375 -12656 0
-922 375 12656 0
62 -12657 0
-463 -12657 0
-62 463 12657 0
616 -12658 0
-329 -12658 0
-616 329 12658 0
590 -12659 0
-228 -12659 0
-590 228 12659 0
-134 -12660 0
994 -12660 0
134 -994 12660 0
-954 -12661 0
150 -12661 0
954 -150 12661 0
232 -12662 0
-341 -12662 0
-232 341 12662 0
669 -12663 0
-374 -12663 0
-669 374 12663 0
-11 -12664 0
746 -12664 0
11 -746 12664 0
640 -12665 0
388 -12665 0
-640 -388 12665 0
247 -12666 0
-436 -12666 0
-247 436 12666 0
-496 -12667 0
172 -12667 0
496 -172 12667 0
96 -12668 0
-931 -12668 0
-96 931 12668 0
-340 -12669 0
788 -12669 0
340 -788 12669 0
-778 -12670 0
651 -12670 0
778 -651 12670 0
-627 -12671 0
322 -12671 0
627 -322 12671 0
-984 -12672 0
141 -12672 0
984 -141 12672 0
-944 -12673 0
93 -12673 0
944 -93 12673 0
496 -12674 0
601 -12674 0
-496 -601 12674 0
548 -12675 0
-542 -12675 0
-548 542 12675 0
-464 -12676 0
827 -12676 0
464 -827 12676 0
111 -12677 0
206 -12677 0
-111 -206 12677 0
942 -12678 0
-751 -12678 0
-942 751 12678 0
248 -12679 0
844 -12679 0
-248 -844 12679 0
-721 -12680 0
854 -12680 0
721 -854 12680 0
230 -12681 0
273 -12681 0
-230 -273 12681 0
978 -12682 0
873 -12682 0
-978 -873 12682 0
-928 -12683 0
289 -12683 0
928 -289 12683 0
816 -12684 0
-67 -12684 0
-816 67 12684 0
269 -12685 0
-683 -12685 0
-269 683 12685 0
-242 -12686 0
979 -12686 0
242 -979 12686 0
472 -12687 0
115 -12687 0
-472 -115 12687 0
174 -12688 0
766 -12688 0
-174 -766 12688 0
85 -12689 0
-853 -12689 0
-85 853 12689 0
-426 -12690 0
233 -12690 0
426 -233 12690 0
583 -12691 0
-687 -12691 0
-583 687 12691 0
-736 -12692 0
337 -12692 0
736 -337 12692 0
-221 -12693 0
210 -12693 0
221 -210 12693 0
720 -12694 0
598 -12694 0
-720 -598 12694 0
381 -12695 0
-820 -12695 0
-381 820 12695 0
684 -12696 0
-551 -12696 0
-684 551 12696 0
-682 -12697 0
229 -12697 0
682 -229 12697 0
16 -12698 0
-461 -12698 0
-16 461 12698 0
-971 -12699 0
308 -12699 0
971 -308 12699 0
912 -12700 0
749 -12700 0
-912 -749 12700 0
634 -12701 0
-784 -12702 0
20 -12702 0
784 -20 12702 0
-703 -12703 0
169 -12703 0
703 -169 12703 0
-571 -12704 0
701 -12704 0
571 -701 12704 0
654 -12705 0
337 -12705 0
-654 -337 12705 0
-338 -12706 0
425 -12706 0
338 -425 12706 0
656 -12707 0
-259 -12707 0
-656 259 12707 0
-860 -12708 0
787 -12708 0
860 -787 12708 0
971 -12709 0
594 -12709 0
-971 -594 12709 0
-111 -12710 0
681 -12710 0
111 -681 12710 0
93 -12711 0
-213 -12711 0
-93 213 12711 0
576 -12712 0
55 -12712 0
-576 -55 12712 0
-907 -12713 0
132 -12713 0
907 -132 12713 0
6 -12714 0
-23 -12714 0
-6 23 12714 0
944 -12715 0
466 -12715 0
-944 -466 12715 0
-457 -12716 0
644 -12716 0
457 -644 12716 0
656 -12717 0
437 -12717 0
-656 -437 12717 0
692 -12718 0
-326 -12718 0
-692 326 12718 0
599 -12719 0
83 -12719 0
-599 -83 12719 0
599 -12720 0
77 -12720 0
-599 -77 12720 0
700 -12721 0
-935 -12721 0
-700 935 12721 0
655 -12722 0
421 -12722 0
-655 -421 12722 0
-633 -12723 0
195 -12723 0
633 -195 12723 0
-738 -12724 0
353 -12724 0
738 -353 12724 0
974 -12725 0
-647 -12725 0
-974 647 12725 0
-805 -12726 0
497 -12726 0
805 -497 12726 0
646 -12727 0
-693 -12727 0
-646 693 12727 0
371 -12728 0
842 -12728 0
-371 -842 12728 0
887 -12729 0
348 -12729 0
-887 -348 12729 0
14 -12730 0
-956 -12730 0
-14 956 12730 0
757 -12731 0
-987 -12731 0
-757 987 12731 0
839 -12732 0
-423 -12732 0
-839 423 12732 0
-515 -12733 0
811 -12733 0
515 -811 12733 0
741 -12734 0
890 -12734 0
-741 -890 12734 0
-16 -12735 0
866 -12735 0
16 -866 12735 0
-1 -12736 0
459 -12736 0
1 -459 12736 0
824 -12737 0
546 -12737 0
-824 -546 12737 0
-724 -12738 0
641 -12738 0
724 -641 12738 0
127 -12739 0
961 -12739 0
-127 -961 12739 0
267 -12740 0
-109 -12740 0
-267 109 12740 0
-292 -12741 0
867 -12741 0
292 -867 12741 0
59 -12742 0
978 -12742 0
-59 -978 12742 0
573 -12743 0
953 -12743 0
-573 -953 12743 0
654 -12744 0
670 -12744 0
-654 -670 12744 0
773 -12745 0
-566 -12745 0
-773 566 12745 0
878 -12746 0
-158 -12746 0
-878 158 12746 0
-168 -12747 0
915 -12747 0
168 -915 12747 0
36 -12748 0
986 -12748 0
-36 -986 12748 0
560 -12749 0
435 -12749 0
-560 -435 12749 0
340 -12750 0
-198 -12750 0
-340 198 12750 0
688 -12751 0
-396 -12751 0
-688 396 12751 0
-717 -12752 0
594 -12752 0
717 -594 12752 0
388 -12753 0
-588 -12753 0
-388 588 12753 0
464 -12754 0
-393 -12754 0
-464 393 12754 0
8 -12755 0
-881 -12755 0
-8 881 12755 0
-307 -12756 0
524 -12756 0
307 -524 12756 0
87 -12757 0
306 -12757 0
-87 -306 12757 0
572 -12758 0
716 -12758 0
-572 -716 12758 0
404 -12759 0
-903 -12759 0
-404 903 12759 0
85 -12760 0
929 -12760 0
-85 -929 12760 0
12 -12761 0
18 -12761 0
-12 -18 12761 0
752 -12762 0
537 -12762 0
-752 -537 12762 0
380 -12763 0
626 -12763 0
-380 -626 12763 0
-456 -12764 0
201 -12764 0
456 -201 12764 0
472 -12765 0
-452 -12765 0
-472 452 12765 0
-680 -12766 0
789 -12766 0
680 -789 12766 0
-367 -12767 0
569 -12767 0
367 -569 12767 0
719 -12768 0
-426 -12768 0
-719 426 12768 0
448 -12769 0
-860 -12769 0
-448 860 12769 0
19 -12770 0
-670 -12770 0
-19 670 12770 0
-249 -12771 0
114 -12771 0
249 -114 12771 0
384 -12772 0
443 -12772 0
-384 -443 12772 0
502 -12773 0
-853 -12773 0
-502 853 12773 0
696 -12774 0
225 -12774 0
-696 -225 12774 0
-940 -12775 0
587 -12775 0
940 -587 12775 0
341 -12776 0
-739 -12776 0
-341 739 12776 0
-338 -12777 0
684 -12777 0
338 -684 12777 0
519 -12778 0
-751 -12778 0
-519 751 12778 0
96 -12779 0
-421 -12779 0
-96 421 12779 0
-937 -12780 0
538 -12780 0
937 -538 12780 0
-689 -12781 0
169 -12781 0
689 -169 12781 0
781 -12782 0
521 -12782 0
-781 -521 12782 0
-491 -12783 0
545 -12783 0
491 -545 12783 0
-250 -12784 0
717 -12784 0
250 -717 12784 0
523 -12785 0
-935 -12785 0
-523 935 12785 0
622 -12786 0
349 -12786 0
-622 -349 12786 0
640 -12787 0
625 -12787 0
-640 -625 12787 0
-931 -12788 0
684 -12788 0
931 -684 12788 0
301 -12789 0
-623 -12789 0
-301 623 12789 0
-717 -12790 0
482 -12790 0
717 -482 12790 0
-184 -12791 0
964 -12791 0
184 -964 12791 0
-953 -12792 0
396 -12792 0
953 -396 12792 0
862 -12793 0
-631 -12793 0
-862 631 12793 0
487 -12794 0
29 -12794 0
-487 -29 12794 0
-857 -12795 0
540 -12795 0
857 -540 12795 0
229 -12796 0
713 -12796 0
-229 -713 12796 0
-35 -12797 0
777 -12797 0
35 -777 12797 0
327 -12798 0
817 -12798 0
-327 -817 12798 0
-835 -12799 0
793 -12799 0
835 -793 12799 0
583 -12800 0
126 -12800 0
-583 -126 12800 0
567 -12801 0
-330 -12801 0
-567 330 12801 0
879 -12802 0
-715 -12802 0
-879 715 12802 0
-465 -12803 0
674 -12803 0
465 -674 12803 0
-630 -12804 0
241 -12804 0
630 -241 12804 0
-329 -12805 0
172 -12805 0
329 -172 12805 0
108 -12806 0
460 -12806 0
-108 -460 12806 0
663 -12807 0
-325 -12807 0
-663 325 12807 0
-522 -12808 0
353 -12808 0
522 -353 12808 0
-568 -12809 0
17 -12809 0
568 -17 12809 0
-510 -12810 0
649 -12810 0
510 -649 12810 0
838 -12811 0
-613 -12811 0
-838 613 12811 0
-707 -12812 0
329 -12812 0
707 -329 12812 0
-113 -12813 0
89 -12813 0
113 -89 12813 0
998 -12814 0
-691 -12814 0
-998 691 12814 0
-108 -12815 0
28 -12815 0
108 -28 12815 0
-248 -12816 0
161 -12816 0
248 -161 12816 0
-505 -12817 0
974 -12817 0
505 -974 12817 0
807 -12818 0
810 -12818 0
-807 -810 12818 0
548 -12819 0
994 -12819 0
-548 -994 12819 0
-250 -12820 0
131 -12820 0
250 -131 12820 0
286 -12821 0
556 -12821 0
-286 -556 12821 0
693 -12822 0
26 -12822 0
-693 -26 12822 0
647 -12823 0
-178 -12823 0
-647 178 12823 0
361 -12824 0
281 -12824 0
-361 -281 12824 0
978 -12825 0
769 -12825 0
-978 -769 12825 0
-799 -12826 0
793 -12826 0
799 -793 12826 0
262 -12827 0
742 -12827 0
-262 -742 12827 0
862 -12828 0
468 -12828 0
-862 -468 12828 0
748 -12829 0
-295 -12829 0
-748 295 12829 0
255 -12830 0
-366 -12830 0
-255 366 12830 0
399 -12831 0
980 -12831 0
-399 -980 12831 0
-67 -12832 0
314 -12832 0
67 -314 12832 0
-35 -12833 0
329 -12833 0
35 -329 12833 0
-176 -12834 0
429 -12834 0
176 -429 12834 0
605 -12835 0
-287 -12835 0
-605 287 12835 0
204 -12836 0
-933 -12836 0
-204 933 12836 0
445 -12837 0
-470 -12837 0
-445 470 12837 0
-236 -12838 0
963 -12838 0
236 -963 12838 0
349 -12839 0
748 -12839 0
-349 -748 12839 0
868 -12840 0
-485 -12840 0
-868 485 12840 0
157 -12841 0
707 -12841 0
-157 -707 12841 0
982 -12842 0
-485 -12842 0
-982 485 12842 0
-537 -12843 0
325 -12843 0
537 -325 12843 0
-994 -12844 0
485 -12844 0
994 -485 12844 0
523 -12845 0
-909 -12845 0
-523 909 12845 0
1000 -12846 0
662 -12846 0
-1000 -662 12846 0
278 -12847 0
-523 -12847 0
-278 523 12847 0
335 -12848 0
-757 -12848 0
-335 757 12848 0
917 -12849 0
812 -12849 0
-917 -812 12849 0
-612 -12850 0
954 -12850 0
612 -954 12850 0
-569 -12851 0
310 -12851 0
569 -310 12851 0
864 -12852 0
-188 -12852 0
-864 188 12852 0
91 -12853 0
817 -12853 0
-91 -817 12853 0
213 -12854 0
860 -12854 0
-213 -860 12854 0
750 -12855 0
746 -12855 0
-750 -746 12855 0
96 -12856 0
-886 -12856 0
-96 886 12856 0
-828 -12857 0
67 -12857 0
828 -67 12857 0
726 -12858 0
-511 -12858 0
-726 511 12858 0
-348 -12859 0
67 -12859 0
348 -67 12859 0
689 -12860 0
-351 -12860 0
-689 351 12860 0
660 -12861 0
-373 -12861 0
-660 373 12861 0
-338 -12862 0
165 -12862 0
338 -165 12862 0
-390 -12863 0
537 -12863 0
390 -537 12863 0
133 -12864 0
650 -12864 0
-133 -650 12864 0
80 -12865 0
-663 -12865 0
-80 663 12865 0
-444 -12866 0
657 -12866 0
444 -657 12866 0
-168 -12867 0
51 -12867 0
168 -51 12867 0
568 -12868 0
44 -12868 0
-568 -44 12868 0
-259 -12869 0
500 -12869 0
259 -500 12869 0
-955 -12870 0
460 -12870 0
955 -460 12870 0
424 -12871 0
-675 -12871 0
-424 675 12871 0
731 -12872 0
-133 -12872 0
-731 133 12872 0
943 -12873 0
122 -12873 0
-943 -122 12873 0
903 -12874 0
170 -12874 0
-903 -170 12874 0
268 -12875 0
539 -12875 0
-268 -539 12875 0
611 -12876 0
-151 -12876 0
-611 151 12876 0
-176 -12877 0
352 -12877 0
176 -352 12877 0
823 -12878 0
348 -12878 0
-823 -348 12878 0
160 -12879 0
423 -12879 0
-160 -423 12879 0
-593 -12880 0
210 -12880 0
593 -210 12880 0
630 -12881 0
946 -12881 0
-630 -946 12881 0
611 -12882 0
-998 -12882 0
-611 998 12882 0
622 -12883 0
371 -12883 0
-622 -371 12883 0
788 -12884 0
-748 -12884 0
-788 748 12884 0
-845 -12885 0
747 -12885 0
845 -747 12885 0
181 -12886 0
169 -12886 0
-181 -169 12886 0
254 -12887 0
324 -12887 0
-254 -324 12887 0
896 -12888 0
343 -12888 0
-896 -343 12888 0
-126 -12889 0
202 -12889 0
126 -202 12889 0
596 -12890 0
43 -12890 0
-596 -43 12890 0
-88 -12891 0
843 -12891 0
88 -843 12891 0
488 -12892 0
211 -12892 0
-488 -211 12892 0
-946 -12893 0
483 -12893 0
946 -483 12893 0
295 -12894 0
-469 -12894 0
-295 469 12894 0
48 -12895 0
-814 -12895 0
-48 814 12895 0
437 -12896 0
-815 -12896 0
-437 815 12896 0
-225 -12897 0
196 -12897 0
225 -196 12897 0
920 -12898 0
-881 -12898 0
-920 881 12898 0
817 -12899 0
153 -12899 0
-817 -153 12899 0
-562 -12900 0
601 -12900 0
562 -601 12900 0
264 -12901 0
223 -12901 0
-264 -223 12901 0
-26 -12902 0
484 -12902 0
26 -484 12902 0
314 -12903 0
1 -12903 0
-314 -1 12903 0
476 -12904 0
-334 -12904 0
-476 334 12904 0
-362 -12905 0
489 -12905 0
362 -489 12905 0
38 -12906 0
709 -12906 0
-38 -709 12906 0
543 -12907 0
-374 -12907 0
-543 374 12907 0
-765 -12908 0
43 -12908 0
765 -43 12908 0
981 -12909 0
-820 -12909 0
-981 820 12909 0
949 -12910 0
-310 -12910 0
-949 310 12910 0
-202 -12911 0
441 -12911 0
202 -441 12911 0
911 -12912 0
389 -12912 0
-911 -389 12912 0
-427 -12913 0
218 -12913 0
427 -218 12913 0
-819 -12914 0
35 -12914 0
819 -35 12914 0
-448 -12915 0
501 -12915 0
448 -501 12915 0
-726 -12916 0
593 -12916 0
726 -593 12916 0
-68 -12917 0
777 -12917 0
68 -777 12917 0
157 -12918 0
-669 -12918 0
-157 669 12918 0
583 -12919 0
572 -12919 0
-583 -572 12919 0
-708 -12920 0
435 -12920 0
708 -435 12920 0
-608 -12921 0
374 -12921 0
608 -374 12921 0
961 -12922 0
-119 -12922 0
-961 119 12922 0
719 -12923 0
969 -12923 0
-719 -969 12923 0
311 -12924 0
997 -12924 0
-311 -997 12924 0
971 -12925 0
-39 -12925 0
-971 39 12925 0
-748 -12926 0
978 -12926 0
748 -978 12926 0
-857 -12927 0
834 -12927 0
857 -834 12927 0
-498 -12928 0
338 -12928 0
498 -338 12928 0
407 -12929 0
-731 -12929 0
-407 731 12929 0
-84 -12930 0
195 -12930 0
84 -195 12930 0
-394 -12931 0
555 -12931 0
394 -555 12931 0
216 -12932 0
-255 -12932 0
-216 255 12932 0
216 -12933 0
527 -12933 0
-216 -527 12933 0
943 -12934 0
972 -12934 0
-943 -972 12934 0
315 -12935 0
-62 -12935 0
-315 62 12935 0
360 -12936 0
321 -12936 0
-360 -321 12936 0
559 -12937 0
-745 -12937 0
-559 745 12937 0
106 -12938 0
-47 -12938 0
-106 47 12938 0
-184 -12939 0
510 -12939 0
184 -510 12939 0
658 -12940 0
729 -12940 0
-658 -729 12940 0
853 -12941 0
-220 -12941 0
-853 220 12941 0
-776 -12942 0
320 -12942 0
776 -320 12942 0
790 -12943 0
218 -12943 0
-790 -218 12943 0
-982 -12944 0
9 -12944 0
982 -9 12944 0
76 -12945 0
642 -12945 0
-76 -642 12945 0
-459 -12946 0
739 -12946 0
459 -739 12946 0
251 -12947 0
-685 -12947 0
-251 685 12947 0
375 -12948 0
607 -12948 0
-375 -607 12948 0
-912 -12949 0
790 -12949 0
912 -790 12949 0
804 -12950 0
-317 -12950 0
-804 317 12950 0
-844 -12951 0
899 -12951 0
844 -899 12951 0
414 -12952 0
684 -12952 0
-414 -684 12952 0
391 -12953 0
-854 -12953 0
-391 854 12953 0
-81 -12954 0
830 -12954 0
81 -830 12954 0
731 -12955 0
850 -12955 0
-731 -850 12955 0
500 -12956 0
91 -12956 0
-500 -91 12956 0
-688 -12957 0
903 -12957 0
688 -903 12957 0
-569 -12958 0
770 -12958 0
569 -770 12958 0
733 -12959 0
565 -12959 0
-733 -565 12959 0
783 -12960 0
540 -12960 0
-783 -540 12960 0
566 -12961 0
-187 -12961 0
-566 187 12961 0
391 -12962 0
697 -12962 0
-391 -697 12962 0
-64 -12963 0
754 -12963 0
64 -754 12963 0
840 -12964 0
-919 -12964 0
-840 919 12964 0
-792 -12965 0
159 -12965 0
792 -159 12965 0
775 -12966 0
417 -12966 0
-775 -417 12966 0
579 -12967 0
-438 -12967 0
-579 438 12967 0
640 -12968 0
966 -12968 0
-640 -966 12968 0
559 -12969 0
-708 -12969 0
-559 708 12969 0
695 -12970 0
13 -12970 0
-695 -13 12970 0
-196 -12971 0
508 -12971 0
196 -508 12971 0
403 -12972 0
643 -12972 0
-403 -643 12972 0
932 -12973 0
585 -12973 0
-932 -585 12973 0
-523 -12974 0
818 -12974 0
523 -818 12974 0
-970 -12975 0
993 -12975 0
970 -993 12975 0
871 -12976 0
57 -12976 0
-871 -57 12976 0
-386 -12977 0
644 -12977 0
386 -644 12977 0
312 -12978 0
769 -12978 0
-312 -769 12978 0
768 -12979 0
452 -12979 0
-768 -452 12979 0
608 -12980 0
369 -12980 0
-608 -369 12980 0
328 -12981 0
-476 -12981 0
-328 476 12981 0
749 -12982 0
653 -12982 0
-749 -653 12982 0
677 -12983 0
458 -12983 0
-677 -458 12983 0
-731 -12984 0
626 -12984 0
731 -626 12984 0
479 -12985 0
-348 -12985 0
-479 348 12985 0
-666 -12986 0
106 -12986 0
666 -106 12986 0
340 -12987 0
339 -12987 0
-340 -339 12987 0
782 -12988 0
506 -12988 0
-782 -506 12988 0
-667 -12989 0
11 -12989 0
667 -11 12989 0
79 -12990 0
122 -12990 0
-79 -122 12990 0
-627 -12991 0
794 -12991 0
627 -794 12991 0
368 -12992 0
751 -12992 0
-368 -751 12992 0
758 -12993 0
35 -12993 0
-758 -35 12993 0
349 -12994 0
468 -12994 0
-349 -468 12994 0
-829 -12995 0
266 -12995 0
829 -266 12995 0
927 -12996 0
259 -12996 0
-927 -259 12996 0
-657 -12997 0
506 -12997 0
657 -506 12997 0
907 -12998 0
-901 -12998 0
-907 901 12998 0
94 -12999 0
515 -12999 0
-94 -515 12999 0
848 -13000 0
79 -13000 0
-848 -79 13000 0
-91 -13001 0
300 -13001 0
91 -300 13001 0
-202 -13002 0
421 -13002 0
202 -421 13002 0
288 -13003 0
51 -13003 0
-288 -51 13003 0
-563 -13004 0
275 -13004 0
563 -275 13004 0
638 -13005 0
481 -13005 0
-638 -481 13005 0
892 -13006 0
-855 -13006 0
-892 855 13006 0
-157 -13007 0
34 -13007 0
157 -34 13007 0
-194 -13008 0
42 -13008 0
194 -42 13008 0
583 -13009 0
-377 -13009 0
-583 377 13009 0
-784 -13010 0
8 -13010 0
784 -8 13010 0
-64 -13011 0
383 -13011 0
64 -383 13011 0
669 -13012 0
274 -13012 0
-669 -274 13012 0
878 -13013 0
324 -13013 0
-878 -324 13013 0
397 -13014 0
-565 -13014 0
-397 565 13014 0
73 -13015 0
473 -13015 0
-73 -473 13015 0
434 -13016 0
-135 -13016 0
-434 135 13016 0
-267 -13017 0
619 -13017 0
267 -619 13017 0
972 -13018 0
929 -13018 0
-972 -929 13018 0
712 -13019 0
307 -13019 0
-712 -307 13019 0
-394 -13020 0
804 -13020 0
394 -804 13020 0
998 -13021 0
331 -13021 0
-998 -331 13021 0
751 -13022 0
485 -13022 0
-751 -485 13022 0
376 -13023 0
575 -13023 0
-376 -575 13023 0
575 -13024 0
546 -13024 0
-575 -546 13024 0
823 -13025 0
-852 -13025 0
-823 852 13025 0
944 -13026 0
-935 -13026 0
-944 935 13026 0
629 -13027 0
596 -13027 0
-629 -596 13027 0
674 -13028 0
-327 -13028 0
-674 327 13028 0
558 -13029 0
-94 -13029 0
-558 94 13029 0
120 -13030 0
674 -13030 0
-120 -674 13030 0
-835 -13031 0
309 -13031 0
835 -309 13031 0
959 -13032 0
-918 -13032 0
-959 918 13032 0
-173 -13033 0
129 -13033 0
173 -129 13033 0
481 -13034 0
-831 -13034 0
-481 831 13034 0
-568 -13035 0
427 -13035 0
568 -427 13035 0
70 -13036 0
-996 -13036 0
-70 996 13036 0
395 -13037 0
-215 -13037 0
-395 215 13037 0
172 -13038 0
-710 -13038 0
-172 710 13038 0
892 -13039 0
-327 -13039 0
-892 327 13039 0
119 -13040 0
891 -13040 0
-119 -891 13040 0
5 -13041 0
-343 -13041 0
-5 343 13041 0
376 -13042 0
-562 -13042 0
-376 562 13042 0
237 -13043 0
-606 -13043 0
-237 606 13043 0
702 -13044 0
-21 -13044 0
-702 21 13044 0
719 -13045 0
-165 -13045 0
-719 165 13045 0
989 -13046 0
331 -13046 0
-989 -331 13046 0
166 -13047 0
243 -13047 0
-166 -243 13047 0
4 -13048 0
195 -13048 0
-4 -195 13048 0
543 -13049 0
113 -13049 0
-543 -113 13049 0
55 -13050 0
699 -13050 0
-55 -699 13050 0
-706 -13051 0
505 -13051 0
706 -505 13051 0
260 -13052 0
178 -13052 0
-260 -178 13052 0
210 -13053 0
897 -13054 0
-303 -13054 0
-897 303 13054 0
175 -13055 0
-681 -13055 0
-175 681 13055 0
899 -13056 0
273 -13056 0
-899 -273 13056 0
-698 -13057 0
84 -13057 0
698 -84 13057 0
101 -13058 0
-263 -13058 0
-101 263 13058 0
340 -13059 0
771 -13059 0
-340 -771 13059 0
215 -13060 0
489 -13060 0
-215 -489 13060 0
187 -13061 0
153 -13061 0
-187 -153 13061 0
527 -13062 0
-588 -13062 0
-527 588 13062 0
-400 -13063 0
683 -13063 0
400 -683 13063 0
99 -13064 0
794 -13064 0
-99 -794 13064 0
264 -13065 0
231 -13065 0
-264 -231 13065 0
742 -13066 0
-141 -13066 0
-742 141 13066 0
-152 -13067 0
298 -13067 0
152 -298 13067 0
480 -13068 0
569 -13068 0
-480 -569 13068 0
874 -13069 0
233 -13069 0
-874 -233 13069 0
-522 -13070 0
37 -13070 0
522 -37 13070 0
-51 -13071 0
186 -13071 0
51 -186 13071 0
956 -13072 0
-14 -13072 0
-956 14 13072 0
86 -13073 0
340 -13073 0
-86 -340 13073 0
486 -13074 0
941 -13074 0
-486 -941 13074 0
512 -13075 0
-680 -13075 0
-512 680 13075 0
-73 -13076 0
598 -13076 0
73 -598 13076 0
-248 -13077 0
773 -13077 0
248 -773 13077 0
862 -13078 0
302 -13078 0
-862 -302 13078 0
-589 -13079 0
537 -13079 0
589 -537 13079 0
893 -13080 0
-195 -13080 0
-893 195 13080 0
709 -13081 0
-675 -13081 0
-709 675 13081 0
-274 -13082 0
929 -13082 0
274 -929 13082 0
827 -13083 0
-677 -13083 0
-827 677 13083 0
207 -13084 0
-338 -13084 0
-207 338 13084 0
821 -13085 0
-444 -13085 0
-821 444 13085 0
51 -13086 0
193 -13086 0
-51 -193 13086 0
168 -13087 0
657 -13087 0
-168 -657 13087 0
765 -13088 0
754 -13088 0
-765 -754 13088 0
107 -13089 0
202 -13089 0
-107 -202 13089 0
-948 -13090 0
986 -13090 0
948 -986 13090 0
493 -13091 0
820 -13091 0
-493 -820 13091 0
567 -13092 0
-387 -13092 0
-567 387 13092 0
284 -13093 0
-885 -13093 0
-284 885 13093 0
-200 -13094 0
701 -13094 0
200 -701 13094 0
139 -13095 0
714 -13095 0
-139 -714 13095 0
703 -13096 0
-37 -13096 0
-703 37 13096 0
-915 -13097 0
154 -13097 0
915 -154 13097 0
71 -13098 0
-113 -13098 0
-71 113 13098 0
-921 -13099 0
902 -13099 0
921 -902 13099 0
760 -13100 0
-721 -13100 0
-760 721 13100 0
-964 -13101 0
500 -13101 0
964 -500 13101 0
992 -13102 0
343 -13102 0
-992 -343 13102 0
776 -13103 0
-989 -13103 0
-776 989 13103 0
-259 -13104 0
787 -13104 0
259 -787 13104 0
988 -13105 0
385 -13105 0
-988 -385 13105 0
138 -13106 0
617 -13106 0
-138 -617 13106 0
71 -13107 0
383 -13107 0
-71 -383 13107 0
416 -13108 0
-378 -13108 0
-416 378 13108 0
520 -13109 0
326 -13109 0
-520 -326 13109 0
368 -13110 0
-647 -13110 0
-368 647 13110 0
827 -13111 0
809 -13111 0
-827 -809 13111 0
469 -13112 0
265 -13112 0
-469 -265 13112 0
524 -13113 0
601 -13113 0
-524 -601 13113 0
-938 -13114 0
188 -13114 0
938 -188 13114 0
-184 -13115 0
625 -13115 0
184 -625 13115 0
743 -13116 0
459 -13116 0
-743 -459 13116 0
542 -13117 0
138 -13117 0
-542 -138 13117 0
720 -13118 0
-439 -13118 0
-720 439 13118 0
-374 -13119 0
778 -13119 0
374 -778 13119 0
807 -13120 0
762 -13120 0
-807 -762 13120 0
-616 -13121 0
428 -13121 0
616 -428 13121 0
27 -13122 0
713 -13122 0
-27 -713 13122 0
592 -13123 0
-378 -13123 0
-592 378 13123 0
544 -13124 0
570 -13124 0
-544 -570 13124 0
-139 -13125 0
331 -13125 0
139 -331 13125 0
702 -13126 0
597 -13126 0
-702 -597 13126 0
214 -13127 0
668 -13127 0
-214 -668 13127 0
286 -13128 0
-135 -13128 0
-286 135 13128 0
974 -13129 0
737 -13129 0
-974 -737 13129 0
-118 -13130 0
994 -13130 0
118 -994 13130 0
607 -13131 0
-572 -13131 0
-607 572 13131 0
461 -13132 0
-995 -13132 0
-461 995 13132 0
-731 -13133 0
377 -13133 0
731 -377 13133 0
327 -13134 0
-157 -13134 0
-327 157 13134 0
878 -13135 0
-487 -13135 0
-878 487 13135 0
-164 -13136 0
938 -13136 0
164 -938 13136 0
280 -13137 0
979 -13137 0
-280 -979 13137 0
899 -13138 0
-231 -13138 0
-899 231 13138 0
976 -13139 0
818 -13139 0
-976 -818 13139 0
173 -13140 0
-278 -13140 0
-173 278 13140 0
869 -13141 0
659 -13141 0
-869 -659 13141 0
958 -13142 0
-766 -13142 0
-958 766 13142 0
-80 -13143 0
291 -13143 0
80 -291 13143 0
-401 -13144 0
326 -13144 0
401 -326 13144 0
-697 -13145 0
115 -13145 0
697 -115 13145 0
-680 -13146 0
723 -13146 0
680 -723 13146 0
634 -13147 0
905 -13147 0
-634 -905 13147 0
692 -13148 0
35 -13148 0
-692 -35 13148 0
452 -13149 0
-222 -13149 0
-452 222 13149 0
959 -13150 0
-341 -13150 0
-959 341 13150 0
574 -13151 0
642 -13151 0
-574 -642 13151 0
96 -13152 0
274 -13152 0
-96 -274 13152 0
-419 -13153 0
907 -13153 0
419 -907 13153 0
-788 -13154 0
753 -13154 0
788 -753 13154 0
-313 -13155 0
374 -13155 0
313 -374 13155 0
485 -13156 0
412 -13156 0
-485 -412 13156 0
-502 -13157 0
9 -13157 0
502 -9 13157 0
-561 -13158 0
806 -13158 0
561 -806 13158 0
-777 -13159 0
989 -13159 0
777 -989 13159 0
752 -13160 0
393 -13160 0
-752 -393 13160 0
711 -13161 0
275 -13161 0
-711 -275 13161 0
622 -13162 0
-308 -13162 0
-622 308 13162 0
109 -13163 0
-365 -13163 0
-109 365 13163 0
-151 -13164 0
369 -13164 0
151 -369 13164 0
214 -13165 0
540 -13165 0
-214 -540 13165 0
750 -13166 0
282 -13166 0
-750 -282 13166 0
-697 -13167 0
865 -13167 0
697 -865 13167 0
272 -13168 0
544 -13168 0
-272 -544 13168 0
943 -13169 0
-865 -13169 0
-943 865 13169 0
-297 -13170 0
498 -13170 0
297 -498 13170 0
582 -13171 0
683 -13171 0
-582 -683 13171 0
880 -13172 0
-251 -13172 0
-880 251 13172 0
-88 -13173 0
467 -13173 0
88 -467 13173 0
-264 -13174 0
570 -13174 0
264 -570 13174 0
-649 -13175 0
425 -13175 0
649 -425 13175 0
911 -13176 0
-499 -13176 0
-911 499 13176 0
248 -13177 0
977 -13177 0
-248 -977 13177 0
-484 -13178 0
529 -13178 0
484 -529 13178 0
810 -13179 0
794 -13179 0
-810 -794 13179 0
-546 -13180 0
37 -13180 0
546 -37 13180 0
606 -13181 0
-692 -13181 0
-606 692 13181 0
727 -13182 0
-932 -13182 0
-727 932 13182 0
179 -13183 0
-334 -13183 0
-179 334 13183 0
924 -13184 0
25 -13184 0
-924 -25 13184 0
612 -13185 0
-807 -13185 0
-612 807 13185 0
854 -13186 0
-734 -13186 0
-854 734 13186 0
678 -13187 0
-803 -13187 0
-678 803 13187 0
-608 -13188 0
153 -13188 0
608 -153 13188 0
-2 -13189 0
886 -13189 0
2 -886 13189 0
382 -13190 0
977 -13190 0
-382 -977 13190 0
172 -13191 0
689 -13191 0
-172 -689 13191 0
343 -13192 0
198 -13192 0
-343 -198 13192 0
783 -13193 0
-645 -13193 0
-783 645 13193 0
742 -13194 0
-821 -13194 0
-742 821 13194 0
508 -13195 0
-877 -13195 0
-508 877 13195 0
-131 -13196 0
817 -13196 0
131 -817 13196 0
491 -13197 0
826 -13197 0
-491 -826 13197 0
376 -13198 0
520 -13198 0
-376 -520 13198 0
219 -13199 0
618 -13199 0
-219 -618 13199 0
455 -13200 0
-827 -13200 0
-455 827 13200 0
493 -13201 0
77 -13201 0
-493 -77 13201 0
215 -13202 0
693 -13202 0
-215 -693 13202 0
247 -13203 0
148 -13203 0
-247 -148 13203 0
272 -13204 0
-326 -13204 0
-272 326 13204 0
-273 -13205 0
585 -13205 0
273 -585 13205 0
615 -13206 0
770 -13206 0
-615 -770 13206 0
-630 -13207 0
258 -13207 0
630 -258 13207 0
-35 -13208 0
581 -13208 0
35 -581 13208 0
-750 -13209 0
673 -13209 0
750 -673 13209 0
-209 -13210 0
541 -13210 0
209 -541 13210 0
-369 -13211 0
77 -13211 0
369 -77 13211 0
399 -13212 0
170 -13212 0
-399 -170 13212 0
322 -13213 0
426 -13213 0
-322 -426 13213 0
-16 -13214 0
550 -13214 0
16 -550 13214 0
70 -13215 0
-170 -13215 0
-70 170 13215 0
301 -13216 0
-214 -13216 0
-301 214 13216 0
951 -13217 0
-710 -13217 0
-951 710 13217 0
64 -13218 0
87 -13218 0
-64 -87 13218 0
885 -13219 0
538 -13219 0
-885 -538 13219 0
-655 -13220 0
393 -13220 0
655 -393 13220 0
262 -13221 0
275 -13221 0
-262 -275 13221 0
-234 -13222 0
204 -13222 0
234 -204 13222 0
-257 -13223 0
119 -13223 0
257 -119 13223 0
467 -13224 0
-934 -13224 0
-467 934 13224 0
536 -13225 0
579 -13225 0
-536 -579 13225 0
565 -13226 0
217 -13226 0
-565 -217 13226 0
63 -13227 0
996 -13227 0
-63 -996 13227 0
-476 -13228 0
923 -13228 0
476 -923 13228 0
560 -13229 0
49 -13229 0
-560 -49 13229 0
-232 -13230 0
453 -13230 0
232 -453 13230 0
-613 -13231 0
529 -13231 0
613 -529 13231 0
118 -13232 0
713 -13232 0
-118 -713 13232 0
-110 -13233 0
434 -13233 0
110 -434 13233 0
591 -13234 0
324 -13234 0
-591 -324 13234 0
31 -13235 0
541 -13235 0
-31 -541 13235 0
240 -13236 0
186 -13236 0
-240 -186 13236 0
920 -13237 0
-700 -13237 0
-920 700 13237 0
-512 -13238 0
400 -13238 0
512 -400 13238 0
631 -13239 0
577 -13239 0
-631 -577 13239 0
390 -13240 0
699 -13240 0
-390 -699 13240 0
92 -13241 0
-638 -13241 0
-92 638 13241 0
-246 -13242 0
289 -13242 0
246 -289 13242 0
-644 -13243 0
649 -13243 0
644 -649 13243 0
188 -13244 0
-743 -13244 0
-188 743 13244 0
38 -13245 0
-867 -13245 0
-38 867 13245 0
46 -13246 0
278 -13246 0
-46 -278 13246 0
486 -13247 0
-139 -13247 0
-486 139 13247 0
252 -13248 0
-269 -13248 0
-252 269 13248 0
756 -13249 0
59 -13249 0
-756 -59 13249 0
598 -13250 0
18 -13250 0
-598 -18 13250 0
566 -13251 0
885 -13251 0
-566 -885 13251 0
661 -13252 0
-868 -13252 0
-661 868 13252 0
120 -13253 0
-870 -13253 0
-120 870 13253 0
415 -13254 0
-361 -13254 0
-415 361 13254 0
404 -13255 0
257 -13255 0
-404 -257 13255 0
-468 -13256 0
265 -13256 0
468 -265 13256 0
310 -13257 0
481 -13257 0
-310 -481 13257 0
-720 -13258 0
697 -13258 0
720 -697 13258 0
-833 -13259 0
962 -13259 0
833 -962 13259 0
548 -13260 0
-310 -13260 0
-548 310 13260 0
-515 -13261 0
530 -13261 0
515 -530 13261 0
750 -13262 0
509 -13262 0
-750 -509 13262 0
366 -13263 0
-374 -13263 0
-366 374 13263 0
894 -13264 0
-950 -13264 0
-894 950 13264 0
800 -13265 0
-191 -13265 0
-800 191 13265 0
573 -13266 0
20 -13266 0
-573 -20 13266 0
864 -13267 0
114 -13267 0
-864 -114 13267 0
-597 -13268 0
985 -13268 0
597 -985 13268 0
932 -13269 0
20 -13269 0
-932 -20 13269 0
380 -13270 0
-39 -13270 0
-380 39 13270 0
-476 -13271 0
377 -13271 0
476 -377 13271 0
-323 -13272 0
700 -13272 0
323 -700 13272 0
237 -13273 0
101 -13273 0
-237 -101 13273 0
266 -13274 0
-815 -13274 0
-266 815 13274 0
-626 -13275 0
226 -13275 0
626 -226 13275 0
-744 -13276 0
641 -13276 0
744 -641 13276 0
496 -13277 0
-970 -13277 0
-496 970 13277 0
169 -13278 0
-927 -13278 0
-169 927 13278 0
-611 -13279 0
692 -13279 0
611 -692 13279 0
32 -13280 0
855 -13280 0
-32 -855 13280 0
-660 -13281 0
114 -13281 0
660 -114 13281 0
638 -13282 0
-556 -13282 0
-638 556 13282 0
216 -13283 0
-557 -13283 0
-216 557 13283 0
473 -13284 0
-623 -13284 0
-473 623 13284 0
639 -13285 0
-670 -13285 0
-639 670 13285 0
-942 -13286 0
913 -13286 0
942 -913 13286 0
256 -13287 0
791 -13287 0
-256 -791 13287 0
175 -13288 0
-179 -13288 0
-175 179 13288 0
840 -13289 0
-308 -13289 0
-840 308 13289 0
-939 -13290 0
339 -13290 0
939 -339 13290 0
259 -13291 0
-335 -13291 0
-259 335 13291 0
596 -13292 0
9 -13292 0
-596 -9 13292 0
-400 -13293 0
446 -13293 0
400 -446 13293 0
37 -13294 0
713 -13294 0
-37 -713 13294 0
-939 -13295 0
74 -13295 0
939 -74 13295 0
-120 -13296 0
764 -13296 0
120 -764 13296 0
-521 -13297 0
819 -13297 0
521 -819 13297 0
-300 -13298 0
482 -13298 0
300 -482 13298 0
574 -13299 0
-807 -13299 0
-574 807 13299 0
767 -13300 0
430 -13300 0
-767 -430 13300 0
590 -13301 0
-110 -13301 0
-590 110 13301 0
-505 -13302 0
397 -13302 0
505 -397 13302 0
-331 -13303 0
890 -13303 0
331 -890 13303 0
965 -13304 0
491 -13304 0
-965 -491 13304 0
-805 -13305 0
225 -13305 0
805 -225 13305 0
440 -13306 0
87 -13306 0
-440 -87 13306 0
406 -13307 0
333 -13307 0
-406 -333 13307 0
-554 -13308 0
571 -13308 0
554 -571 13308 0
694 -13309 0
125 -13309 0
-694 -125 13309 0
752 -13310 0
-61 -13310 0
-752 61 13310 0
-804 -13311 0
562 -13311 0
804 -562 13311 0
-315 -13312 0
845 -13312 0
315 -845 13312 0
432 -13313 0
-788 -13313 0
-432 788 13313 0
566 -13314 0
220 -13314 0
-566 -220 13314 0
635 -13315 0
618 -13315 0
-635 -618 13315 0
-521 -13316 0
612 -13316 0
521 -612 13316 0
-938 -13317 0
94 -13317 0
938 -94 13317 0
88 -13318 0
-958 -13318 0
-88 958 13318 0
-35 -13319 0
850 -13319 0
35 -850 13319 0
-857 -13320 0
57 -13320 0
857 -57 13320 0
-448 -13321 0
483 -13321 0
448 -483 13321 0
-300 -13322 0
259 -13322 0
300 -259 13322 0
429 -13323 0
-87 -13323 0
-429 87 13323 0
-504 -13324 0
365 -13324 0
504 -365 13324 0
880 -13325 0
-49 -13325 0
-880 49 13325 0
143 -13326 0
766 -13326 0
-143 -766 13326 0
501 -13327 0
509 -13327 0
-501 -509 13327 0
644 -13328 0
714 -13328 0
-644 -714 13328 0
710 -13329 0
793 -13329 0
-710 -793 13329 0
989 -13330 0
-395 -13330 0
-989 395 13330 0
196 -13331 0
513 -13331 0
-196 -513 13331 0
860 -13332 0
849 -13332 0
-860 -849 13332 0
-896 -13333 0
719 -13333 0
896 -719 13333 0
946 -13334 0
-735 -13334 0
-946 735 13334 0
620 -13335 0
36 -13335 0
-620 -36 13335 0
-904 -13336 0
43 -13336 0
904 -43 13336 0
716 -13337 0
459 -13337 0
-716 -459 13337 0
-210 -13338 0
587 -13338 0
210 -587 13338 0
751 -13339 0
297 -13339 0
-751 -297 13339 0
384 -13340 0
479 -13340 0
-384 -479 13340 0
936 -13341 0
-860 -13341 0
-936 860 13341 0
332 -13342 0
-319 -13342 0
-332 319 13342 0
198 -13343 0
345 -13343 0
-198 -345 13343 0
-667 -13344 0
522 -13344 0
667 -522 13344 0
421 -13345 0
-307 -13345 0
-421 307 13345 0
-517 -13346 0
105 -13346 0
517 -105 13346 0
-113 -13347 0
793 -13347 0
113 -793 13347 0
-312 -13348 0
513 -13348 0
312 -513 13348 0
-18 -13349 0
257 -13349 0
18 -257 13349 0
739 -13350 0
50 -13350 0
-739 -50 13350 0
703 -13351 0
580 -13351 0
-703 -580 13351 0
377 -13352 0
105 -13352 0
-377 -105 13352 0
895 -13353 0
-637 -13353 0
-895 637 13353 0
830 -13354 0
577 -13354 0
-830 -577 13354 0
-395 -13355 0
276 -13355 0
395 -276 13355 0
-307 -13356 0
506 -13356 0
307 -506 13356 0
791 -13357 0
15 -13357 0
-791 -15 13357 0
984 -13358 0
-877 -13358 0
-984 877 13358 0
-736 -13359 0
916 -13359 0
736 -916 13359 0
664 -13360 0
937 -13360 0
-664 -937 13360 0
612 -13361 0
-983 -13361 0
-612 983 13361 0
938 -13362 0
521 -13362 0
-938 -521 13362 0
263 -13363 0
668 -13363 0
-263 -668 13363 0
291 -13364 0
-919 -13364 0
-291 919 13364 0
662 -13365 0
605 -13365 0
-662 -605 13365 0
823 -13366 0
937 -13366 0
-823 -937 13366 0
704 -13367 0
-8 -13367 0
-704 8 13367 0
532 -13368 0
98 -13368 0
-532 -98 13368 0
711 -13369 0
838 -13369 0
-711 -838 13369 0
-212 -13370 0
411 -13370 0
212 -411 13370 0
216 -13371 0
-554 -13371 0
-216 554 13371 0
349 -13372 0
-356 -13372 0
-349 356 13372 0
558 -13373 0
734 -13373 0
-558 -734 13373 0
88 -13374 0
-767 -13374 0
-88 767 13374 0
471 -13375 0
373 -13375 0
-471 -373 13375 0
100 -13376 0
-501 -13376 0
-100 501 13376 0
333 -13377 0
-324 -13377 0
-333 324 13377 0
197 -13378 0
836 -13378 0
-197 -836 13378 0
27 -13379 0
202 -13379 0
-27 -202 13379 0
96 -13380 0
-738 -13380 0
-96 738 13380 0
938 -13381 0
98 -13381 0
-938 -98 13381 0
335 -13382 0
940 -13382 0
-335 -940 13382 0
604 -13383 0
106 -13383 0
-604 -106 13383 0
134 -13384 0
723 -13384 0
-134 -723 13384 0
-547 -13385 0
596 -13385 0
547 -596 13385 0
519 -13386 0
-410 -13386 0
-519 410 13386 0
411 -13387 0
-167 -13387 0
-411 167 13387 0
-61 -13388 0
930 -13388 0
61 -930 13388 0
478 -13389 0
-54 -13389 0
-478 54 13389 0
279 -13390 0
-92 -13390 0
-279 92 13390 0
-273 -13391 0
701 -13391 0
273 -701 13391 0
758 -13392 0
158 -13392 0
-758 -158 13392 0
-466 -13393 0
268 -13393 0
466 -268 13393 0
176 -13394 0
-777 -13394 0
-176 777 13394 0
536 -13395 0
-255 -13395 0
-536 255 13395 0
813 -13396 0
-941 -13396 0
-813 941 13396 0
54 -13397 0
27 -13397 0
-54 -27 13397 0
-673 -13398 0
444 -13398 0
673 -444 13398 0
-418 -13399 0
468 -13399 0
418 -468 13399 0
-81 -13400 0
929 -13400 0
81 -929 13400 0
-652 -13401 0
954 -13401 0
652 -954 13401 0
502 -13402 0
522 -13402 0
-502 -522 13402 0
-152 -13403 0
282 -13403 0
152 -282 13403 0
508 -13404 0
769 -13404 0
-508 -769 13404 0
271 -13405 0
-695 -13405 0
-271 695 13405 0
547 -13406 0
-389 -13406 0
-547 389 13406 0
503 -13407 0
-918 -13407 0
-503 918 13407 0
84 -13408 0
-822 -13408 0
-84 822 13408 0
368 -13409 0
684 -13409 0
-368 -684 13409 0
-737 -13410 0
539 -13410 0
737 -539 13410 0
582 -13411 0
-971 -13411 0
-582 971 13411 0
-72 -13412 0
797 -13412 0
72 -797 13412 0
712 -13413 0
897 -13413 0
-712 -897 13413 0
598 -13414 0
222 -13414 0
-598 -222 13414 0
109 -13415 0
953 -13415 0
-109 -953 13415 0
144 -13416 0
450 -13416 0
-144 -450 13416 0
199 -13417 0
893 -13417 0
-199 -893 13417 0
436 -13418 0
898 -13418 0
-436 -898 13418 0
91 -13419 0
569 -13419 0
-91 -569 13419 0
800 -13420 0
815 -13420 0
-800 -815 13420 0
909 -13421 0
26 -13421 0
-909 -26 13421 0
-670 -13422 0
609 -13422 0
670 -609 13422 0
392 -13423 0
517 -13423 0
-392 -517 13423 0
842 -13424 0
530 -13424 0
-842 -530 13424 0
90 -13425 0
18 -13425 0
-90 -18 13425 0
480 -13426 0
-274 -13426 0
-480 274 13426 0
387 -13427 0
-377 -13428 0
341 -13428 0
377 -341 13428 0
883 -13429 0
833 -13429 0
-883 -833 13429 0
152 -13430 0
-384 -13430 0
-152 384 13430 0
971 -13431 0
-437 -13431 0
-971 437 13431 0
-978 -13432 0
179 -13432 0
978 -179 13432 0
592 -13433 0
836 -13433 0
-592 -836 13433 0
-432 -13434 0
689 -13434 0
432 -689 13434 0
-963 -13435 0
829 -13435 0
963 -829 13435 0
172 -13436 0
-789 -13436 0
-172 789 13436 0
271 -13437 0
-957 -13437 0
-271 957 13437 0
-434 -13438 0
788 -13438 0
434 -788 13438 0
-96 -13439 0
79 -13439 0
96 -79 13439 0
784 -13440 0
-602 -13440 0
-784 602 13440 0
-379 -13441 0
803 -13441 0
379 -803 13441 0
-289 -13442 0
106 -13442 0
289 -106 13442 0
965 -13443 0
180 -13443 0
-965 -180 13443 0
224 -13444 0
-760 -13444 0
-224 760 13444 0
-594 -13445 0
794 -13445 0
594 -794 13445 0
572 -13446 0
-31 -13446 0
-572 31 13446 0
707 -13447 0
-142 -13447 0
-707 142 13447 0
842 -13448 0
-367 -13448 0
-842 367 13448 0
15 -13449 0
-116 -13449 0
-15 116 13449 0
675 -13450 0
107 -13450 0
-675 -107 13450 0
728 -13451 0
-704 -13451 0
-728 704 13451 0
911 -13452 0
797 -13452 0
-911 -797 13452 0
463 -13453 0
-422 -13453 0
-463 422 13453 0
603 -13454 0
-622 -13454 0
-603 622 13454 0
336 -13455 0
287 -13455 0
-336 -287 13455 0
-90 -13456 0
596 -13456 0
90 -596 13456 0
-581 -13457 0
570 -13457 0
581 -570 13457 0
607 -13458 0
-653 -13458 0
-607 653 13458 0
988 -13459 0
353 -13459 0
-988 -353 13459 0
-685 -13460 0
385 -13460 0
685 -385 13460 0
182 -13461 0
307 -13461 0
-182 -307 13461 0
830 -13462 0
-662 -13462 0
-830 662 13462 0
157 -13463 0
-132 -13463 0
-157 132 13463 0
253 -13464 0
-469 -13464 0
-253 469 13464 0
-33 -13465 0
515 -13465 0
33 -515 13465 0
719 -13466 0
-403 -13466 0
-719 403 13466 0
159 -13467 0
-707 -13467 0
-159 707 13467 0
223 -13468 0
930 -13468 0
-223 -930 13468 0
646 -13469 0
-147 -13469 0
-646 147 13469 0
276 -13470 0
586 -13470 0
-276 -586 13470 0
-501 -13471 0
849 -13471 0
501 -849 13471 0
807 -13472 0
-791 -13472 0
-807 791 13472 0
856 -13473 0
273 -13473 0
-856 -273 13473 0
-80 -13474 0
347 -13474 0
80 -347 13474 0
982 -13475 0
-319 -13475 0
-982 319 13475 0
-681 -13476 0
44 -13476 0
681 -44 13476 0
690 -13477 0
458 -13477 0
-690 -458 13477 0
262 -13478 0
229 -13478 0
-262 -229 13478 0
165 -13479 0
397 -13479 0
-165 -397 13479 0
790 -13480 0
-591 -13480 0
-790 591 13480 0
739 -13481 0
113 -13481 0
-739 -113 13481 0
32 -13482 0
350 -13482 0
-32 -350 13482 0
795 -13483 0
-486 -13483 0
-795 486 13483 0
-297 -13484 0
725 -13484 0
297 -725 13484 0
690 -13485 0
-862 -13485 0
-690 862 13485 0
-857 -13486 0
210 -13486 0
857 -210 13486 0
-309 -13487 0
369 -13487 0
309 -369 13487 0
-248 -13488 0
306 -13488 0
248 -306 13488 0
941 -13489 0
-20 -13489 0
-941 20 13489 0
968 -13490 0
-171 -13490 0
-968 171 13490 0
647 -13491 0
831 -13491 0
-647 -831 13491 0
448 -13492 0
389 -13492 0
-448 -389 13492 0
-200 -13493 0
702 -13493 0
200 -702 13493 0
944 -13494 0
292 -13494 0
-944 -292 13494 0
600 -13495 0
927 -13495 0
-600 -927 13495 0
130 -13496 0
385 -13496 0
-130 -385 13496 0
-355 -13497 0
321 -13497 0
355 -321 13497 0
708 -13498 0
-815 -13498 0
-708 815 13498 0
764 -13499 0
97 -13499 0
-764 -97 13499 0
-329 -13500 0
622 -13500 0
329 -622 13500 0
856 -13501 0
784 -13501 0
-856 -784 13501 0
-272 -13502 0
341 -13502 0
272 -341 13502 0
534 -13503 0
629 -13503 0
-534 -629 13503 0
464 -13504 0
-594 -13504 0
-464 594 13504 0
140 -13505 0
220 -13505 0
-140 -220 13505 0
194 -13506 0
-215 -13506 0
-194 215 13506 0
456 -13507 0
-74 -13507 0
-456 74 13507 0
607 -13508 0
979 -13508 0
-607 -979 13508 0
39 -13509 0
-502 -13509 0
-39 502 13509 0
910 -13510 0
754 -13510 0
-910 -754 13510 0
899 -13511 0
354 -13511 0
-899 -354 13511 0
-661 -13512 0
537 -13512 0
661 -537 13512 0
-864 -13513 0
511 -13513 0
864 -511 13513 0
751 -13514 0
-292 -13514 0
-751 292 13514 0
568 -13515 0
-306 -13515 0
-568 306 13515 0
-160 -13516 0
955 -13516 0
160 -955 13516 0
-68 -13517 0
233 -13517 0
68 -233 13517 0
-411 -13518 0
59 -13519 0
835 -13519 0
-59 -835 13519 0
472 -13520 0
-485 -13520 0
-472 485 13520 0
-257 -13521 0
646 -13521 0
257 -646 13521 0
-834 -13522 0
508 -13522 0
834 -508 13522 0
486 -13523 0
-994 -13523 0
-486 994 13523 0
260 -13524 0
161 -13524 0
-260 -161 13524 0
-800 -13525 0
587 -13525 0
800 -587 13525 0
862 -13526 0
763 -13526 0
-862 -763 13526 0
342 -13527 0
-207 -13527 0
-342 207 13527 0
-165 -13528 0
410 -13528 0
165 -410 13528 0
-699 -13529 0
489 -13529 0
699 -489 13529 0
142 -13530 0
-622 -13530 0
-142 622 13530 0
-544 -13531 0
703 -13531 0
544 -703 13531 0
-784 -13532 0
3 -13532 0
784 -3 13532 0
638 -13533 0
626 -13533 0
-638 -626 13533 0
612 -13534 0
-815 -13534 0
-612 815 13534 0
260 -13535 0
850 -13535 0
-260 -850 13535 0
859 -13536 0
138 -13536 0
-859 -138 13536 0
-933 -13537 0
113 -13537 0
933 -113 13537 0
805 -13538 0
-981 -13538 0
-805 981 13538 0
108 -13539 0
-429 -13539 0
-108 429 13539 0
468 -13540 0
537 -13540 0
-468 -537 13540 0
724 -13541 0
305 -13541 0
-724 -305 13541 0
-861 -13542 0
890 -13542 0
861 -890 13542 0
975 -13543 0
-419 -13543 0
-975 419 13543 0
292 -13544 0
-39 -13544 0
-292 39 13544 0
-96 -13545 0
76 -13545 0
96 -76 13545 0
610 -13546 0
-134 -13546 0
-610 134 13546 0
-200 -13547 0
900 -13547 0
200 -900 13547 0
160 -13548 0
750 -13548 0
-160 -750 13548 0
-929 -13549 0
630 -13549 0
929 -630 13549 0
-344 -13550 0
948 -13550 0
344 -948 13550 0
519 -13551 0
428 -13551 0
-519 -428 13551 0
653 -13552 0
109 -13552 0
-653 -109 13552 0
-321 -13553 0
298 -13553 0
321 -298 13553 0
813 -13554 0
-76 -13554 0
-813 76 13554 0
370 -13555 0
921 -13555 0
-370 -921 13555 0
-217 -13556 0
750 -13556 0
217 -750 13556 0
36 -13557 0
740 -13557 0
-36 -740 13557 0
-659 -13558 0
81 -13558 0
659 -81 13558 0
-376 -13559 0
190 -13559 0
376 -190 13559 0
-170 -13560 0
302 -13560 0
170 -302 13560 0
344 -13561 0
-715 -13561 0
-344 715 13561 0
-617 -13562 0
691 -13562 0
617 -691 13562 0
173 -13563 0
242 -13563 0
-173 -242 13563 0
-832 -13564 0
164 -13564 0
832 -164 13564 0
597 -13565 0
-37 -13565 0
-597 37 13565 0
398 -13566 0
-599 -13566 0
-398 599 13566 0
954 -13567 0
881 -13567 0
-954 -881 13567 0
839 -13568 0
-31 -13568 0
-839 31 13568 0
904 -13569 0
-51 -13569 0
-904 51 13569 0
-875 -13570 0
787 -13570 0
875 -787 13570 0
792 -13571 0
311 -13571 0
-792 -311 13571 0
-737 -13572 0
460 -13572 0
737 -460 13572 0
48 -13573 0
-352 -13573 0
-48 352 13573 0
917 -13574 0
-807 -13574 0
-917 807 13574 0
526 -13575 0
587 -13575 0
-526 -587 13575 0
456 -13576 0
173 -13576 0
-456 -173 13576 0
666 -13577 0
-23 -13577 0
-666 23 13577 0
400 -13578 0
-361 -13578 0
-400 361 13578 0
120 -13579 0
-268 -13579 0
-120 268 13579 0
364 -13580 0
137 -13580 0
-364 -137 13580 0
-746 -13581 0
777 -13581 0
746 -777 13581 0
739 -13582 0
786 -13582 0
-739 -786 13582 0
716 -13583 0
114 -13583 0
-716 -114 13583 0
573 -13584 0
884 -13584 0
-573 -884 13584 0
541 -13585 0
658 -13585 0
-541 -658 13585 0
685 -13586 0
275 -13586 0
-685 -275 13586 0
-665 -13587 0
261 -13587 0
665 -261 13587 0
84 -13588 0
257 -13588 0
-84 -257 13588 0
944 -13589 0
-885 -13589 0
-944 885 13589 0
389 -13590 0
252 -13590 0
-389 -252 13590 0
-97 -13591 0
178 -13591 0
97 -178 13591 0
-312 -13592 0
188 -13592 0
312 -188 13592 0
868 -13593 0
-317 -13593 0
-868 317 13593 0
986 -13594 0
-39 -13594 0
-986 39 13594 0
-512 -13595 0
218 -13595 0
512 -218 13595 0
804 -13596 0
659 -13596 0
-804 -659 13596 0
747 -13597 0
-22 -13597 0
-747 22 13597 0
-556 -13598 0
995 -13598 0
556 -995 13598 0
24 -13599 0
-296 -13599 0
-24 296 13599 0
710 -13600 0
-159 -13600 0
-710 159 13600 0
-578 -13601 0
572 -13601 0
578 -572 13601 0
708 -13602 0
169 -13602 0
-708 -169 13602 0
656 -13603 0
304 -13603 0
-656 -304 13603 0
710 -13604 0
90 -13604 0
-710 -90 13604 0
-348 -13605 0
577 -13605 0
348 -577 13605 0
-651 -13606 0
180 -13606 0
651 -180 13606 0
534 -13607 0
-821 -13607 0
-534 821 13607 0
320 -13608 0
-570 -13608 0
-320 570 13608 0
-1000 -13609 0
88 -13609 0
1000 -88 13609 0
-746 -13610 0
246 -13610 0
746 -246 13610 0
484 -13611 0
-685 -13611 0
-484 685 13611 0
-414 -13612 0
434 -13612 0
414 -434 13612 0
424 -13613 0
136 -13613 0
-424 -136 13613 0
-921 -13614 0
73 -13614 0
921 -73 13614 0
376 -13615 0
575 -13615 0
-376 -575 13615 0
534 -13616 0
-479 -13616 0
-534 479 13616 0
-648 -13617 0
652 -13617 0
648 -652 13617 0
807 -13618 0
214 -13618 0
-807 -214 13618 0
-563 -13619 0
996 -13619 0
563 -996 13619 0
-522 -13620 0
185 -13620 0
522 -185 13620 0
-856 -13621 0
99 -13621 0
856 -99 13621 0
-101 -13622 0
705 -13622 0
101 -705 13622 0
-32 -13623 0
760 -13623 0
32 -760 13623 0
246 -13624 0
-630 -13624 0
-246 630 13624 0
88 -13625 0
-593 -13625 0
-88 593 13625 0
717 -13626 0
356 -13626 0
-717 -356 13626 0
36 -13627 0
940 -13627 0
-36 -940 13627 0
-539 -13628 0
837 -13628 0
539 -837 13628 0
-209 -13629 0
106 -13629 0
209 -106 13629 0
494 -13630 0
-14 -13630 0
-494 14 13630 0
232 -13631 0
-954 -13631 0
-232 954 13631 0
320 -13632 0
235 -13632 0
-320 -235 13632 0
-355 -13633 0
436 -13633 0
355 -436 13633 0
926 -13634 0
-171 -13634 0
-926 171 13634 0
168 -13635 0
-623 -13635 0
-168 623 13635 0
-696 -13636 0
779 -13636 0
696 -779 13636 0
168 -13637 0
-867 -13637 0
-168 867 13637 0
32 -13638 0
-774 -13638 0
-32 774 13638 0
-273 -13639 0
90 -13639 0
273 -90 13639 0
-514 -13640 0
475 -13640 0
514 -475 13640 0
455 -13641 0
540 -13641 0
-455 -540 13641 0
77 -13642 0
266 -13642 0
-77 -266 13642 0
613 -13643 0
692 -13643 0
-613 -692 13643 0
272 -13644 0
-630 -13644 0
-272 630 13644 0
418 -13645 0
-215 -13645 0
-418 215 13645 0
644 -13646 0
-662 -13646 0
-644 662 13646 0
856 -13647 0
-941 -13647 0
-856 941 13647 0
-267 -13648 0
753 -13648 0
267 -753 13648 0
-290 -13649 0
701 -13649 0
290 -701 13649 0
228 -13650 0
-61 -13650 0
-228 61 13650 0
96 -13651 0
-940 -13651 0
-96 940 13651 0
631 -13652 0
-649 -13652 0
-631 649 13652 0
514 -13653 0
841 -13653 0
-514 -841 13653 0
559 -13654 0
-468 -13654 0
-559 468 13654 0
508 -13655 0
211 -13655 0
-508 -211 13655 0
662 -13656 0
93 -13656 0
-662 -93 13656 0
84 -13657 0
-148 -13657 0
-84 148 13657 0
755 -13658 0
-445 -13658 0
-755 445 13658 0
400 -13659 0
555 -13659 0
-400 -555 13659 0
207 -13660 0
311 -13660 0
-207 -311 13660 0
-395 -13661 0
650 -13661 0
395 -650 13661 0
87 -13662 0
-700 -13662 0
-87 700 13662 0
702 -13663 0
-459 -13663 0
-702 459 13663 0
287 -13664 0
-370 -13664 0
-287 370 13664 0
328 -13665 0
-797 -13665 0
-328 797 13665 0
181 -13666 0
508 -13666 0
-181 -508 13666 0
571 -13667 0
106 -13667 0
-571 -106 13667 0
110 -13668 0
-215 -13668 0
-110 215 13668 0
-90 -13669 0
494 -13669 0
90 -494 13669 0
815 -13670 0
38 -13670 0
-815 -38 13670 0
398 -13671 0
-127 -13671 0
-398 127 13671 0
106 -13672 0
-287 -13672 0
-106 287 13672 0
-128 -13673 0
222 -13673 0
128 -222 13673 0
-819 -13674 0
945 -13674 0
819 -945 13674 0
72 -13675 0
464 -13675 0
-72 -464 13675 0
815 -13676 0
-795 -13676 0
-815 795 13676 0
188 -13677 0
481 -13677 0
-188 -481 13677 0
-88 -13678 0
522 -13678 0
88 -522 13678 0
493 -13679 0
-148 -13679 0
-493 148 13679 0
822 -13680 0
521 -13680 0
-822 -521 13680 0
360 -13681 0
127 -13681 0
-360 -127 13681 0
-224 -13682 0
134 -13682 0
224 -134 13682 0
783 -13683 0
-911 -13683 0
-783 911 13683 0
-273 -13684 0
73 -13684 0
273 -73 13684 0
-209 -13685 0
787 -13685 0
209 -787 13685 0
574 -13686 0
-870 -13686 0
-574 870 13686 0
623 -13687 0
-626 -13687 0
-623 626 13687 0
31 -13688 0
-506 -13688 0
-31 506 13688 0
215 -13689 0
-732 -13689 0
-215 732 13689 0
238 -13690 0
-403 -13690 0
-238 403 13690 0
-232 -13691 0
273 -13691 0
232 -273 13691 0
975 -13692 0
150 -13692 0
-975 -150 13692 0
204 -13693 0
954 -13693 0
-204 -954 13693 0
925 -13694 0
300 -13694 0
-925 -300 13694 0
-366 -13695 0
793 -13695 0
366 -793 13695 0
26 -13696 0
482 -13696 0
-26 -482 13696 0
837 -13697 0
844 -13697 0
-837 -844 13697 0
394 -13698 0
33 -13698 0
-394 -33 13698 0
856 -13699 0
921 -13699 0
-856 -921 13699 0
-496 -13700 0
929 -13700 0
496 -929 13700 0
616 -13701 0
508 -13701 0
-616 -508 13701 0
446 -13702 0
-326 -13702 0
-446 326 13702 0
871 -13703 0
-245 -13703 0
-871 245 13703 0
664 -13704 0
-345 -13704 0
-664 345 13704 0
835 -13705 0
67 -13705 0
-835 -67 13705 0
7 -13706 0
-524 -13706 0
-7 524 13706 0
-441 -13707 0
921 -13707 0
441 -921 13707 0
43 -13708 0
-870 -13708 0
-43 870 13708 0
-898 -13709 0
874 -13709 0
898 -874 13709 0
-688 -13710 0
597 -13710 0
688 -597 13710 0
-553 -13711 0
463 -13711 0
553 -463 13711 0
239 -13712 0
-501 -13712 0
-239 501 13712 0
916 -13713 0
-508 -13713 0
-916 508 13713 0
719 -13714 0
483 -13714 0
-719 -483 13714 0
-936 -13715 0
518 -13715 0
936 -518 13715 0
152 -13716 0
-417 -13716 0
-152 417 13716 0
447 -13717 0
-309 -13717 0
-447 309 13717 0
-457 -13718 0
53 -13718 0
457 -53 13718 0
469 -13719 0
-245 -13719 0
-469 245 13719 0
973 -13720 0
475 -13720 0
-973 -475 13720 0
598 -13721 0
-246 -13721 0
-598 246 13721 0
152 -13722 0
-475 -13722 0
-152 475 13722 0
918 -13723 0
506 -13723 0
-918 -506 13723 0
511 -13724 0
516 -13724 0
-511 -516 13724 0
-435 -13725 0
122 -13725 0
435 -122 13725 0
-692 -13726 0
697 -13726 0
692 -697 13726 0
550 -13727 0
294 -13727 0
-550 -294 13727 0
120 -13728 0
242 -13728 0
-120 -242 13728 0
276 -13729 0
-543 -13729 0
-276 543 13729 0
-128 -13730 0
925 -13730 0
128 -925 13730 0
469 -13731 0
-988 -13731 0
-469 988 13731 0
-992 -13732 0
110 -13732 0
992 -110 13732 0
493 -13733 0
620 -13733 0
-493 -620 13733 0
292 -13734 0
420 -13734 0
-292 -420 13734 0
366 -13735 0
-130 -13735 0
-366 130 13735 0
856 -13736 0
92 -13736 0
-856 -92 13736 0
333 -13737 0
-151 -13737 0
-333 151 13737 0
262 -13738 0
-820 -13738 0
-262 820 13738 0
517 -13739 0
273 -13739 0
-517 -273 13739 0
-874 -13740 0
27 -13740 0
874 -27 13740 0
-80 -13741 0
810 -13741 0
80 -810 13741 0
-620 -13742 0
219 -13742 0
620 -219 13742 0
168 -13743 0
-812 -13743 0
-168 812 13743 0
239 -13744 0
-598 -13744 0
-239 598 13744 0
-724 -13745 0
114 -13745 0
724 -114 13745 0
978 -13746 0
-743 -13746 0
-978 743 13746 0
-360 -13747 0
188 -13747 0
360 -188 13747 0
214 -13748 0
-719 -13748 0
-214 719 13748 0
289 -13749 0
401 -13749 0
-289 -401 13749 0
204 -13750 0
-757 -13750 0
-204 757 13750 0
655 -13751 0
-229 -13751 0
-655 229 13751 0
606 -13752 0
-358 -13752 0
-606 358 13752 0
664 -13753 0
916 -13753 0
-664 -916 13753 0
-777 -13754 0
514 -13754 0
777 -514 13754 0
-334 -13755 0
433 -13755 0
334 -433 13755 0
487 -13756 0
-434 -13756 0
-487 434 13756 0
-570 -13757 0
361 -13757 0
570 -361 13757 0
-978 -13758 0
450 -13758 0
978 -450 13758 0
242 -13759 0
-750 -13759 0
-242 750 13759 0
845 -13760 0
586 -13760 0
-845 -586 13760 0
480 -13761 0
-894 -13761 0
-480 894 13761 0
614 -13762 0
676 -13762 0
-614 -676 13762 0
-37 -13763 0
562 -13763 0
37 -562 13763 0
215 -13764 0
788 -13764 0
-215 -788 13764 0
-838 -13765 0
641 -13765 0
838 -641 13765 0
-909 -13766 0
889 -13766 0
909 -889 13766 0
216 -13767 0
443 -13767 0
-216 -443 13767 0
-936 -13768 0
812 -13768 0
936 -812 13768 0
106 -13769 0
-159 -13769 0
-106 159 13769 0
1000 -13770 0
-884 -13770 0
-1000 884 13770 0
-48 -13771 0
908 -13771 0
48 -908 13771 0
-191 -13772 0
465 -13772 0
191 -465 13772 0
368 -13773 0
341 -13773 0
-368 -341 13773 0
-931 -13774 0
691 -13774 0
931 -691 13774 0
-80 -13775 0
675 -13775 0
80 -675 13775 0
328 -13776 0
780 -13776 0
-328 -780 13776 0
615 -13777 0
-883 -13777 0
-615 883 13777 0
-800 -13778 0
874 -13778 0
800 -874 13778 0
218 -13779 0
58 -13779 0
-218 -58 13779 0
256 -13780 0
587 -13780 0
-256 -587 13780 0
-352 -13781 0
209 -13781 0
352 -209 13781 0
279 -13782 0
-180 -13782 0
-279 180 13782 0
-578 -13783 0
749 -13783 0
578 -749 13783 0
200 -13784 0
502 -13784 0
-200 -502 13784 0
-8 -13785 0
162 -13785 0
8 -162 13785 0
232 -13786 0
-712 -13786 0
-232 712 13786 0
340 -13787 0
604 -13787 0
-340 -604 13787 0
488 -13788 0
836 -13788 0
-488 -836 13788 0
292 -13789 0
346 -13789 0
-292 -346 13789 0
-313 -13790 0
106 -13790 0
313 -106 13790 0
-540 -13791 0
955 -13791 0
540 -955 13791 0
59 -13792 0
505 -13792 0
-59 -505 13792 0
-122 -13793 0
691 -13793 0
122 -691 13793 0
528 -13794 0
158 -13794 0
-528 -158 13794 0
-49 -13795 0
278 -13795 0
49 -278 13795 0
928 -13796 0
-876 -13796 0
-928 876 13796 0
833 -13797 0
409 -13797 0
-833 -409 13797 0
278 -13798 0
259 -13798 0
-278 -259 13798 0
924 -13799 0
-895 -13799 0
-924 895 13799 0
896 -13800 0
549 -13800 0
-896 -549 13800 0
-121 -13801 0
254 -13801 0
121 -254 13801 0
774 -13802 0
75 -13802 0
-774 -75 13802 0
943 -13803 0
-830 -13803 0
-943 830 13803 0
560 -13804 0
-981 -13804 0
-560 981 13804 0
263 -13805 0
-628 -13805 0
-263 628 13805 0
552 -13806 0
-108 -13806 0
-552 108 13806 0
-878 -13807 0
401 -13807 0
878 -401 13807 0
-16 -13808 0
562 -13808 0
16 -562 13808 0
-22 -13809 0
137 -13809 0
22 -137 13809 0
539 -13810 0
-855 -13810 0
-539 855 13810 0
173 -13811 0
-875 -13811 0
-173 875 13811 0
646 -13812 0
-735 -13812 0
-646 735 13812 0
823 -13813 0
641 -13813 0
-823 -641 13813 0
24 -13814 0
-516 -13814 0
-24 516 13814 0
85 -13815 0
617 -13815 0
-85 -617 13815 0
603 -13816 0
449 -13816 0
-603 -449 13816 0
230 -13817 0
-478 -13817 0
-230 478 13817 0
715 -13818 0
194 -13818 0
-715 -194 13818 0
782 -13819 0
-660 -13819 0
-782 660 13819 0
695 -13820 0
330 -13820 0
-695 -330 13820 0
744 -13821 0
917 -13821 0
-744 -917 13821 0
862 -13822 0
-260 -13822 0
-862 260 13822 0
62 -13823 0
861 -13823 0
-62 -861 13823 0
712 -13824 0
6 -13824 0
-712 -6 13824 0
271 -13825 0
98 -13825 0
-271 -98 13825 0
347 -13826 0
114 -13826 0
-347 -114 13826 0
719 -13827 0
-247 -13827 0
-719 247 13827 0
-947 -13828 0
276 -13828 0
947 -276 13828 0
125 -13829 0
-340 -13829 0
-125 340 13829 0
703 -13830 0
-107 -13830 0
-703 107 13830 0
-851 -13831 0
689 -13831 0
851 -689 13831 0
-623 -13832 0
465 -13832 0
623 -465 13832 0
-876 -13833 0
771 -13833 0
876 -771 13833 0
-641 -13834 0
674 -13834 0
641 -674 13834 0
990 -13835 0
-919 -13835 0
-990 919 13835 0
693 -13836 0
284 -13836 0
-693 -284 13836 0
587 -13837 0
-742 -13837 0
-587 742 13837 0
-293 -13838 0
745 -13838 0
293 -745 13838 0
186 -13839 0
274 -13839 0
-186 -274 13839 0
-650 -13840 0
198 -13840 0
650 -198 13840 0
709 -13841 0
43 -13841 0
-709 -43 13841 0
-8 -13842 0
375 -13842 0
8 -375 13842 0
373 -13843 0
-415 -13843 0
-373 415 13843 0
608 -13844 0
-212 -13844 0
-608 212 13844 0
967 -13845 0
-270 -13845 0
-967 270 13845 0
527 -13846 0
-546 -13846 0
-527 546 13846 0
-456 -13847 0
877 -13847 0
456 -877 13847 0
-161 -13848 0
930 -13848 0
161 -930 13848 0
192 -13849 0
436 -13849 0
-192 -436 13849 0
-97 -13850 0
121 -13850 0
97 -121 13850 0
254 -13851 0
203 -13851 0
-254 -203 13851 0
652 -13852 0
-469 -13852 0
-652 469 13852 0
511 -13853 0
-748 -13853 0
-511 748 13853 0
219 -13854 0
-575 -13854 0
-219 575 13854 0
-419 -13855 0
805 -13855 0
419 -805 13855 0
866 -13856 0
793 -13856 0
-866 -793 13856 0
312 -13857 0
-684 -13857 0
-312 684 13857 0
968 -13858 0
-785 -13858 0
-968 785 13858 0
-169 -13859 0
505 -13859 0
169 -505 13859 0
601 -13860 0
353 -13860 0
-601 -353 13860 0
-369 -13861 0
395 -13861 0
369 -395 13861 0
487 -13862 0
638 -13862 0
-487 -638 13862 0
29 -13863 0
770 -13863 0
-29 -770 13863 0
355 -13864 0
914 -13864 0
-355 -914 13864 0
-97 -13865 0
506 -13865 0
97 -506 13865 0
-321 -13866 0
139 -13866 0
321 -139 13866 0
-658 -13867 0
470 -13867 0
658 -470 13867 0
191 -13868 0
-941 -13868 0
-191 941 13868 0
-220 -13869 0
267 -13869 0
220 -267 13869 0
980 -13870 0
873 -13870 0
-980 -873 13870 0
175 -13871 0
947 -13871 0
-175 -947 13871 0
53 -13872 0
-198 -13872 0
-53 198 13872 0
792 -13873 0
131 -13873 0
-792 -131 13873 0
301 -13874 0
-639 -13874 0
-301 639 13874 0
-971 -13875 0
564 -13875 0
971 -564 13875 0
278 -13876 0
75 -13876 0
-278 -75 13876 0
688 -13877 0
-283 -13877 0
-688 283 13877 0
136 -13878 0
883 -13878 0
-136 -883 13878 0
-258 -13879 0
918 -13879 0
258 -918 13879 0
789 -13880 0
697 -13880 0
-789 -697 13880 0
830 -13881 0
-762 -13881 0
-830 762 13881 0
980 -13882 0
-815 -13882 0
-980 815 13882 0
975 -13883 0
315 -13883 0
-975 -315 13883 0
876 -13884 0
-846 -13884 0
-876 846 13884 0
-912 -13885 0
814 -13885 0
912 -814 13885 0
299 -13886 0
251 -13886 0
-299 -251 13886 0
120 -13887 0
-9 -13887 0
-120 9 13887 0
110 -13888 0
-98 -13888 0
-110 98 13888 0
-347 -13889 0
436 -13889 0
347 -436 13889 0
-129 -13890 0
842 -13890 0
129 -842 13890 0
695 -13891 0
381 -13891 0
-695 -381 13891 0
812 -13892 0
-997 -13892 0
-812 997 13892 0
501 -13893 0
-613 -13893 0
-501 613 13893 0
-962 -13894 0
734 -13894 0
962 -734 13894 0
-641 -13895 0
411 -13895 0
641 -411 13895 0
644 -13896 0
451 -13896 0
-644 -451 13896 0
-792 -13897 0
863 -13897 0
792 -863 13897 0
-961 -13898 0
90 -13898 0
961 -90 13898 0
-459 -13899 0
820 -13899 0
459 -820 13899 0
-729 -13900 0
559 -13900 0
729 -559 13900 0
676 -13901 0
220 -13901 0
-676 -220 13901 0
262 -13902 0
-663 -13902 0
-262 663 13902 0
-640 -13903 0
723 -13903 0
640 -723 13903 0
840 -13904 0
642 -13904 0
-840 -642 13904 0
-512 -13905 0
261 -13905 0
512 -261 13905 0
752 -13906 0
-780 -13906 0
-752 780 13906 0
-817 -13907 0
725 -13907 0
817 -725 13907 0
-172 -13908 0
393 -13908 0
172 -393 13908 0
263 -13909 0
70 -13909 0
-263 -70 13909 0
-578 -13910 0
716 -13910 0
578 -716 13910 0
-508 -13911 0
882 -13911 0
508 -882 13911 0
637 -13912 0
-463 -13912 0
-637 463 13912 0
-713 -13913 0
515 -13913 0
713 -515 13913 0
134 -13914 0
891 -13914 0
-134 -891 13914 0
512 -13915 0
-524 -13915 0
-512 524 13915 0
-147 -13916 0
273 -13916 0
147 -273 13916 0
784 -13917 0
-869 -13917 0
-784 869 13917 0
375 -13918 0
-242 -13918 0
-375 242 13918 0
766 -13919 0
-502 -13919 0
-766 502 13919 0
68 -13920 0
993 -13920 0
-68 -993 13920 0
552 -13921 0
115 -13921 0
-552 -115 13921 0
797 -13922 0
605 -13922 0
-797 -605 13922 0
-536 -13923 0
669 -13923 0
536 -669 13923 0
-317 -13924 0
179 -13924 0
317 -179 13924 0
494 -13925 0
186 -13925 0
-494 -186 13925 0
-264 -13926 0
931 -13926 0
264 -931 13926 0
485 -13927 0
732 -13927 0
-485 -732 13927 0
899 -13928 0
545 -13928 0
-899 -545 13928 0
152 -13929 0
141 -13929 0
-152 -141 13929 0
920 -13930 0
-14 -13930 0
-920 14 13930 0
10 -13931 0
953 -13931 0
-10 -953 13931 0
900 -13932 0
-599 -13932 0
-900 599 13932 0
213 -13933 0
9 -13933 0
-213 -9 13933 0
-69 -13934 0
658 -13934 0
69 -658 13934 0
943 -13935 0
900 -13935 0
-943 -900 13935 0
557 -13936 0
674 -13936 0
-557 -674 13936 0
-544 -13937 0
390 -13937 0
544 -390 13937 0
62 -13938 0
-902 -13938 0
-62 902 13938 0
-427 -13939 0
913 -13939 0
427 -913 13939 0
459 -13940 0
-375 -13940 0
-459 375 13940 0
192 -13941 0
443 -13941 0
-192 -443 13941 0
886 -13942 0
-955 -13942 0
-886 955 13942 0
967 -13943 0
-942 -13943 0
-967 942 13943 0
-296 -13944 0
84 -13944 0
296 -84 13944 0
964 -13945 0
67 -13945 0
-964 -67 13945 0
904 -13946 0
676 -13946 0
-904 -676 13946 0
-619 -13947 0
498 -13947 0
619 -498 13947 0
-62 -13948 0
586 -13948 0
62 -586 13948 0
590 -13949 0
898 -13949 0
-590 -898 13949 0
-25 -13950 0
702 -13950 0
25 -702 13950 0
-901 -13951 0
441 -13951 0
901 -441 13951 0
942 -13952 0
945 -13952 0
-942 -945 13952 0
-857 -13953 0
825 -13953 0
857 -825 13953 0
-310 -13954 0
73 -13954 0
310 -73 13954 0
230 -13955 0
-117 -13955 0
-230 117 13955 0
151 -13956 0
300 -13956 0
-151 -300 13956 0
1000 -13957 0
-679 -13957 0
-1000 679 13957 0
158 -13958 0
402 -13958 0
-158 -402 13958 0
-474 -13959 0
305 -13959 0
474 -305 13959 0
210 -13960 0
-247 -13960 0
-210 247 13960 0
528 -13961 0
-126 -13961 0
-528 126 13961 0
694 -13962 0
462 -13962 0
-694 -462 13962 0
-883 -13963 0
323 -13963 0
883 -323 13963 0
814 -13964 0
387 -13964 0
-814 -387 13964 0
456 -13965 0
-786 -13965 0
-456 786 13965 0
-451 -13966 0
308 -13966 0
451 -308 13966 0
-346 -13967 0
395 -13967 0
346 -395 13967 0
223 -13968 0
73 -13968 0
-223 -73 13968 0
93 -13969 0
-478 -13969 0
-93 478 13969 0
698 -13970 0
-551 -13970 0
-698 551 13970 0
847 -13971 0
-639 -13971 0
-847 639 13971 0
696 -13972 0
-978 -13972 0
-696 978 13972 0
558 -13973 0
-846 -13973 0
-558 846 13973 0
261 -13974 0
-236 -13974 0
-261 236 13974 0
645 -13975 0
-972 -13975 0
-645 972 13975 0
94 -13976 0
-340 -13976 0
-94 340 13976 0
358 -13977 0
-533 -13977 0
-358 533 13977 0
752 -13978 0
-688 -13978 0
-752 688 13978 0
487 -13979 0
-239 -13979 0
-487 239 13979 0
535 -13980 0
630 -13980 0
-535 -630 13980 0
335 -13981 0
-187 -13981 0
-335 187 13981 0
804 -13982 0
659 -13982 0
-804 -659 13982 0
-793 -13983 0
618 -13983 0
793 -618 13983 0
48 -13984 0
961 -13984 0
-48 -961 13984 0
-156 -13985 0
524 -13985 0
156 -524 13985 0
501 -13986 0
-467 -13986 0
-501 467 13986 0
511 -13987 0
719 -13987 0
-511 -719 13987 0
-657 -13988 0
137 -13988 0
657 -137 13988 0
-497 -13989 0
627 -13989 0
497 -627 13989 0
802 -13990 0
-391 -13990 0
-802 391 13990 0
-571 -13991 0
69 -13991 0
571 -69 13991 0
310 -13992 0
-146 -13992 0
-310 146 13992 0
996 -13993 0
426 -13993 0
-996 -426 13993 0
800 -13994 0
-921 -13994 0
-800 921 13994 0
-240 -13995 0
787 -13995 0
240 -787 13995 0
-214 -13996 0
138 -13996 0
214 -138 13996 0
-216 -13997 0
98 -13997 0
216 -98 13997 0
294 -13998 0
490 -13998 0
-294 -490 13998 0
414 -13999 0
-531 -13999 0
-414 531 13999 0
448 -14000 0
-487 -14000 0
-448 487 14000 0
951 -14001 0
-333 -14001 0
-951 333 14001 0
-204 -14002 0
756 -14002 0
204 -756 14002 0
-801 -14003 0
963 -14003 0
801 -963 14003 0
-883 -14004 0
129 -14004 0
883 -129 14004 0
370 -14005 0
305 -14005 0
-370 -305 14005 0
-427 -14006 0
714 -14006 0
427 -714 14006 0
442 -14007 0
-703 -14007 0
-442 703 14007 0
341 -14008 0
481 -14008 0
-341 -481 14008 0
519 -14009 0
858 -14009 0
-519 -858 14009 0
777 -14010 0
-375 -14010 0
-777 375 14010 0
667 -14011 0
-735 -14011 0
-667 735 14011 0
-862 -14012 0
809 -14012 0
862 -809 14012 0
632 -14013 0
861 -14013 0
-632 -861 14013 0
741 -14014 0
-295 -14014 0
-741 295 14014 0
824 -14015 0
467 -14015 0
-824 -467 14015 0
509 -14016 0
579 -14016 0
-509 -579 14016 0
928 -14017 0
773 -14017 0
-928 -773 14017 0
413 -14018 0
522 -14018 0
-413 -522 14018 0
-734 -14019 0
706 -14019 0
734 -706 14019 0
52 -14020 0
891 -14020 0
-52 -891 14020 0
-266 -14021 0
789 -14021 0
266 -789 14021 0
502 -14022 0
-819 -14022 0
-502 819 14022 0
53 -14023 0
994 -14023 0
-53 -994 14023 0
-753 -14024 0
787 -14024 0
753 -787 14024 0
49 -14025 0
-695 -14025 0
-49 695 14025 0
430 -14026 0
-836 -14026 0
-430 836 14026 0
309 -14027 0
-607 -14027 0
-309 607 14027 0
712 -14028 0
401 -14028 0
-712 -401 14028 0
-619 -14029 0
849 -14029 0
619 -849 14029 0
156 -14030 0
-990 -14030 0
-156 990 14030 0
612 -14031 0
49 -14031 0
-612 -49 14031 0
534 -14032 0
908 -14032 0
-534 -908 14032 0
390 -14033 0
980 -14033 0
-390 -980 14033 0
344 -14034 0
545 -14034 0
-344 -545 14034 0
848 -14035 0
439 -14035 0
-848 -439 14035 0
676 -14036 0
723 -14036 0
-676 -723 14036 0
-741 -14037 0
370 -14037 0
741 -370 14037 0
750 -14038 0
637 -14038 0
-750 -637 14038 0
78 -14039 0
-159 -14039 0
-78 159 14039 0
749 -14040 0
-228 -14040 0
-749 228 14040 0
156 -14041 0
569 -14041 0
-156 -569 14041 0
-250 -14042 0
659 -14042 0
250 -659 14042 0
423 -14043 0
-249 -14043 0
-423 249 14043 0
-760 -14044 0
202 -14044 0
760 -202 14044 0
509 -14045 0
-143 -14045 0
-509 143 14045 0
203 -14046 0
339 -14046 0
-203 -339 14046 0
880 -14047 0
-972 -14047 0
-880 972 14047 0
246 -14048 0
-955 -14048 0
-246 955 14048 0
219 -14049 0
115 -14049 0
-219 -115 14049 0
344 -14050 0
788 -14050 0
-344 -788 14050 0
40 -14051 0
-381 -14051 0
-40 381 14051 0
-588 -14052 0
473 -14052 0
588 -473 14052 0
-890 -14053 0
660 -14053 0
890 -660 14053 0
663 -14054 0
596 -14054 0
-663 -596 14054 0
139 -14055 0
851 -14055 0
-139 -851 14055 0
365 -14056 0
852 -14056 0
-365 -852 14056 0
942 -14057 0
-443 -14057 0
-942 443 14057 0
-648 -14058 0
449 -14058 0
648 -449 14058 0
-244 -14059 0
554 -14059 0
244 -554 14059 0
-733 -14060 0
274 -14060 0
733 -274 14060 0
685 -14061 0
629 -14061 0
-685 -629 14061 0
775 -14062 0
-597 -14062 0
-775 597 14062 0
-333 -14063 0
161 -14063 0
333 -161 14063 0
23 -14064 0
838 -14064 0
-23 -838 14064 0
-417 -14065 0
909 -14065 0
417 -909 14065 0
256 -14066 0
-431 -14066 0
-256 431 14066 0
589 -14067 0
25 -14067 0
-589 -25 14067 0
816 -14068 0
-966 -14068 0
-816 966 14068 0
141 -14069 0
170 -14069 0
-141 -170 14069 0
725 -14070 0
802 -14070 0
-725 -802 14070 0
376 -14071 0
-130 -14071 0
-376 130 14071 0
829 -14072 0
946 -14072 0
-829 -946 14072 0
864 -14073 0
-1000 -14073 0
-864 1000 14073 0
-924 -14074 0
345 -14074 0
924 -345 14074 0
47 -14075 0
-425 -14075 0
-47 425 14075 0
895 -14076 0
94 -14076 0
-895 -94 14076 0
624 -14077 0
-926 -14077 0
-624 926 14077 0
-328 -14078 0
383 -14078 0
328 -383 14078 0
616 -14079 0
-824 -14079 0
-616 824 14079 0
912 -14080 0
793 -14080 0
-912 -793 14080 0
211 -14081 0
-365 -14081 0
-211 365 14081 0
-258 -14082 0
193 -14082 0
258 -193 14082 0
847 -14083 0
570 -14083 0
-847 -570 14083 0
-23 -14084 0
89 -14084 0
23 -89 14084 0
124 -14085 0
762 -14085 0
-124 -762 14085 0
-214 -14086 0
929 -14086 0
214 -929 14086 0
206 -14087 0
-509 -14087 0
-206 509 14087 0
308 -14088 0
683 -14088 0
-308 -683 14088 0
487 -14089 0
-491 -14089 0
-487 491 14089 0
927 -14090 0
-673 -14090 0
-927 673 14090 0
877 -14091 0
397 -14091 0
-877 -397 14091 0
183 -14092 0
143 -14092 0
-183 -143 14092 0
246 -14093 0
-716 -14093 0
-246 716 14093 0
325 -14094 0
-903 -14094 0
-325 903 14094 0
366 -14095 0
-226 -14095 0
-366 226 14095 0
-689 -14096 0
874 -14096 0
689 -874 14096 0
-544 -14097 0
235 -14097 0
544 -235 14097 0
628 -14098 0
980 -14098 0
-628 -980 14098 0
52 -14099 0
241 -14099 0
-52 -241 14099 0
239 -14100 0
942 -14100 0
-239 -942 14100 0
783 -14101 0
605 -14101 0
-783 -605 14101 0
823 -14102 0
871 -14102 0
-823 -871 14102 0
656 -14103 0
-534 -14103 0
-656 534 14103 0
-128 -14104 0
319 -14104 0
128 -319 14104 0
338 -14105 0
633 -14105 0
-338 -633 14105 0
20 -14106 0
-517 -14106 0
-20 517 14106 0
784 -14107 0
-179 -14107 0
-784 179 14107 0
880 -14108 0
-90 -14108 0
-880 90 14108 0
-417 -14109 0
287 -14109 0
417 -287 14109 0
787 -14110 0
-110 -14110 0
-787 110 14110 0
434 -14111 0
-126 -14111 0
-434 126 14111 0
-913 -14112 0
389 -14112 0
913 -389 14112 0
-370 -14113 0
340 -14113 0
370 -340 14113 0
569 -14114 0
849 -14114 0
-569 -849 14114 0
-656 -14115 0
353 -14115 0
656 -353 14115 0
597 -14116 0
-687 -14116 0
-597 687 14116 0
-302 -14117 0
2 -14117 0
302 -2 14117 0
648 -14118 0
505 -14118 0
-648 -505 14118 0
751 -14119 0
-686 -14119 0
-751 686 14119 0
924 -14120 0
-758 -14120 0
-924 758 14120 0
399 -14121 0
-306 -14121 0
-399 306 14121 0
-162 -14122 0
789 -14122 0
162 -789 14122 0
828 -14123 0
883 -14123 0
-828 -883 14123 0
127 -14124 0
-571 -14124 0
-127 571 14124 0
-257 -14125 0
463 -14125 0
257 -463 14125 0
663 -14126 0
-626 -14126 0
-663 626 14126 0
723 -14127 0
-687 -14127 0
-723 687 14127 0
493 -14128 0
909 -14128 0
-493 -909 14128 0
-208 -14129 0
648 -14129 0
208 -648 14129 0
533 -14130 0
581 -14130 0
-533 -581 14130 0
-803 -14131 0
210 -14131 0
803 -210 14131 0
757 -14132 0
25 -14132 0
-757 -25 14132 0
-974 -14133 0
577 -14133 0
974 -577 14133 0
148 -14134 0
380 -14134 0
-148 -380 14134 0
-336 -14135 0
85 -14135 0
336 -85 14135 0
-907 -14136 0
489 -14136 0
907 -489 14136 0
24 -14137 0
237 -14137 0
-24 -237 14137 0
704 -14138 0
-729 -14138 0
-704 729 14138 0
-675 -14139 0
988 -14139 0
675 -988 14139 0
708 -14140 0
-614 -14140 0
-708 614 14140 0
239 -14141 0
-969 -14141 0
-239 969 14141 0
963 -14142 0
-437 -14142 0
-963 437 14142 0
471 -14143 0
261 -14143 0
-471 -261 14143 0
-865 -14144 0
387 -14144 0
865 -387 14144 0
8 -14145 0
-780 -14145 0
-8 780 14145 0
939 -14146 0
58 -14146 0
-939 -58 14146 0
-756 -14147 0
362 -14147 0
756 -362 14147 0
624 -14148 0
-340 -14148 0
-624 340 14148 0
-292 -14149 0
338 -14149 0
292 -338 14149 0
317 -14150 0
161 -14150 0
-317 -161 14150 0
388 -14151 0
-742 -14151 0
-388 742 14151 0
824 -14152 0
-491 -14152 0
-824 491 14152 0
8 -14153 0
313 -14153 0
-8 -313 14153 0
477 -14154 0
-493 -14154 0
-477 493 14154 0
221 -14155 0
917 -14155 0
-221 -917 14155 0
80 -14156 0
708 -14156 0
-80 -708 14156 0
-56 -14157 0
55 -14157 0
56 -55 14157 0
661 -14158 0
745 -14158 0
-661 -745 14158 0
724 -14159 0
20 -14159 0
-724 -20 14159 0
382 -14160 0
-199 -14160 0
-382 199 14160 0
-856 -14161 0
740 -14161 0
856 -740 14161 0
28 -14162 0
41 -14162 0
-28 -41 14162 0
951 -14163 0
701 -14163 0
-951 -701 14163 0
884 -14164 0
987 -14164 0
-884 -987 14164 0
796 -14165 0
-966 -14165 0
-796 966 14165 0
-194 -14166 0
985 -14166 0
194 -985 14166 0
546 -14167 0
-430 -14167 0
-546 430 14167 0
500 -14168 0
-222 -14168 0
-500 222 14168 0
-202 -14169 0
438 -14169 0
202 -438 14169 0
616 -14170 0
-838 -14170 0
-616 838 14170 0
582 -14171 0
-14 -14171 0
-582 14 14171 0
163 -14172 0
9 -14172 0
-163 -9 14172 0
-624 -14173 0
537 -14173 0
624 -537 14173 0
-912 -14174 0
595 -14174 0
912 -595 14174 0
426 -14175 0
-846 -14175 0
-426 846 14175 0
-452 -14176 0
818 -14176 0
452 -818 14176 0
-880 -14177 0
588 -14177 0
880 -588 14177 0
54 -14178 0
621 -14178 0
-54 -621 14178 0
973 -14179 0
369 -14179 0
-973 -369 14179 0
68 -14180 0
865 -14180 0
-68 -865 14180 0
-702 -14181 0
25 -14181 0
702 -25 14181 0
-490 -14182 0
316 -14182 0
490 -316 14182 0
383 -14183 0
-165 -14183 0
-383 165 14183 0
-705 -14184 0
961 -14184 0
705 -961 14184 0
371 -14185 0
-446 -14185 0
-371 446 14185 0
810 -14186 0
714 -14186 0
-810 -714 14186 0
648 -14187 0
-866 -14187 0
-648 866 14187 0
-345 -14188 0
292 -14188 0
345 -292 14188 0
-649 -14189 0
598 -14189 0
649 -598 14189 0
381 -14190 0
-476 -14190 0
-381 476 14190 0
332 -14191 0
873 -14191 0
-332 -873 14191 0
815 -14192 0
332 -14192 0
-815 -332 14192 0
-66 -14193 0
634 -14193 0
66 -634 14193 0
359 -14194 0
-564 -14194 0
-359 564 14194 0
966 -14195 0
-678 -14195 0
-966 678 14195 0
549 -14196 0
-860 -14196 0
-549 860 14196 0
287 -14197 0
-415 -14197 0
-287 415 14197 0
4 -14198 0
657 -14198 0
-4 -657 14198 0
647 -14199 0
941 -14200 0
-631 -14200 0
-941 631 14200 0
-170 -14201 0
278 -14201 0
170 -278 14201 0
344 -14202 0
-418 -14202 0
-344 418 14202 0
294 -14203 0
185 -14203 0
-294 -185 14203 0
-41 -14204 0
36 -14204 0
41 -36 14204 0
432 -14205 0
32 -14205 0
-432 -32 14205 0
820 -14206 0
-852 -14206 0
-820 852 14206 0
257 -14207 0
-287 -14207 0
-257 287 14207 0
470 -14208 0
-396 -14208 0
-470 396 14208 0
189 -14209 0
-28 -14209 0
-189 28 14209 0
256 -14210 0
-275 -14210 0
-256 275 14210 0
703 -14211 0
-301 -14211 0
-703 301 14211 0
327 -14212 0
-28 -14212 0
-327 28 14212 0
-848 -14213 0
781 -14213 0
848 -781 14213 0
470 -14214 0
-373 -14214 0
-470 373 14214 0
549 -14215 0
-211 -14215 0
-549 211 14215 0
237 -14216 0
460 -14216 0
-237 -460 14216 0
686 -14217 0
242 -14217 0
-686 -242 14217 0
308 -14218 0
339 -14218 0
-308 -339 14218 0
-67 -14219 0
651 -14219 0
67 -651 14219 0
886 -14220 0
915 -14220 0
-886 -915 14220 0
-553 -14221 0
315 -14221 0
553 -315 14221 0
830 -14222 0
582 -14222 0
-830 -582 14222 0
231 -14223 0
18 -14223 0
-231 -18 14223 0
178 -14224 0
-839 -14224 0
-178 839 14224 0
920 -14225 0
491 -14225 0
-920 -491 14225 0
983 -14226 0
635 -14226 0
-983 -635 14226 0
683 -14227 0
465 -14227 0
-683 -465 14227 0
248 -14228 0
-438 -14228 0
-248 438 14228 0
695 -14229 0
922 -14229 0
-695 -922 14229 0
559 -14230 0
493 -14230 0
-559 -493 14230 0
343 -14231 0
-209 -14231 0
-343 209 14231 0
450 -14232 0
594 -14232 0
-450 -594 14232 0
-588 -14233 0
491 -14233 0
588 -491 14233 0
469 -14234 0
37 -14234 0
-469 -37 14234 0
392 -14235 0
-435 -14235 0
-392 435 14235 0
-155 -14236 0
396 -14236 0
155 -396 14236 0
715 -14237 0
531 -14237 0
-715 -531 14237 0
560 -14238 0
-902 -14238 0
-560 902 14238 0
389 -14239 0
-92 -14239 0
-389 92 14239 0
-859 -14240 0
19 -14240 0
859 -19 14240 0
414 -14241 0
997 -14241 0
-414 -997 14241 0
-917 -14242 0
379 -14242 0
917 -379 14242 0
846 -14243 0
794 -14243 0
-846 -794 14243 0
-82 -14244 0
259 -14244 0
82 -259 14244 0
158 -14245 0
385 -14245 0
-158 -385 14245 0
916 -14246 0
538 -14246 0
-916 -538 14246 0
733 -14247 0
483 -14247 0
-733 -483 14247 0
320 -14248 0
926 -14248 0
-320 -926 14248 0
469 -14249 0
315 -14249 0
-469 -315 14249 0
349 -14250 0
-639 -14250 0
-349 639 14250 0
-905 -14251 0
299 -14251 0
905 -299 14251 0
-345 -14252 0
797 -14252 0
345 -797 14252 0
703 -14253 0
278 -14253 0
-703 -278 14253 0
-327 -14254 0
751 -14255 0
430 -14255 0
-751 -430 14255 0
894 -14256 0
-909 -14256 0
-894 909 14256 0
-909 -14257 0
434 -14257 0
909 -434 14257 0
-74 -14258 0
646 -14258 0
74 -646 14258 0
-546 -14259 0
914 -14259 0
546 -914 14259 0
-924 -14260 0
219 -14260 0
924 -219 14260 0
568 -14261 0
627 -14261 0
-568 -627 14261 0
199 -14262 0
875 -14262 0
-199 -875 14262 0
-98 -14263 0
948 -14263 0
98 -948 14263 0
-348 -14264 0
866 -14264 0
348 -866 14264 0
413 -14265 0
651 -14265 0
-413 -651 14265 0
837 -14266 0
393 -14266 0
-837 -393 14266 0
312 -14267 0
507 -14267 0
-312 -507 14267 0
511 -14268 0
66 -14268 0
-511 -66 14268 0
-578 -14269 0
126 -14269 0
578 -126 14269 0
-936 -14270 0
352 -14270 0
936 -352 14270 0
47 -14271 0
-390 -14271 0
-47 390 14271 0
952 -14272 0
900 -14272 0
-952 -900 14272 0
446 -14273 0
-347 -14273 0
-446 347 14273 0
557 -14274 0
845 -14274 0
-557 -845 14274 0
652 -14275 0
948 -14275 0
-652 -948 14275 0
1000 -14276 0
-594 -14276 0
-1000 594 14276 0
182 -14277 0
-918 -14277 0
-182 918 14277 0
820 -14278 0
-526 -14278 0
-820 526 14278 0
-700 -14279 0
113 -14279 0
700 -113 14279 0
-833 -14280 0
151 -14280 0
833 -151 14280 0
971 -14281 0
915 -14281 0
-971 -915 14281 0
991 -14282 0
35 -14282 0
-991 -35 14282 0
339 -14283 0
-207 -14283 0
-339 207 14283 0
-211 -14284 0
298 -14284 0
211 -298 14284 0
973 -14285 0
-131 -14285 0
-973 131 14285 0
382 -14286 0
-551 -14286 0
-382 551 14286 0
781 -14287 0
361 -14287 0
-781 -361 14287 0
982 -14288 0
285 -14288 0
-982 -285 14288 0
311 -14289 0
-579 -14289 0
-311 579 14289 0
514 -14290 0
841 -14290 0
-514 -841 14290 0
376 -14291 0
894 -14291 0
-376 -894 14291 0
197 -14292 0
-844 -14292 0
-197 844 14292 0
840 -14293 0
251 -14293 0
-840 -251 14293 0
-826 -14294 0
621 -14294 0
826 -621 14294 0
-936 -14295 0
46 -14295 0
936 -46 14295 0
326 -14296 0
569 -14296 0
-326 -569 14296 0
575 -14297 0
-679 -14297 0
-575 679 14297 0
240 -14298 0
748 -14298 0
-240 -748 14298 0
480 -14299 0
712 -14299 0
-480 -712 14299 0
-691 -14300 0
202 -14300 0
691 -202 14300 0
-56 -14301 0
723 -14301 0
56 -723 14301 0
844 -14302 0
-118 -14302 0
-844 118 14302 0
740 -14303 0
-63 -14303 0
-740 63 14303 0
-640 -14304 0
825 -14304 0
640 -825 14304 0
300 -14305 0
-30 -14305 0
-300 30 14305 0
486 -14306 0
246 -14306 0
-486 -246 14306 0
415 -14307 0
-617 -14307 0
-415 617 14307 0
240 -14308 0
602 -14308 0
-240 -602 14308 0
647 -14309 0
-411 -14309 0
-647 411 14309 0
609 -14310 0
-655 -14310 0
-609 655 14310 0
335 -14311 0
379 -14311 0
-335 -379 14311 0
-465 -14312 0
588 -14312 0
465 -588 14312 0
839 -14313 0
-374 -14313 0
-839 374 14313 0
-430 -14314 0
625 -14314 0
430 -625 14314 0
-880 -14315 0
272 -14315 0
880 -272 14315 0
296 -14316 0
158 -14316 0
-296 -158 14316 0
374 -14317 0
474 -14317 0
-374 -474 14317 0
675 -14318 0
-999 -14318 0
-675 999 14318 0
987 -14319 0
921 -14319 0
-987 -921 14319 0
13 -14320 0
-388 -14320 0
-13 388 14320 0
-53 -14321 0
370 -14321 0
53 -370 14321 0
672 -14322 0
-661 -14322 0
-672 661 14322 0
427 -14323 0
513 -14323 0
-427 -513 14323 0
-688 -14324 0
940 -14324 0
688 -940 14324 0
207 -14325 0
854 -14325 0
-207 -854 14325 0
-153 -14326 0
618 -14326 0
153 -618 14326 0
900 -14327 0
252 -14327 0
-900 -252 14327 0
-789 -14328 0
945 -14328 0
789 -945 14328 0
804 -14329 0
-229 -14329 0
-804 229 14329 0
-432 -14330 0
105 -14330 0
432 -105 14330 0
997 -14331 0
-675 -14331 0
-997 675 14331 0
440 -14332 0
-770 -14332 0
-440 770 14332 0
253 -14333 0
749 -14333 0
-253 -749 14333 0
503 -14334 0
241 -14334 0
-503 -241 14334 0
542 -14335 0
636 -14335 0
-542 -636 14335 0
228 -14336 0
-765 -14336 0
-228 765 14336 0
95 -14337 0
623 -14337 0
-95 -623 14337 0
340 -14338 0
683 -14338 0
-340 -683 14338 0
-690 -14339 0
733 -14339 0
690 -733 14339 0
93 -14340 0
76 -14340 0
-93 -76 14340 0
459 -14341 0
897 -14341 0
-459 -897 14341 0
119 -14342 0
353 -14342 0
-119 -353 14342 0
32 -14343 0
-68 -14343 0
-32 68 14343 0
220 -14344 0
769 -14344 0
-220 -769 14344 0
120 -14345 0
609 -14345 0
-120 -609 14345 0
656 -14346 0
-830 -14346 0
-656 830 14346 0
35 -14347 0
754 -14347 0
-35 -754 14347 0
-243 -14348 0
562 -14348 0
243 -562 14348 0
-329 -14349 0
94 -14349 0
329 -94 14349 0
271 -14350 0
-410 -14350 0
-271 410 14350 0
-35 -14351 0
292 -14351 0
35 -292 14351 0
-84 -14352 0
163 -14352 0
84 -163 14352 0
-723 -14353 0
915 -14353 0
723 -915 14353 0
868 -14354 0
409 -14354 0
-868 -409 14354 0
256 -14355 0
135 -14355 0
-256 -135 14355 0
-842 -14356 0
732 -14356 0
842 -732 14356 0
910 -14357 0
-958 -14357 0
-910 958 14357 0
834 -14358 0
-766 -14358 0
-834 766 14358 0
578 -14359 0
441 -14359 0
-578 -441 14359 0
-953 -14360 0
249 -14360 0
953 -249 14360 0
534 -14361 0
45 -14361 0
-534 -45 14361 0
951 -14362 0
474 -14362 0
-951 -474 14362 0
-840 -14363 0
599 -14363 0
840 -599 14363 0
-803 -14364 0
581 -14364 0
803 -581 14364 0
47 -14365 0
-221 -14365 0
-47 221 14365 0
869 -14366 0
-638 -14366 0
-869 638 14366 0
-872 -14367 0
991 -14367 0
872 -991 14367 0
767 -14368 0
-988 -14368 0
-767 988 14368 0
-232 -14369 0
325 -14369 0
232 -325 14369 0
442 -14370 0
-607 -14370 0
-442 607 14370 0
736 -14371 0
-924 -14371 0
-736 924 14371 0
623 -14372 0
-169 -14372 0
-623 169 14372 0
-704 -14373 0
741 -14373 0
704 -741 14373 0
860 -14374 0
-798 -14374 0
-860 798 14374 0
695 -14375 0
-356 -14375 0
-695 356 14375 0
992 -14376 0
-593 -14376 0
-992 593 14376 0
-649 -14377 0
775 -14377 0
649 -775 14377 0
571 -14378 0
-135 -14378 0
-571 135 14378 0
-668 -14379 0
315 -14379 0
668 -315 14379 0
-953 -14380 0
402 -14380 0
953 -402 14380 0
-273 -14381 0
622 -14381 0
273 -622 14381 0
558 -14382 0
-639 -14382 0
-558 639 14382 0
132 -14383 0
66 -14383 0
-132 -66 14383 0
712 -14384 0
431 -14384 0
-712 -431 14384 0
590 -14385 0
-228 -14385 0
-590 228 14385 0
174 -14386 0
761 -14386 0
-174 -761 14386 0
749 -14387 0
869 -14387 0
-749 -869 14387 0
119 -14388 0
-291 -14388 0
-119 291 14388 0
61 -14389 0
610 -14389 0
-61 -610 14389 0
-129 -14390 0
590 -14390 0
129 -590 14390 0
-206 -14391 0
674 -14391 0
206 -674 14391 0
-809 -14392 0
652 -14392 0
809 -652 14392 0
-416 -14393 0
308 -14393 0
416 -308 14393 0
727 -14394 0
-996 -14394 0
-727 996 14394 0
859 -14395 0
-366 -14395 0
-859 366 14395 0
-889 -14396 0
380 -14396 0
889 -380 14396 0
-432 -14397 0
687 -14397 0
432 -687 14397 0
690 -14398 0
225 -14398 0
-690 -225 14398 0
813 -14399 0
-493 -14399 0
-813 493 14399 0
685 -14400 0
436 -14400 0
-685 -436 14400 0
-995 -14401 0
841 -14401 0
995 -841 14401 0
822 -14402 0
493 -14402 0
-822 -493 14402 0
261 -14403 0
570 -14403 0
-261 -570 14403 0
101 -14404 0
60 -14404 0
-101 -60 14404 0
152 -14405 0
-2 -14405 0
-152 2 14405 0
-212 -14406 0
610 -14406 0
212 -610 14406 0
213 -14407 0
228 -14407 0
-213 -228 14407 0
-976 -14408 0
503 -14408 0
976 -503 14408 0
733 -14409 0
-678 -14409 0
-733 678 14409 0
431 -14410 0
842 -14410 0
-431 -842 14410 0
838 -14411 0
510 -14411 0
-838 -510 14411 0
801 -14412 0
225 -14412 0
-801 -225 14412 0
-154 -14413 0
941 -14413 0
154 -941 14413 0
540 -14414 0
-38 -14414 0
-540 38 14414 0
888 -14415 0
358 -14415 0
-888 -358 14415 0
891 -14416 0
225 -14416 0
-891 -225 14416 0
-945 -14417 0
754 -14417 0
945 -754 14417 0
406 -14418 0
-710 -14418 0
-406 710 14418 0
-708 -14419 0
611 -14419 0
708 -611 14419 0
747 -14420 0
-271 -14420 0
-747 271 14420 0
-8 -14421 0
807 -14421 0
8 -807 14421 0
792 -14422 0
793 -14422 0
-792 -793 14422 0
397 -14423 0
57 -14423 0
-397 -57 14423 0
271 -14424 0
254 -14424 0
-271 -254 14424 0
725 -14425 0
29 -14425 0
-725 -29 14425 0
797 -14426 0
98 -14426 0
-797 -98 14426 0
942 -14427 0
-974 -14427 0
-942 974 14427 0
15 -14428 0
-66 -14428 0
-15 66 14428 0
373 -14429 0
586 -14429 0
-373 -586 14429 0
-176 -14430 0
938 -14430 0
176 -938 14430 0
574 -14431 0
-101 -14431 0
-574 101 14431 0
-418 -14432 0
283 -14432 0
418 -283 14432 0
469 -14433 0
-403 -14433 0
-469 403 14433 0
2 -14434 0
889 -14434 0
-2 -889 14434 0
894 -14435 0
-29 -14435 0
-894 29 14435 0
582 -14436 0
349 -14436 0
-582 -349 14436 0
-257 -14437 0
822 -14437 0
257 -822 14437 0
83 -14438 0
345 -14438 0
-83 -345 14438 0
621 -14439 0
661 -14439 0
-621 -661 14439 0
-404 -14440 0
875 -14440 0
404 -875 14440 0
47 -14441 0
-802 -14441 0
-47 802 14441 0
632 -14442 0
-531 -14442 0
-632 531 14442 0
-69 -14443 0
601 -14443 0
69 -601 14443 0
-35 -14444 0
915 -14444 0
35 -915 14444 0
-425 -14445 0
642 -14445 0
425 -642 14445 0
-930 -14446 0
140 -14446 0
930 -140 14446 0
-38 -14447 0
578 -14447 0
38 -578 14447 0
779 -14448 0
242 -14448 0
-779 -242 14448 0
-467 -14449 0
394 -14449 0
467 -394 14449 0
-250 -14450 0
428 -14450 0
250 -428 14450 0
133 -14451 0
-965 -14451 0
-133 965 14451 0
-946 -14452 0
52 -14452 0
946 -52 14452 0
847 -14453 0
-253 -14453 0
-847 253 14453 0
576 -14454 0
768 -14454 0
-576 -768 14454 0
983 -14455 0
145 -14455 0
-983 -145 14455 0
941 -14456 0
329 -14456 0
-941 -329 14456 0
450 -14457 0
321 -14457 0
-450 -321 14457 0
-920 -14458 0
371 -14458 0
920 -371 14458 0
-10 -14459 0
275 -14459 0
10 -275 14459 0
-80 -14460 0
470 -14460 0
80 -470 14460 0
-465 -14461 0
883 -14461 0
465 -883 14461 0
-355 -14462 0
9 -14462 0
355 -9 14462 0
-59 -14463 0
699 -14463 0
59 -699 14463 0
-811 -14464 0
178 -14464 0
811 -178 14464 0
743 -14465 0
14 -14465 0
-743 -14 14465 0
-734 -14466 0
522 -14466 0
734 -522 14466 0
342 -14467 0
346 -14467 0
-342 -346 14467 0
559 -14468 0
558 -14468 0
-559 -558 14468 0
143 -14469 0
-22 -14469 0
-143 22 14469 0
-24 -14470 0
379 -14470 0
24 -379 14470 0
-437 -14471 0
497 -14471 0
437 -497 14471 0
991 -14472 0
-436 -14472 0
-991 436 14472 0
232 -14473 0
638 -14473 0
-232 -638 14473 0
-546 -14474 0
308 -14474 0
546 -308 14474 0
-972 -14475 0
267 -14475 0
972 -267 14475 0
56 -14476 0
-306 -14476 0
-56 306 14476 0
328 -14477 0
89 -14477 0
-328 -89 14477 0
-228 -14478 0
571 -14478 0
228 -571 14478 0
-529 -14479 0
134 -14479 0
529 -134 14479 0
-364 -14480 0
628 -14480 0
364 -628 14480 0
-136 -14481 0
754 -14481 0
136 -754 14481 0
635 -14482 0
-6 -14482 0
-635 6 14482 0
894 -14483 0
542 -14483 0
-894 -542 14483 0
-931 -14484 0
908 -14484 0
931 -908 14484 0
13 -14485 0
-798 -14485 0
-13 798 14485 0
910 -14486 0
-780 -14486 0
-910 780 14486 0
397 -14487 0
283 -14487 0
-397 -283 14487 0
943 -14488 0
21 -14488 0
-943 -21 14488 0
556 -14489 0
-637 -14489 0
-556 637 14489 0
-368 -14490 0
155 -14490 0
368 -155 14490 0
224 -14491 0
319 -14491 0
-224 -319 14491 0
-136 -14492 0
351 -14492 0
136 -351 14492 0
-152 -14493 0
659 -14493 0
152 -659 14493 0
-980 -14494 0
188 -14494 0
980 -188 14494 0
485 -14495 0
554 -14495 0
-485 -554 14495 0
-48 -14496 0
332 -14496 0
48 -332 14496 0
45 -14497 0
849 -14497 0
-45 -849 14497 0
519 -14498 0
-474 -14498 0
-519 474 14498 0
-581 -14499 0
321 -14499 0
581 -321 14499 0
676 -14500 0
698 -14500 0
-676 -698 14500 0
296 -14501 0
-944 -14501 0
-296 944 14501 0
247 -14502 0
340 -14502 0
-247 -340 14502 0
-690 -14503 0
843 -14503 0
690 -843 14503 0
80 -14504 0
-280 -14504 0
-80 280 14504 0
62 -14505 0
-594 -14505 0
-62 594 14505 0
189 -14506 0
59 -14506 0
-189 -59 14506 0
-1000 -14507 0
611 -14507 0
1000 -611 14507 0
672 -14508 0
624 -14508 0
-672 -624 14508 0
916 -14509 0
379 -14509 0
-916 -379 14509 0
672 -14510 0
-897 -14510 0
-672 897 14510 0
968 -14511 0
-10 -14511 0
-968 10 14511 0
46 -14512 0
843 -14512 0
-46 -843 14512 0
540 -14513 0
395 -14513 0
-540 -395 14513 0
805 -14514 0
563 -14514 0
-805 -563 14514 0
13 -14515 0
-798 -14515 0
-13 798 14515 0
-944 -14516 0
60 -14516 0
944 -60 14516 0
949 -14517 0
-732 -14517 0
-949 732 14517 0
-290 -14518 0
659 -14518 0
290 -659 14518 0
173 -14519 0
-206 -14519 0
-173 206 14519 0
158 -14520 0
533 -14520 0
-158 -533 14520 0
-293 -14521 0
833 -14521 0
293 -833 14521 0
551 -14522 0
-892 -14522 0
-551 892 14522 0
864 -14523 0
851 -14523 0
-864 -851 14523 0
-478 -14524 0
25 -14524 0
478 -25 14524 0
416 -14525 0
-374 -14525 0
-416 374 14525 0
839 -14526 0
388 -14526 0
-839 -388 14526 0
280 -14527 0
9 -14527 0
-280 -9 14527 0
-399 -14528 0
273 -14528 0
399 -273 14528 0
197 -14529 0
613 -14529 0
-197 -613 14529 0
-888 -14530 0
129 -14530 0
888 -129 14530 0
735 -14531 0
-166 -14531 0
-735 166 14531 0
626 -14532 0
553 -14532 0
-626 -553 14532 0
733 -14533 0
533 -14533 0
-733 -533 14533 0
589 -14534 0
-679 -14534 0
-589 679 14534 0
829 -14535 0
-22 -14535 0
-829 22 14535 0
272 -14536 0
969 -14536 0
-272 -969 14536 0
213 -14537 0
565 -14537 0
-213 -565 14537 0
702 -14538 0
821 -14538 0
-702 -821 14538 0
45 -14539 0
866 -14539 0
-45 -866 14539 0
973 -14540 0
-995 -14540 0
-973 995 14540 0
261 -14541 0
-717 -14541 0
-261 717 14541 0
-985 -14542 0
926 -14542 0
985 -926 14542 0
-789 -14543 0
841 -14543 0
789 -841 14543 0
216 -14544 0
-659 -14544 0
-216 659 14544 0
-367 -14545 0
385 -14545 0
367 -385 14545 0
222 -14546 0
-75 -14546 0
-222 75 14546 0
-234 -14547 0
940 -14547 0
234 -940 14547 0
881 -14548 0
201 -14548 0
-881 -201 14548 0
438 -14549 0
-212 -14549 0
-438 212 14549 0
-187 -14550 0
804 -14550 0
187 -804 14550 0
816 -14551 0
42 -14551 0
-816 -42 14551 0
307 -14552 0
329 -14552 0
-307 -329 14552 0
326 -14553 0
-646 -14553 0
-326 646 14553 0
23 -14554 0
-287 -14554 0
-23 287 14554 0
-945 -14555 0
677 -14555 0
945 -677 14555 0
27 -14556 0
673 -14556 0
-27 -673 14556 0
709 -14557 0
-565 -14557 0
-709 565 14557 0
780 -14558 0
-503 -14558 0
-780 503 14558 0
192 -14559 0
-442 -14559 0
-192 442 14559 0
741 -14560 0
-60 -14560 0
-741 60 14560 0
951 -14561 0
613 -14561 0
-951 -613 14561 0
585 -14562 0
345 -14562 0
-585 -345 14562 0
664 -14563 0
160 -14563 0
-664 -160 14563 0
567 -14564 0
-686 -14564 0
-567 686 14564 0
272 -14565 0
-762 -14565 0
-272 762 14565 0
-593 -14566 0
886 -14566 0
593 -886 14566 0
88 -14567 0
-667 -14567 0
-88 667 14567 0
-203 -14568 0
697 -14568 0
203 -697 14568 0
126 -14569 0
-972 -14569 0
-126 972 14569 0
266 -14570 0
985 -14570 0
-266 -985 14570 0
223 -14571 0
910 -14571 0
-223 -910 14571 0
951 -14572 0
-433 -14572 0
-951 433 14572 0
803 -14573 0
-30 -14573 0
-803 30 14573 0
-169 -14574 0
645 -14574 0
169 -645 14574 0
608 -14575 0
-299 -14575 0
-608 299 14575 0
894 -14576 0
622 -14576 0
-894 -622 14576 0
422 -14577 0
-71 -14577 0
-422 71 14577 0
63 -14578 0
254 -14578 0
-63 -254 14578 0
823 -14579 0
-398 -14579 0
-823 398 14579 0
132 -14580 0
633 -14580 0
-132 -633 14580 0
864 -14581 0
694 -14581 0
-864 -694 14581 0
-307 -14582 0
346 -14582 0
307 -346 14582 0
782 -14583 0
676 -14583 0
-782 -676 14583 0
638 -14584 0
-885 -14584 0
-638 885 14584 0
536 -14585 0
-838 -14585 0
-536 838 14585 0
-937 -14586 0
375 -14586 0
937 -375 14586 0
-929 -14587 0
967 -14587 0
929 -967 14587 0
-772 -14588 0
194 -14588 0
772 -194 14588 0
32 -14589 0
343 -14589 0
-32 -343 14589 0
576 -14590 0
-809 -14590 0
-576 809 14590 0
-587 -14591 0
730 -14591 0
587 -730 14591 0
-77 -14592 0
169 -14592 0
77 -169 14592 0
98 -14593 0
-494 -14593 0
-98 494 14593 0
-24 -14594 0
254 -14594 0
24 -254 14594 0
23 -14595 0
819 -14595 0
-23 -819 14595 0
357 -14596 0
-147 -14596 0
-357 147 14596 0
646 -14597 0
641 -14597 0
-646 -641 14597 0
411 -14598 0
938 -14598 0
-411 -938 14598 0
828 -14599 0
-399 -14599 0
-828 399 14599 0
-356 -14600 0
90 -14600 0
356 -90 14600 0
291 -14601 0
-823 -14601 0
-291 823 14601 0
481 -14602 0
609 -14602 0
-481 -609 14602 0
-498 -14603 0
201 -14603 0
498 -201 14603 0
61 -14604 0
235 -14604 0
-61 -235 14604 0
868 -14605 0
859 -14605 0
-868 -859 14605 0
127 -14606 0
868 -14606 0
-127 -868 14606 0
631 -14607 0
642 -14607 0
-631 -642 14607 0
-267 -14608 0
243 -14608 0
267 -243 14608 0
-577 -14609 0
441 -14609 0
577 -441 14609 0
80 -14610 0
-849 -14610 0
-80 849 14610 0
-347 -14611 0
739 -14611 0
347 -739 14611 0
59 -14612 0
-326 -14612 0
-59 326 14612 0
216 -14613 0
332 -14613 0
-216 -332 14613 0
-91 -14614 0
354 -14614 0
91 -354 14614 0
117 -14615 0
-367 -14615 0
-117 367 14615 0
237 -14616 0
-534 -14616 0
-237 534 14616 0
367 -14617 0
905 -14617 0
-367 -905 14617 0
975 -14618 0
-922 -14618 0
-975 922 14618 0
-858 -14619 0
684 -14619 0
858 -684 14619 0
996 -14620 0
418 -14620 0
-996 -418 14620 0
159 -14621 0
62 -14621 0
-159 -62 14621 0
-833 -14622 0
903 -14622 0
833 -903 14622 0
-625 -14623 0
684 -14623 0
625 -684 14623 0
559 -14624 0
379 -14624 0
-559 -379 14624 0
20 -14625 0
266 -14625 0
-20 -266 14625 0
343 -14626 0
732 -14626 0
-343 -732 14626 0
709 -14627 0
-916 -14627 0
-709 916 14627 0
941 -14628 0
-718 -14628 0
-941 718 14628 0
493 -14629 0
-845 -14629 0
-493 845 14629 0
-929 -14630 0
922 -14630 0
929 -922 14630 0
616 -14631 0
-77 -14631 0
-616 77 14631 0
308 -14632 0
915 -14632 0
-308 -915 14632 0
908 -14633 0
803 -14633 0
-908 -803 14633 0
-792 -14634 0
41 -14634 0
792 -41 14634 0
575 -14635 0
76 -14635 0
-575 -76 14635 0
523 -14636 0
-254 -14636 0
-523 254 14636 0
-668 -14637 0
979 -14637 0
668 -979 14637 0
16 -14638 0
590 -14638 0
-16 -590 14638 0
448 -14639 0
-312 -14639 0
-448 312 14639 0
548 -14640 0
-695 -14640 0
-548 695 14640 0
93 -14641 0
-932 -14641 0
-93 932 14641 0
768 -14642 0
16 -14642 0
-768 -16 14642 0
-232 -14643 0
52 -14643 0
232 -52 14643 0
748 -14644 0
-383 -14644 0
-748 383 14644 0
855 -14645 0
162 -14645 0
-855 -162 14645 0
888 -14646 0
-482 -14646 0
-888 482 14646 0
48 -14647 0
770 -14647 0
-48 -770 14647 0
639 -14648 0
-252 -14648 0
-639 252 14648 0
-56 -14649 0
960 -14649 0
56 -960 14649 0
-206 -14650 0
81 -14650 0
206 -81 14650 0
904 -14651 0
-792 -14651 0
-904 792 14651 0
261 -14652 0
-951 -14652 0
-261 951 14652 0
21 -14653 0
924 -14653 0
-21 -924 14653 0
558 -14654 0
250 -14654 0
-558 -250 14654 0
950 -14655 0
668 -14655 0
-950 -668 14655 0
-129 -14656 0
813 -14656 0
129 -813 14656 0
679 -14657 0
540 -14657 0
-679 -540 14657 0
-72 -14658 0
859 -14658 0
72 -859 14658 0
-696 -14659 0
920 -14659 0
696 -920 14659 0
-178 -14660 0
475 -14660 0
178 -475 14660 0
854 -14661 0
601 -14661 0
-854 -601 14661 0
-880 -14662 0
755 -14662 0
880 -755 14662 0
-506 -14663 0
685 -14663 0
506 -685 14663 0
767 -14664 0
326 -14664 0
-767 -326 14664 0
313 -14665 0
-863 -14665 0
-313 863 14665 0
-533 -14666 0
697 -14666 0
533 -697 14666 0
526 -14667 0
787 -14667 0
-526 -787 14667 0
867 -14668 0
658 -14668 0
-867 -658 14668 0
-600 -14669 0
170 -14669 0
600 -170 14669 0
214 -14670 0
-684 -14670 0
-214 684 14670 0
993 -14671 0
209 -14671 0
-993 -209 14671 0
159 -14672 0
-574 -14672 0
-159 574 14672 0
846 -14673 0
718 -14673 0
-846 -718 14673 0
301 -14674 0
-463 -14674 0
-301 463 14674 0
717 -14675 0
306 -14675 0
-717 -306 14675 0
637 -14676 0
-340 -14676 0
-637 340 14676 0
-834 -14677 0
909 -14677 0
834 -909 14677 0
487 -14678 0
-939 -14678 0
-487 939 14678 0
791 -14679 0
-959 -14679 0
-791 959 14679 0
449 -14680 0
-895 -14680 0
-449 895 14680 0
-529 -14681 0
676 -14681 0
529 -676 14681 0
237 -14682 0
466 -14682 0
-237 -466 14682 0
950 -14683 0
453 -14683 0
-950 -453 14683 0
4 -14684 0
-5 -14684 0
-4 5 14684 0
878 -14685 0
-331 -14685 0
-878 331 14685 0
256 -14686 0
-447 -14686 0
-256 447 14686 0
343 -14687 0
-459 -14687 0
-343 459 14687 0
316 -14688 0
75 -14688 0
-316 -75 14688 0
-937 -14689 0
38 -14689 0
937 -38 14689 0
184 -14690 0
-342 -14690 0
-184 342 14690 0
-179 -14691 0
771 -14691 0
179 -771 14691 0
719 -14692 0
882 -14692 0
-719 -882 14692 0
424 -14693 0
415 -14693 0
-424 -415 14693 0
408 -14694 0
52 -14694 0
-408 -52 14694 0
135 -14695 0
-790 -14695 0
-135 790 14695 0
317 -14696 0
442 -14696 0
-317 -442 14696 0
-883 -14697 0
469 -14697 0
883 -469 14697 0
-46 -14698 0
617 -14698 0
46 -617 14698 0
682 -14699 0
-639 -14699 0
-682 639 14699 0
976 -14700 0
988 -14700 0
-976 -988 14700 0
158 -14701 0
683 -14701 0
-158 -683 14701 0
-321 -14702 0
766 -14702 0
321 -766 14702 0
-142 -14703 0
289 -14703 0
142 -289 14703 0
-865 -14704 0
449 -14704 0
865 -449 14704 0
618 -14705 0
13 -14706 0
331 -14706 0
-13 -331 14706 0
603 -14707 0
-158 -14707 0
-603 158 14707 0
-77 -14708 0
241 -14708 0
77 -241 14708 0
408 -14709 0
-510 -14709 0
-408 510 14709 0
-654 -14710 0
609 -14710 0
654 -609 14710 0
-746 -14711 0
651 -14711 0
746 -651 14711 0
552 -14712 0
637 -14712 0
-552 -637 14712 0
-921 -14713 0
393 -14713 0
921 -393 14713 0
-353 -14714 0
90 -14714 0
353 -90 14714 0
263 -14715 0
487 -14715 0
-263 -487 14715 0
448 -14716 0
-727 -14716 0
-448 727 14716 0
632 -14717 0
215 -14717 0
-632 -215 14717 0
-18 -14718 0
637 -14718 0
18 -637 14718 0
-867 -14719 0
100 -14719 0
867 -100 14719 0
-169 -14720 0
547 -14720 0
169 -547 14720 0
304 -14721 0
-670 -14721 0
-304 670 14721 0
-616 -14722 0
307 -14722 0
616 -307 14722 0
62 -14723 0
-652 -14723 0
-62 652 14723 0
860 -14724 0
-709 -14724 0
-860 709 14724 0
552 -14725 0
595 -14725 0
-552 -595 14725 0
599 -14726 0
143 -14726 0
-599 -143 14726 0
629 -14727 0
-623 -14727 0
-629 623 14727 0
636 -14728 0
-509 -14728 0
-636 509 14728 0
-817 -14729 0
494 -14729 0
817 -494 14729 0
828 -14730 0
-916 -14730 0
-828 916 14730 0
-661 -14731 0
801 -14731 0
661 -801 14731 0
-841 -14732 0
343 -14732 0
841 -343 14732 0
230 -14733 0
-43 -14733 0
-230 43 14733 0
-505 -14734 0
836 -14734 0
505 -836 14734 0
937 -14735 0
673 -14735 0
-937 -673 14735 0
742 -14736 0
-989 -14736 0
-742 989 14736 0
941 -14737 0
876 -14737 0
-941 -876 14737 0
266 -14738 0
473 -14738 0
-266 -473 14738 0
646 -14739 0
996 -14739 0
-646 -996 14739 0
872 -14740 0
-281 -14740 0
-872 281 14740 0
-537 -14741 0
514 -14741 0
537 -514 14741 0
697 -14742 0
-287 -14742 0
-697 287 14742 0
-853 -14743 0
315 -14743 0
853 -315 14743 0
215 -14744 0
606 -14744 0
-215 -606 14744 0
407 -14745 0
-791 -14745 0
-407 791 14745 0
-941 -14746 0
913 -14746 0
941 -913 14746 0
56 -14747 0
12 -14747 0
-56 -12 14747 0
-724 -14748 0
817 -14748 0
724 -817 14748 0
-154 -14749 0
941 -14749 0
154 -941 14749 0
6 -14750 0
236 -14750 0
-6 -236 14750 0
-690 -14751 0
430 -14751 0
690 -430 14751 0
123 -14752 0
-901 -14752 0
-123 901 14752 0
650 -14753 0
65 -14753 0
-650 -65 14753 0
694 -14754 0
-579 -14754 0
-694 579 14754 0
335 -14755 0
907 -14755 0
-335 -907 14755 0
599 -14756 0
542 -14756 0
-599 -542 14756 0
571 -14757 0
233 -14757 0
-571 -233 14757 0
-536 -14758 0
847 -14758 0
536 -847 14758 0
-480 -14759 0
998 -14759 0
480 -998 14759 0
22 -14760 0
-831 -14760 0
-22 831 14760 0
182 -14761 0
786 -14761 0
-182 -786 14761 0
890 -14762 0
-535 -14762 0
-890 535 14762 0
181 -14763 0
477 -14763 0
-181 -477 14763 0
466 -14764 0
449 -14764 0
-466 -449 14764 0
883 -14765 0
-750 -14765 0
-883 750 14765 0
747 -14766 0
58 -14766 0
-747 -58 14766 0
448 -14767 0
282 -14767 0
-448 -282 14767 0
-448 -14768 0
779 -14768 0
448 -779 14768 0
-442 -14769 0
684 -14769 0
442 -684 14769 0
438 -14770 0
197 -14770 0
-438 -197 14770 0
935 -14771 0
-929 -14771 0
-935 929 14771 0
-169 -14772 0
553 -14772 0
169 -553 14772 0
112 -14773 0
-522 -14773 0
-112 522 14773 0
-352 -14774 0
504 -14774 0
352 -504 14774 0
384 -14775 0
450 -14775 0
-384 -450 14775 0
83 -14776 0
530 -14776 0
-83 -530 14776 0
495 -14777 0
-618 -14777 0
-495 618 14777 0
882 -14778 0
-687 -14778 0
-882 687 14778 0
918 -14779 0
993 -14779 0
-918 -993 14779 0
-466 -14780 0
188 -14780 0
466 -188 14780 0
-984 -14781 0
479 -14781 0
984 -479 14781 0
635 -14782 0
-189 -14782 0
-635 189 14782 0
588 -14783 0
-887 -14783 0
-588 887 14783 0
485 -14784 0
-982 -14784 0
-485 982 14784 0
-278 -14785 0
881 -14785 0
278 -881 14785 0
13 -14786 0
-838 -14786 0
-13 838 14786 0
-793 -14787 0
143 -14787 0
793 -143 14787 0
262 -14788 0
395 -14788 0
-262 -395 14788 0
231 -14789 0
-534 -14789 0
-231 534 14789 0
-827 -14790 0
561 -14790 0
827 -561 14790 0
69 -14791 0
-510 -14791 0
-69 510 14791 0
31 -14792 0
-502 -14792 0
-31 502 14792 0
888 -14793 0
-477 -14793 0
-888 477 14793 0
774 -14794 0
-310 -14794 0
-774 310 14794 0
-836 -14795 0
297 -14795 0
836 -297 14795 0
-267 -14796 0
426 -14796 0
267 -426 14796 0
407 -14797 0
-199 -14797 0
-407 199 14797 0
-529 -14798 0
749 -14798 0
529 -749 14798 0
1000 -14799 0
899 -14799 0
-1000 -899 14799 0
567 -14800 0
-390 -14800 0
-567 390 14800 0
-9 -14801 0
689 -14801 0
9 -689 14801 0
210 -14802 0
-390 -14802 0
-210 390 14802 0
776 -14803 0
234 -14803 0
-776 -234 14803 0
483 -14804 0
-485 -14804 0
-483 485 14804 0
-10 -14805 0
645 -14805 0
10 -645 14805 0
270 -14806 0
-468 -14806 0
-270 468 14806 0
168 -14807 0
-581 -14807 0
-168 581 14807 0
446 -14808 0
-399 -14808 0
-446 399 14808 0
728 -14809 0
-820 -14809 0
-728 820 14809 0
928 -14810 0
722 -14810 0
-928 -722 14810 0
-953 -14811 0
861 -14811 0
953 -861 14811 0
-915 -14812 0
106 -14812 0
915 -106 14812 0
808 -14813 0
142 -14813 0
-808 -142 14813 0
821 -14814 0
-476 -14814 0
-821 476 14814 0
685 -14815 0
612 -14815 0
-685 -612 14815 0
584 -14816 0
-385 -14816 0
-584 385 14816 0
64 -14817 0
994 -14817 0
-64 -994 14817 0
-928 -14818 0
448 -14818 0
928 -448 14818 0
-548 -14819 0
586 -14819 0
548 -586 14819 0
-401 -14820 0
882 -14820 0
401 -882 14820 0
439 -14821 0
-198 -14821 0
-439 198 14821 0
158 -14822 0
-132 -14822 0
-158 132 14822 0
735 -14823 0
-942 -14823 0
-735 942 14823 0
127 -14824 0
-135 -14824 0
-127 135 14824 0
-428 -14825 0
764 -14825 0
428 -764 14825 0
528 -14826 0
806 -14826 0
-528 -806 14826 0
719 -14827 0
332 -14827 0
-719 -332 14827 0
306 -14828 0
-111 -14828 0
-306 111 14828 0
680 -14829 0
103 -14829 0
-680 -103 14829 0
152 -14830 0
576 -14830 0
-152 -576 14830 0
667 -14831 0
306 -14831 0
-667 -306 14831 0
-201 -14832 0
179 -14832 0
201 -179 14832 0
194 -14833 0
490 -14833 0
-194 -490 14833 0
808 -14834 0
740 -14834 0
-808 -740 14834 0
812 -14835 0
-431 -14835 0
-812 431 14835 0
727 -14836 0
871 -14836 0
-727 -871 14836 0
999 -14837 0
597 -14837 0
-999 -597 14837 0
384 -14838 0
-394 -14838 0
-384 394 14838 0
94 -14839 0
162 -14839 0
-94 -162 14839 0
334 -14840 0
-514 -14840 0
-334 514 14840 0
933 -14841 0
489 -14841 0
-933 -489 14841 0
94 -14842 0
-940 -14842 0
-94 940 14842 0
896 -14843 0
440 -14843 0
-896 -440 14843 0
-281 -14844 0
163 -14844 0
281 -163 14844 0
368 -14845 0
-461 -14845 0
-368 461 14845 0
653 -14846 0
124 -14846 0
-653 -124 14846 0
430 -14847 0
865 -14847 0
-430 -865 14847 0
20 -14848 0
-671 -14848 0
-20 671 14848 0
-994 -14849 0
91 -14849 0
994 -91 14849 0
984 -14850 0
-536 -14850 0
-984 536 14850 0
-168 -14851 0
572 -14851 0
168 -572 14851 0
-312 -14852 0
475 -14852 0
312 -475 14852 0
494 -14853 0
-213 -14853 0
-494 213 14853 0
-464 -14854 0
258 -14854 0
464 -258 14854 0
778 -14855 0
-743 -14855 0
-778 743 14855 0
-698 -14856 0
678 -14856 0
698 -678 14856 0
398 -14857 0
446 -14857 0
-398 -446 14857 0
272 -14858 0
-64 -14858 0
-272 64 14858 0
287 -14859 0
-389 -14859 0
-287 389 14859 0
39 -14860 0
265 -14860 0
-39 -265 14860 0
504 -14861 0
-172 -14861 0
-504 172 14861 0
-753 -14862 0
511 -14862 0
753 -511 14862 0
892 -14863 0
-143 -14863 0
-892 143 14863 0
-504 -14864 0
338 -14864 0
504 -338 14864 0
356 -14865 0
257 -14865 0
-356 -257 14865 0
607 -14866 0
437 -14866 0
-607 -437 14866 0
-210 -14867 0
101 -14867 0
210 -101 14867 0
-964 -14868 0
906 -14868 0
964 -906 14868 0
150 -14869 0
108 -14869 0
-150 -108 14869 0
876 -14870 0
810 -14870 0
-876 -810 14870 0
918 -14871 0
-518 -14871 0
-918 518 14871 0
350 -14872 0
833 -14872 0
-350 -833 14872 0
-142 -14873 0
905 -14873 0
142 -905 14873 0
-488 -14874 0
810 -14874 0
488 -810 14874 0
448 -14875 0
879 -14875 0
-448 -879 14875 0
984 -14876 0
-851 -14876 0
-984 851 14876 0
903 -14877 0
-981 -14877 0
-903 981 14877 0
698 -14878 0
745 -14878 0
-698 -745 14878 0
-672 -14879 0
338 -14879 0
672 -338 14879 0
696 -14880 0
306 -14880 0
-696 -306 14880 0
702 -14881 0
537 -14881 0
-702 -537 14881 0
-123 -14882 0
130 -14882 0
123 -130 14882 0
312 -14883 0
-454 -14883 0
-312 454 14883 0
675 -14884 0
-142 -14884 0
-675 142 14884 0
-828 -14885 0
41 -14885 0
828 -41 14885 0
805 -14886 0
700 -14886 0
-805 -700 14886 0
-968 -14887 0
345 -14887 0
968 -345 14887 0
922 -14888 0
-86 -14888 0
-922 86 14888 0
118 -14889 0
-243 -14889 0
-118 243 14889 0
-777 -14890 0
613 -14890 0
777 -613 14890 0
647 -14891 0
873 -14891 0
-647 -873 14891 0
-131 -14892 0
325 -14892 0
131 -325 14892 0
-920 -14893 0
857 -14893 0
920 -857 14893 0
597 -14894 0
537 -14894 0
-597 -537 14894 0
971 -14895 0
-54 -14895 0
-971 54 14895 0
447 -14896 0
673 -14896 0
-447 -673 14896 0
509 -14897 0
835 -14897 0
-509 -835 14897 0
-425 -14898 0
589 -14898 0
425 -589 14898 0
959 -14899 0
-707 -14899 0
-959 707 14899 0
-985 -14900 0
51 -14900 0
985 -51 14900 0
924 -14901 0
-860 -14901 0
-924 860 14901 0
435 -14902 0
-510 -14902 0
-435 510 14902 0
435 -14903 0
290 -14903 0
-435 -290 14903 0
327 -14904 0
738 -14904 0
-327 -738 14904 0
-971 -14905 0
402 -14905 0
971 -402 14905 0
391 -14906 0
717 -14906 0
-391 -717 14906 0
318 -14907 0
970 -14907 0
-318 -970 14907 0
843 -14908 0
90 -14908 0
-843 -90 14908 0
-864 -14909 0
903 -14909 0
864 -903 14909 0
647 -14910 0
575 -14910 0
-647 -575 14910 0
-1 -14911 0
658 -14911 0
1 -658 14911 0
573 -14912 0
948 -14912 0
-573 -948 14912 0
964 -14913 0
417 -14913 0
-964 -417 14913 0
-98 -14914 0
362 -14914 0
98 -362 14914 0
456 -14915 0
-608 -14915 0
-456 608 14915 0
-592 -14916 0
361 -14916 0
592 -361 14916 0
664 -14917 0
-644 -14917 0
-664 644 14917 0
-900 -14918 0
98 -14918 0
900 -98 14918 0
94 -14919 0
-364 -14919 0
-94 364 14919 0
-114 -14920 0
434 -14920 0
114 -434 14920 0
-664 -14921 0
911 -14921 0
664 -911 14921 0
-987 -14922 0
585 -14922 0
987 -585 14922 0
928 -14923 0
587 -14923 0
-928 -587 14923 0
-627 -14924 0
788 -14924 0
627 -788 14924 0
744 -14925 0
534 -14925 0
-744 -534 14925 0
850 -14926 0
-279 -14926 0
-850 279 14926 0
456 -14927 0
515 -14927 0
-456 -515 14927 0
477 -14928 0
441 -14928 0
-477 -441 14928 0
202 -14929 0
225 -14929 0
-202 -225 14929 0
157 -14930 0
549 -14930 0
-157 -549 14930 0
-34 -14931 0
139 -14931 0
34 -139 14931 0
808 -14932 0
-112 -14932 0
-808 112 14932 0
-712 -14933 0
976 -14933 0
712 -976 14933 0
-451 -14934 0
443 -14934 0
451 -443 14934 0
463 -14935 0
334 -14935 0
-463 -334 14935 0
560 -14936 0
-791 -14936 0
-560 791 14936 0
800 -14937 0
-796 -14937 0
-800 796 14937 0
-265 -14938 0
633 -14938 0
265 -633 14938 0
482 -14939 0
289 -14939 0
-482 -289 14939 0
256 -14940 0
-622 -14940 0
-256 622 14940 0
975 -14941 0
-599 -14941 0
-975 599 14941 0
543 -14942 0
-215 -14942 0
-543 215 14942 0
415 -14943 0
-218 -14943 0
-415 218 14943 0
341 -14944 0
-188 -14944 0
-341 188 14944 0
527 -14945 0
86 -14945 0
-527 -86 14945 0
-786 -14946 0
212 -14946 0
786 -212 14946 0
235 -14947 0
689 -14947 0
-235 -689 14947 0
628 -14948 0
-988 -14948 0
-628 988 14948 0
150 -14949 0
-53 -14949 0
-150 53 14949 0
-603 -14950 0
661 -14950 0
603 -661 14950 0
-570 -14951 0
602 -14951 0
570 -602 14951 0
310 -14952 0
91 -14952 0
-310 -91 14952 0
806 -14953 0
-60 -14953 0
-806 60 14953 0
776 -14954 0
966 -14954 0
-776 -966 14954 0
287 -14955 0
577 -14955 0
-287 -577 14955 0
392 -14956 0
599 -14956 0
-392 -599 14956 0
-812 -14957 0
267 -14957 0
812 -267 14957 0
544 -14958 0
-551 -14958 0
-544 551 14958 0
-512 -14959 0
702 -14959 0
512 -702 14959 0
-952 -14960 0
918 -14960 0
952 -918 14960 0
-342 -14961 0
697 -14961 0
342 -697 14961 0
668 -14962 0
-663 -14962 0
-668 663 14962 0
747 -14963 0
-990 -14963 0
-747 990 14963 0
-459 -14964 0
51 -14964 0
459 -51 14964 0
608 -14965 0
554 -14965 0
-608 -554 14965 0
-986 -14966 0
506 -14966 0
986 -506 14966 0
-746 -14967 0
990 -14967 0
746 -990 14967 0
798 -14968 0
521 -14968 0
-798 -521 14968 0
948 -14969 0
18 -14969 0
-948 -18 14969 0
879 -14970 0
-394 -14970 0
-879 394 14970 0
-393 -14971 0
774 -14971 0
393 -774 14971 0
672 -14972 0
-613 -14972 0
-672 613 14972 0
-396 -14973 0
539 -14973 0
396 -539 14973 0
-390 -14974 0
713 -14974 0
390 -713 14974 0
918 -14975 0
422 -14975 0
-918 -422 14975 0
-114 -14976 0
258 -14976 0
114 -258 14976 0
539 -14977 0
-582 -14977 0
-539 582 14977 0
822 -14978 0
11 -14978 0
-822 -11 14978 0
-728 -14979 0
227 -14979 0
728 -227 14979 0
886 -14980 0
430 -14980 0
-886 -430 14980 0
358 -14981 0
761 -14981 0
-358 -761 14981 0
220 -14982 0
-925 -14982 0
-220 925 14982 0
558 -14983 0
795 -14983 0
-558 -795 14983 0
310 -14984 0
-610 -14984 0
-310 610 14984 0
232 -14985 0
-908 -14985 0
-232 908 14985 0
-580 -14986 0
313 -14986 0
580 -313 14986 0
-912 -14987 0
555 -14987 0
912 -555 14987 0
565 -14988 0
-838 -14988 0
-565 838 14988 0
984 -14989 0
-506 -14989 0
-984 506 14989 0
-224 -14990 0
697 -14990 0
224 -697 14990 0
-441 -14991 0
675 -14991 0
441 -675 14991 0
639 -14992 0
515 -14992 0
-639 -515 14992 0
712 -14993 0
278 -14993 0
-712 -278 14993 0
-98 -14994 0
477 -14994 0
98 -477 14994 0
-955 -14995 0
289 -14995 0
955 -289 14995 0
-739 -14996 0
330 -14996 0
739 -330 14996 0
900 -14997 0
-822 -14997 0
-900 822 14997 0
-851 -14998 0
468 -14998 0
851 -468 14998 0
991 -14999 0
-111 -14999 0
-991 111 14999 0
695 -15000 0
782 -15000 0
-695 -782 15000 0
526 -15001 0
-828 -15001 0
-526 828 15001 0
257 -15002 0
-919 -15002 0
-257 919 15002 0
8 -15003 0
-634 -15003 0
-8 634 15003 0
-928 -15004 0
934 -15004 0
928 -934 15004 0
360 -15005 0
-982 -15005 0
-360 982 15005 0
734 -15006 0
347 -15006 0
-734 -347 15006 0
-958 -15007 0
90 -15007 0
958 -90 15007 0
14 -15008 0
-179 -15008 0
-14 179 15008 0
-810 -15009 0
849 -15009 0
810 -849 15009 0
133 -15010 0
-564 -15010 0
-133 564 15010 0
-315 -15011 0
757 -15011 0
315 -757 15011 0
912 -15012 0
-148 -15012 0
-912 148 15012 0
389 -15013 0
-799 -15013 0
-389 799 15013 0
701 -15014 0
-477 -15014 0
-701 477 15014 0
26 -15015 0
-959 -15015 0
-26 959 15015 0
645 -15016 0
-743 -15016 0
-645 743 15016 0
-572 -15017 0
571 -15017 0
572 -571 15017 0
-664 -15018 0
26 -15018 0
664 -26 15018 0
822 -15019 0
-495 -15019 0
-822 495 15019 0
-988 -15020 0
938 -15020 0
988 -938 15020 0
293 -15021 0
42 -15021 0
-293 -42 15021 0
-546 -15022 0
81 -15022 0
546 -81 15022 0
544 -15023 0
-847 -15023 0
-544 847 15023 0
-427 -15024 0
913 -15024 0
427 -913 15024 0
-148 -15025 0
762 -15025 0
148 -762 15025 0
999 -15026 0
295 -15026 0
-999 -295 15026 0
-261 -15027 0
441 -15027 0
261 -441 15027 0
-160 -15028 0
894 -15028 0
160 -894 15028 0
724 -15029 0
-359 -15029 0
-724 359 15029 0
445 -15030 0
-751 -15030 0
-445 751 15030 0
284 -15031 0
484 -15031 0
-284 -484 15031 0
848 -15032 0
410 -15032 0
-848 -410 15032 0
158 -15033 0
-436 -15033 0
-158 436 15033 0
-201 -15034 0
937 -15034 0
201 -937 15034 0
-392 -15035 0
916 -15035 0
392 -916 15035 0
421 -15036 0
-686 -15036 0
-421 686 15036 0
-566 -15037 0
945 -15037 0
566 -945 15037 0
672 -15038 0
-484 -15038 0
-672 484 15038 0
-194 -15039 0
834 -15039 0
194 -834 15039 0
517 -15040 0
570 -15040 0
-517 -570 15040 0
816 -15041 0
-10 -15041 0
-816 10 15041 0
-801 -15042 0
889 -15042 0
801 -889 15042 0
181 -15043 0
473 -15043 0
-181 -473 15043 0
-996 -15044 0
123 -15044 0
996 -123 15044 0
712 -15045 0
-782 -15045 0
-712 782 15045 0
-540 -15046 0
771 -15046 0
540 -771 15046 0
813 -15047 0
-341 -15047 0
-813 341 15047 0
-856 -15048 0
697 -15048 0
856 -697 15048 0
86 -15049 0
-435 -15049 0
-86 435 15049 0
698 -15050 0
-471 -15050 0
-698 471 15050 0
996 -15051 0
-613 -15051 0
-996 613 15051 0
-752 -15052 0
738 -15052 0
752 -738 15052 0
-905 -15053 0
146 -15053 0
905 -146 15053 0
174 -15054 0
-685 -15054 0
-174 685 15054 0
302 -15055 0
-347 -15055 0
-302 347 15055 0
-108 -15056 0
194 -15056 0
108 -194 15056 0
-81 -15057 0
607 -15057 0
81 -607 15057 0
-394 -15058 0
122 -15058 0
394 -122 15058 0
59 -15059 0
-15 -15059 0
-59 15 15059 0
396 -15060 0
820 -15060 0
-396 -820 15060 0
301 -15061 0
44 -15061 0
-301 -44 15061 0
808 -15062 0
-137 -15062 0
-808 137 15062 0
532 -15063 0
-238 -15063 0
-532 238 15063 0
-870 -15064 0
89 -15064 0
870 -89 15064 0
-923 -15065 0
611 -15065 0
923 -611 15065 0
423 -15066 0
-31 -15066 0
-423 31 15066 0
306 -15067 0
913 -15067 0
-306 -913 15067 0
-944 -15068 0
225 -15068 0
944 -225 15068 0
-120 -15069 0
739 -15069 0
120 -739 15069 0
144 -15070 0
-374 -15070 0
-144 374 15070 0
928 -15071 0
885 -15071 0
-928 -885 15071 0
272 -15072 0
405 -15072 0
-272 -405 15072 0
248 -15073 0
-376 -15073 0
-248 376 15073 0
760 -15074 0
82 -15074 0
-760 -82 15074 0
-104 -15075 0
24 -15075 0
104 -24 15075 0
391 -15076 0
163 -15076 0
-391 -163 15076 0
77 -15077 0
657 -15077 0
-77 -657 15077 0
-301 -15078 0
723 -15078 0
301 -723 15078 0
-420 -15079 0
635 -15079 0
420 -635 15079 0
729 -15080 0
881 -15080 0
-729 -881 15080 0
-718 -15081 0
809 -15081 0
718 -809 15081 0
470 -15082 0
365 -15082 0
-470 -365 15082 0
279 -15083 0
-505 -15083 0
-279 505 15083 0
-379 -15084 0
124 -15084 0
379 -124 15084 0
215 -15085 0
-700 -15085 0
-215 700 15085 0
264 -15086 0
-815 -15086 0
-264 815 15086 0
8 -15087 0
-459 -15087 0
-8 459 15087 0
768 -15088 0
-36 -15088 0
-768 36 15088 0
-737 -15089 0
29 -15089 0
737 -29 15089 0
839 -15090 0
883 -15090 0
-839 -883 15090 0
957 -15091 0
484 -15091 0
-957 -484 15091 0
139 -15092 0
457 -15092 0
-139 -457 15092 0
799 -15093 0
668 -15093 0
-799 -668 15093 0
-652 -15094 0
409 -15094 0
652 -409 15094 0
215 -15095 0
-499 -15095 0
-215 499 15095 0
-1000 -15096 0
747 -15096 0
1000 -747 15096 0
-706 -15097 0
866 -15097 0
706 -866 15097 0
75 -15098 0
121 -15098 0
-75 -121 15098 0
-323 -15099 0
645 -15099 0
323 -645 15099 0
8 -15100 0
-854 -15100 0
-8 854 15100 0
711 -15101 0
-183 -15101 0
-711 183 15101 0
727 -15102 0
257 -15102 0
-727 -257 15102 0
580 -15103 0
113 -15103 0
-580 -113 15103 0
310 -15104 0
953 -15104 0
-310 -953 15104 0
299 -15105 0
867 -15105 0
-299 -867 15105 0
508 -15106 0
-783 -15106 0
-508 783 15106 0
-112 -15107 0
764 -15107 0
112 -764 15107 0
-849 -15108 0
11 -15108 0
849 -11 15108 0
-330 -15109 0
468 -15109 0
330 -468 15109 0
480 -15110 0
-911 -15110 0
-480 911 15110 0
-960 -15111 0
315 -15111 0
960 -315 15111 0
-755 -15112 0
729 -15112 0
755 -729 15112 0
31 -15113 0
398 -15113 0
-31 -398 15113 0
255 -15114 0
909 -15114 0
-255 -909 15114 0
798 -15115 0
377 -15115 0
-798 -377 15115 0
744 -15116 0
789 -15116 0
-744 -789 15116 0
582 -15117 0
501 -15117 0
-582 -501 15117 0
936 -15118 0
-237 -15118 0
-936 237 15118 0
278 -15119 0
-660 -15119 0
-278 660 15119 0
550 -15120 0
382 -15120 0
-550 -382 15120 0
-585 -15121 0
604 -15121 0
585 -604 15121 0
-990 -15122 0
209 -15122 0
990 -209 15122 0
374 -15123 0
401 -15123 0
-374 -401 15123 0
-336 -15124 0
498 -15124 0
336 -498 15124 0
119 -15125 0
620 -15125 0
-119 -620 15125 0
-984 -15126 0
489 -15126 0
984 -489 15126 0
856 -15127 0
244 -15127 0
-856 -244 15127 0
286 -15128 0
-894 -15128 0
-286 894 15128 0
725 -15129 0
746 -15129 0
-725 -746 15129 0
564 -15130 0
-774 -15130 0
-564 774 15130 0
154 -15131 0
210 -15131 0
-154 -210 15131 0
768 -15132 0
578 -15132 0
-768 -578 15132 0
819 -15133 0
-191 -15133 0
-819 191 15133 0
-85 -15134 0
355 -15134 0
85 -355 15134 0
235 -15135 0
-70 -15135 0
-235 70 15135 0
586 -15136 0
-567 -15136 0
-586 567 15136 0
-1000 -15137 0
494 -15137 0
1000 -494 15137 0
247 -15138 0
-644 -15138 0
-247 644 15138 0
142 -15139 0
-140 -15139 0
-142 140 15139 0
829 -15140 0
58 -15140 0
-829 -58 15140 0
535 -15141 0
-927 -15141 0
-535 927 15141 0
-944 -15142 0
51 -15142 0
944 -51 15142 0
32 -15143 0
763 -15143 0
-32 -763 15143 0
-283 -15144 0
741 -15144 0
283 -741 15144 0
-652 -15145 0
524 -15145 0
652 -524 15145 0
-839 -15146 0
73 -15146 0
839 -73 15146 0
-298 -15147 0
548 -15147 0
298 -548 15147 0
511 -15148 0
-190 -15148 0
-511 190 15148 0
-195 -15149 0
885 -15149 0
195 -885 15149 0
-872 -15150 0
746 -15150 0
872 -746 15150 0
-908 -15151 0
50 -15151 0
908 -50 15151 0
676 -15152 0
-325 -15152 0
-676 325 15152 0
452 -15153 0
-725 -15153 0
-452 725 15153 0
244 -15154 0
505 -15154 0
-244 -505 15154 0
-181 -15155 0
866 -15155 0
181 -866 15155 0
304 -15156 0
699 -15156 0
-304 -699 15156 0
827 -15157 0
49 -15157 0
-827 -49 15157 0
-752 -15158 0
158 -15158 0
752 -158 15158 0
-428 -15159 0
922 -15159 0
428 -922 15159 0
-121 -15160 0
979 -15160 0
121 -979 15160 0
404 -15161 0
-892 -15161 0
-404 892 15161 0
467 -15162 0
-246 -15162 0
-467 246 15162 0
823 -15163 0
540 -15163 0
-823 -540 15163 0
245 -15164 0
-535 -15164 0
-245 535 15164 0
126 -15165 0
-766 -15165 0
-126 766 15165 0
-25 -15166 0
396 -15166 0
25 -396 15166 0
952 -15167 0
111 -15167 0
-952 -111 15167 0
920 -15168 0
-563 -15168 0
-920 563 15168 0
741 -15169 0
-493 -15169 0
-741 493 15169 0
199 -15170 0
-799 -15170 0
-199 799 15170 0
-304 -15171 0
349 -15171 0
304 -349 15171 0
653 -15172 0
589 -15172 0
-653 -589 15172 0
-129 -15173 0
306 -15173 0
129 -306 15173 0
-691 -15174 0
764 -15174 0
691 -764 15174 0
295 -15175 0
465 -15175 0
-295 -465 15175 0
823 -15176 0
578 -15176 0
-823 -578 15176 0
-889 -15177 0
853 -15177 0
889 -853 15177 0
827 -15178 0
745 -15178 0
-827 -745 15178 0
141 -15179 0
157 -15179 0
-141 -157 15179 0
24 -15180 0
-410 -15180 0
-24 410 15180 0
-338 -15181 0
187 -15181 0
338 -187 15181 0
104 -15182 0
-257 -15182 0
-104 257 15182 0
-776 -15183 0
997 -15183 0
776 -997 15183 0
557 -15184 0
-580 -15184 0
-557 580 15184 0
-690 -15185 0
290 -15185 0
690 -290 15185 0
270 -15186 0
681 -15186 0
-270 -681 15186 0
64 -15187 0
-289 -15187 0
-64 289 15187 0
238 -15188 0
681 -15188 0
-238 -681 15188 0
422 -15189 0
-779 -15189 0
-422 779 15189 0
503 -15190 0
179 -15190 0
-503 -179 15190 0
21 -15191 0
-979 -15191 0
-21 979 15191 0
953 -15192 0
545 -15192 0
-953 -545 15192 0
-193 -15193 0
891 -15193 0
193 -891 15193 0
804 -15194 0
353 -15194 0
-804 -353 15194 0
284 -15195 0
-815 -15195 0
-284 815 15195 0
500 -15196 0
75 -15196 0
-500 -75 15196 0
223 -15197 0
294 -15197 0
-223 -294 15197 0
916 -15198 0
-749 -15198 0
-916 749 15198 0
-63 -15199 0
369 -15199 0
63 -369 15199 0
499 -15200 0
-14 -15200 0
-499 14 15200 0
264 -15201 0
193 -15201 0
-264 -193 15201 0
-297 -15202 0
275 -15202 0
297 -275 15202 0
182 -15203 0
-287 -15203 0
-182 287 15203 0
-121 -15204 0
946 -15204 0
121 -946 15204 0
696 -15205 0
-756 -15205 0
-696 756 15205 0
916 -15206 0
-502 -15206 0
-916 502 15206 0
391 -15207 0
865 -15207 0
-391 -865 15207 0
817 -15208 0
265 -15208 0
-817 -265 15208 0
174 -15209 0
258 -15209 0
-174 -258 15209 0
984 -15210 0
619 -15210 0
-984 -619 15210 0
952 -15211 0
-170 -15211 0
-952 170 15211 0
-864 -15212 0
551 -15212 0
864 -551 15212 0
-995 -15213 0
475 -15213 0
995 -475 15213 0
957 -15214 0
-231 -15214 0
-957 231 15214 0
652 -15215 0
169 -15215 0
-652 -169 15215 0
-101 -15216 0
393 -15216 0
101 -393 15216 0
-553 -15217 0
324 -15217 0
553 -324 15217 0
446 -15218 0
754 -15218 0
-446 -754 15218 0
730 -15219 0
-375 -15219 0
-730 375 15219 0
460 -15220 0
633 -15220 0
-460 -633 15220 0
797 -15221 0
-900 -15221 0
-797 900 15221 0
491 -15222 0
713 -15222 0
-491 -713 15222 0
431 -15223 0
119 -15223 0
-431 -119 15223 0
599 -15224 0
372 -15224 0
-599 -372 15224 0
391 -15225 0
539 -15225 0
-391 -539 15225 0
744 -15226 0
425 -15226 0
-744 -425 15226 0
485 -15227 0
433 -15227 0
-485 -433 15227 0
216 -15228 0
714 -15228 0
-216 -714 15228 0
147 -15229 0
-887 -15229 0
-147 887 15229 0
638 -15230 0
-549 -15230 0
-638 549 15230 0
866 -15231 0
410 -15231 0
-866 -410 15231 0
-856 -15232 0
43 -15232 0
856 -43 15232 0
170 -15233 0
465 -15233 0
-170 -465 15233 0
-866 -15234 0
11 -15234 0
866 -11 15234 0
732 -15235 0
-597 -15235 0
-732 597 15235 0
-522 -15236 0
333 -15236 0
522 -333 15236 0
806 -15237 0
348 -15237 0
-806 -348 15237 0
-362 -15238 0
337 -15238 0
362 -337 15238 0
-963 -15239 0
923 -15239 0
963 -923 15239 0
309 -15240 0
-422 -15240 0
-309 422 15240 0
118 -15241 0
-702 -15241 0
-118 702 15241 0
683 -15242 0
922 -15242 0
-683 -922 15242 0
647 -15243 0
-876 -15243 0
-647 876 15243 0
606 -15244 0
974 -15244 0
-606 -974 15244 0
294 -15245 0
261 -15245 0
-294 -261 15245 0
493 -15246 0
68 -15246 0
-493 -68 15246 0
-888 -15247 0
322 -15247 0
888 -322 15247 0
211 -15248 0
569 -15248 0
-211 -569 15248 0
-546 -15249 0
665 -15249 0
546 -665 15249 0
-409 -15250 0
165 -15250 0
409 -165 15250 0
488 -15251 0
-739 -15251 0
-488 739 15251 0
240 -15252 0
737 -15252 0
-240 -737 15252 0
-830 -15253 0
146 -15253 0
830 -146 15253 0
359 -15254 0
-242 -15254 0
-359 242 15254 0
348 -15255 0
-919 -15255 0
-348 919 15255 0
664 -15256 0
377 -15256 0
-664 -377 15256 0
639 -15257 0
-524 -15257 0
-639 524 15257 0
-357 -15258 0
498 -15258 0
357 -498 15258 0
323 -15259 0
946 -15259 0
-323 -946 15259 0
109 -15260 0
-694 -15260 0
-109 694 15260 0
408 -15261 0
338 -15261 0
-408 -338 15261 0
56 -15262 0
991 -15262 0
-56 -991 15262 0
944 -15263 0
632 -15263 0
-944 -632 15263 0
415 -15264 0
315 -15264 0
-415 -315 15264 0
69 -15265 0
44 -15265 0
-69 -44 15265 0
-548 -15266 0
913 -15266 0
548 -913 15266 0
136 -15267 0
-382 -15267 0
-136 382 15267 0
960 -15268 0
527 -15268 0
-960 -527 15268 0
-593 -15269 0
444 -15269 0
593 -444 15269 0
734 -15270 0
-906 -15270 0
-734 906 15270 0
-978 -15271 0
213 -15271 0
978 -213 15271 0
543 -15272 0
845 -15272 0
-543 -845 15272 0
320 -15273 0
357 -15273 0
-320 -357 15273 0
836 -15274 0
114 -15274 0
-836 -114 15274 0
822 -15275 0
531 -15275 0
-822 -531 15275 0
-355 -15276 0
821 -15276 0
355 -821 15276 0
478 -15277 0
-476 -15277 0
-478 476 15277 0
518 -15278 0
634 -15278 0
-518 -634 15278 0
262 -15279 0
626 -15279 0
-262 -626 15279 0
604 -15280 0
987 -15280 0
-604 -987 15280 0
-145 -15281 0
34 -15281 0
145 -34 15281 0
825 -15282 0
349 -15283 0
49 -15283 0
-349 -49 15283 0
215 -15284 0
-359 -15284 0
-215 359 15284 0
787 -15285 0
834 -15285 0
-787 -834 15285 0
-349 -15286 0
849 -15286 0
349 -849 15286 0
-714 -15287 0
910 -15287 0
714 -910 15287 0
549 -15288 0
961 -15288 0
-549 -961 15288 0
692 -15289 0
-335 -15289 0
-692 335 15289 0
902 -15290 0
611 -15290 0
-902 -611 15290 0
-144 -15291 0
227 -15291 0
144 -227 15291 0
773 -15292 0
85 -15292 0
-773 -85 15292 0
-281 -15293 0
108 -15293 0
281 -108 15293 0
814 -15294 0
454 -15294 0
-814 -454 15294 0
51 -15295 0
-662 -15295 0
-51 662 15295 0
696 -15296 0
76 -15296 0
-696 -76 15296 0
550 -15297 0
789 -15297 0
-550 -789 15297 0
-889 -15298 0
918 -15298 0
889 -918 15298 0
-949 -15299 0
561 -15299 0
949 -561 15299 0
-993 -15300 0
948 -15300 0
993 -948 15300 0
-520 -15301 0
339 -15301 0
520 -339 15301 0
-891 -15302 0
291 -15302 0
891 -291 15302 0
-19 -15303 0
331 -15303 0
19 -331 15303 0
620 -15304 0
954 -15304 0
-620 -954 15304 0
600 -15305 0
357 -15305 0
-600 -357 15305 0
-849 -15306 0
901 -15306 0
849 -901 15306 0
-140 -15307 0
321 -15307 0
140 -321 15307 0
560 -15308 0
-705 -15308 0
-560 705 15308 0
302 -15309 0
-419 -15309 0
-302 419 15309 0
933 -15310 0
130 -15310 0
-933 -130 15310 0
118 -15311 0
-892 -15311 0
-118 892 15311 0
783 -15312 0
707 -15312 0
-783 -707 15312 0
655 -15313 0
763 -15313 0
-655 -763 15313 0
76 -15314 0
876 -15314 0
-76 -876 15314 0
888 -15315 0
42 -15315 0
-888 -42 15315 0
318 -15316 0
587 -15316 0
-318 -587 15316 0
997 -15317 0
355 -15317 0
-997 -355 15317 0
612 -15318 0
289 -15318 0
-612 -289 15318 0
-752 -15319 0
499 -15319 0
752 -499 15319 0
610 -15320 0
-70 -15320 0
-610 70 15320 0
973 -15321 0
-38 -15321 0
-973 38 15321 0
630 -15322 0
-367 -15322 0
-630 367 15322 0
799 -15323 0
794 -15323 0
-799 -794 15323 0
973 -15324 0
285 -15324 0
-973 -285 15324 0
477 -15325 0
-646 -15325 0
-477 646 15325 0
-280 -15326 0
295 -15326 0
280 -295 15326 0
-613 -15327 0
193 -15327 0
613 -193 15327 0
-403 -15328 0
25 -15328 0
403 -25 15328 0
179 -15329 0
209 -15329 0
-179 -209 15329 0
-370 -15330 0
916 -15330 0
370 -916 15330 0
540 -15331 0
-199 -15331 0
-540 199 15331 0
-774 -15332 0
417 -15332 0
774 -417 15332 0
115 -15333 0
-878 -15333 0
-115 878 15333 0
-903 -15334 0
961 -15334 0
903 -961 15334 0
-361 -15335 0
753 -15335 0
361 -753 15335 0
856 -15336 0
-475 -15336 0
-856 475 15336 0
-185 -15337 0
933 -15337 0
185 -933 15337 0
301 -15338 0
-790 -15338 0
-301 790 15338 0
-884 -15339 0
211 -15339 0
884 -211 15339 0
709 -15340 0
-228 -15340 0
-709 228 15340 0
326 -15341 0
-178 -15341 0
-326 178 15341 0
-722 -15342 0
532 -15342 0
722 -532 15342 0
622 -15343 0
468 -15343 0
-622 -468 15343 0
686 -15344 0
921 -15344 0
-686 -921 15344 0
-580 -15345 0
993 -15345 0
580 -993 15345 0
492 -15346 0
969 -15346 0
-492 -969 15346 0
-664 -15347 0
537 -15347 0
664 -537 15347 0
230 -15348 0
-948 -15348 0
-230 948 15348 0
259 -15349 0
986 -15349 0
-259 -986 15349 0
646 -15350 0
259 -15350 0
-646 -259 15350 0
-532 -15351 0
539 -15351 0
532 -539 15351 0
213 -15352 0
-886 -15352 0
-213 886 15352 0
-709 -15353 0
865 -15353 0
709 -865 15353 0
750 -15354 0
277 -15354 0
-750 -277 15354 0
680 -15355 0
-878 -15355 0
-680 878 15355 0
135 -15356 0
-214 -15356 0
-135 214 15356 0
24 -15357 0
-126 -15357 0
-24 126 15357 0
126 -15358 0
-778 -15358 0
-126 778 15358 0
784 -15359 0
-364 -15359 0
-784 364 15359 0
206 -15360 0
-743 -15360 0
-206 743 15360 0
760 -15361 0
-765 -15361 0
-760 765 15361 0
-68 -15362 0
273 -15362 0
68 -273 15362 0
310 -15363 0
716 -15363 0
-310 -716 15363 0
928 -15364 0
453 -15364 0
-928 -453 15364 0
688 -15365 0
-279 -15365 0
-688 279 15365 0
-202 -15366 0
545 -15366 0
202 -545 15366 0
-512 -15367 0
113 -15367 0
512 -113 15367 0
37 -15368 0
365 -15368 0
-37 -365 15368 0
-704 -15369 0
658 -15369 0
704 -658 15369 0
-576 -15370 0
340 -15370 0
576 -340 15370 0
720 -15371 0
884 -15371 0
-720 -884 15371 0
-865 -15372 0
333 -15372 0
865 -333 15372 0
184 -15373 0
-973 -15373 0
-184 973 15373 0
96 -15374 0
930 -15374 0
-96 -930 15374 0
255 -15375 0
397 -15375 0
-255 -397 15375 0
-832 -15376 0
610 -15376 0
832 -610 15376 0
582 -15377 0
773 -15377 0
-582 -773 15377 0
791 -15378 0
-130 -15378 0
-791 130 15378 0
-99 -15379 0
794 -15379 0
99 -794 15379 0
-234 -15380 0
33 -15380 0
234 -33 15380 0
485 -15381 0
916 -15381 0
-485 -916 15381 0
848 -15382 0
867 -15382 0
-848 -867 15382 0
53 -15383 0
841 -15383 0
-53 -841 15383 0
-906 -15384 0
693 -15384 0
906 -693 15384 0
-370 -15385 0
579 -15385 0
370 -579 15385 0
694 -15386 0
609 -15386 0
-694 -609 15386 0
-24 -15387 0
834 -15387 0
24 -834 15387 0
491 -15388 0
641 -15388 0
-491 -641 15388 0
-329 -15389 0
367 -15389 0
329 -367 15389 0
-440 -15390 0
287 -15390 0
440 -287 15390 0
759 -15391 0
724 -15391 0
-759 -724 15391 0
45 -15392 0
177 -15392 0
-45 -177 15392 0
-257 -15393 0
646 -15393 0
257 -646 15393 0
-401 -15394 0
938 -15394 0
401 -938 15394 0
836 -15395 0
-501 -15395 0
-836 501 15395 0
386 -15396 0
50 -15396 0
-386 -50 15396 0
-393 -15397 0
649 -15397 0
393 -649 15397 0
176 -15398 0
-894 -15398 0
-176 894 15398 0
357 -15399 0
-190 -15399 0
-357 190 15399 0
6 -15400 0
-975 -15400 0
-6 975 15400 0
-850 -15401 0
162 -15401 0
850 -162 15401 0
255 -15402 0
-883 -15402 0
-255 883 15402 0
-872 -15403 0
185 -15403 0
872 -185 15403 0
629 -15404 0
516 -15404 0
-629 -516 15404 0
983 -15405 0
522 -15405 0
-983 -522 15405 0
-20 -15406 0
186 -15406 0
20 -186 15406 0
718 -15407 0
441 -15407 0
-718 -441 15407 0
-53 -15408 0
298 -15408 0
53 -298 15408 0
992 -15409 0
-291 -15409 0
-992 291 15409 0
694 -15410 0
154 -15410 0
-694 -154 15410 0
-467 -15411 0
962 -15411 0
467 -962 15411 0
428 -15412 0
35 -15412 0
-428 -35 15412 0
360 -15413 0
479 -15413 0
-360 -479 15413 0
119 -15414 0
60 -15414 0
-119 -60 15414 0
-434 -15415 0
483 -15415 0
434 -483 15415 0
386 -15416 0
65 -15416 0
-386 -65 15416 0
-646 -15417 0
881 -15417 0
646 -881 15417 0
-570 -15418 0
332 -15418 0
570 -332 15418 0
478 -15419 0
458 -15419 0
-478 -458 15419 0
824 -15420 0
-685 -15420 0
-824 685 15420 0
966 -15421 0
-679 -15421 0
-966 679 15421 0
-892 -15422 0
713 -15422 0
892 -713 15422 0
-842 -15423 0
785 -15423 0
842 -785 15423 0
167 -15424 0
303 -15424 0
-167 -303 15424 0
248 -15425 0
-666 -15425 0
-248 666 15425 0
471 -15426 0
810 -15426 0
-471 -810 15426 0
326 -15427 0
-219 -15427 0
-326 219 15427 0
268 -15428 0
740 -15428 0
-268 -740 15428 0
7 -15429 0
-595 -15429 0
-7 595 15429 0
912 -15430 0
887 -15430 0
-912 -887 15430 0
-251 -15431 0
634 -15431 0
251 -634 15431 0
-240 -15432 0
320 -15432 0
240 -320 15432 0
-261 -15433 0
682 -15433 0
261 -682 15433 0
895 -15434 0
-731 -15434 0
-895 731 15434 0
230 -15435 0
305 -15435 0
-230 -305 15435 0
-250 -15436 0
12 -15436 0
250 -12 15436 0
829 -15437 0
-399 -15437 0
-829 399 15437 0
-435 -15438 0
869 -15438 0
435 -869 15438 0
541 -15439 0
980 -15439 0
-541 -980 15439 0
872 -15440 0
-925 -15440 0
-872 925 15440 0
401 -15441 0
-567 -15441 0
-401 567 15441 0
950 -15442 0
333 -15442 0
-950 -333 15442 0
833 -15443 0
-799 -15443 0
-833 799 15443 0
-813 -15444 0
243 -15444 0
813 -243 15444 0
811 -15445 0
-703 -15445 0
-811 703 15445 0
680 -15446 0
-162 -15446 0
-680 162 15446 0
-913 -15447 0
865 -15447 0
913 -865 15447 0
246 -15448 0
-370 -15448 0
-246 370 15448 0
924 -15449 0
699 -15449 0
-924 -699 15449 0
765 -15450 0
988 -15450 0
-765 -988 15450 0
277 -15451 0
-263 -15451 0
-277 263 15451 0
136 -15452 0
-391 -15452 0
-136 391 15452 0
108 -15453 0
-317 -15453 0
-108 317 15453 0
394 -15454 0
898 -15454 0
-394 -898 15454 0
575 -15455 0
665 -15455 0
-575 -665 15455 0
67 -15456 0
929 -15456 0
-67 -929 15456 0
408 -15457 0
836 -15457 0
-408 -836 15457 0
824 -15458 0
741 -15458 0
-824 -741 15458 0
-673 -15459 0
438 -15459 0
673 -438 15459 0
582 -15460 0
-74 -15460 0
-582 74 15460 0
198 -15461 0
-374 -15461 0
-198 374 15461 0
-410 -15462 0
525 -15462 0
410 -525 15462 0
437 -15463 0
116 -15463 0
-437 -116 15463 0
-926 -15464 0
338 -15464 0
926 -338 15464 0
134 -15465 0
-308 -15465 0
-134 308 15465 0
408 -15466 0
86 -15466 0
-408 -86 15466 0
-916 -15467 0
177 -15467 0
916 -177 15467 0
455 -15468 0
-382 -15468 0
-455 382 15468 0
30 -15469 0
-469 -15469 0
-30 469 15469 0
379 -15470 0
242 -15470 0
-379 -242 15470 0
464 -15471 0
-202 -15471 0
-464 202 15471 0
142 -15472 0
-909 -15472 0
-142 909 15472 0
188 -15473 0
-415 -15473 0
-188 415 15473 0
-28 -15474 0
347 -15474 0
28 -347 15474 0
287 -15475 0
-530 -15475 0
-287 530 15475 0
-410 -15476 0
641 -15476 0
410 -641 15476 0
575 -15477 0
-51 -15477 0
-575 51 15477 0
-972 -15478 0
410 -15478 0
972 -410 15478 0
648 -15479 0
550 -15479 0
-648 -550 15479 0
220 -15480 0
394 -15480 0
-220 -394 15480 0
47 -15481 0
-654 -15481 0
-47 654 15481 0
443 -15482 0
-86 -15482 0
-443 86 15482 0
717 -15483 0
637 -15483 0
-717 -637 15483 0
-514 -15484 0
225 -15484 0
514 -225 15484 0
126 -15485 0
-571 -15485 0
-126 571 15485 0
839 -15486 0
577 -15486 0
-839 -577 15486 0
-688 -15487 0
137 -15487 0
688 -137 15487 0
399 -15488 0
-453 -15488 0
-399 453 15488 0
263 -15489 0
-220 -15489 0
-263 220 15489 0
110 -15490 0
-597 -15490 0
-110 597 15490 0
72 -15491 0
909 -15491 0
-72 -909 15491 0
424 -15492 0
298 -15492 0
-424 -298 15492 0
-629 -15493 0
913 -15493 0
629 -913 15493 0
843 -15494 0
-198 -15494 0
-843 198 15494 0
503 -15495 0
357 -15495 0
-503 -357 15495 0
502 -15496 0
35 -15496 0
-502 -35 15496 0
58 -15497 0
665 -15497 0
-58 -665 15497 0
-640 -15498 0
985 -15498 0
640 -985 15498 0
518 -15499 0
-327 -15499 0
-518 327 15499 0
348 -15500 0
796 -15500 0
-348 -796 15500 0
480 -15501 0
853 -15501 0
-480 -853 15501 0
536 -15502 0
118 -15502 0
-536 -118 15502 0
676 -15503 0
-719 -15503 0
-676 719 15503 0
414 -15504 0
-957 -15504 0
-414 957 15504 0
-306 -15505 0
619 -15505 0
306 -619 15505 0
669 -15506 0
-5 -15506 0
-669 5 15506 0
71 -15507 0
2 -15507 0
-71 -2 15507 0
-780 -15508 0
378 -15508 0
780 -378 15508 0
904 -15509 0
555 -15509 0
-904 -555 15509 0
860 -15510 0
418 -15510 0
-860 -418 15510 0
614 -15511 0
43 -15511 0
-614 -43 15511 0
899 -15512 0
-614 -15512 0
-899 614 15512 0
-445 -15513 0
258 -15513 0
445 -258 15513 0
106 -15514 0
409 -15514 0
-106 -409 15514 0
295 -15515 0
681 -15515 0
-295 -681 15515 0
-694 -15516 0
905 -15516 0
694 -905 15516 0
960 -15517 0
-139 -15517 0
-960 139 15517 0
-581 -15518 0
746 -15518 0
581 -746 15518 0
296 -15519 0
715 -15519 0
-296 -715 15519 0
997 -15520 0
564 -15520 0
-997 -564 15520 0
469 -15521 0
490 -15521 0
-469 -490 15521 0
301 -15522 0
-453 -15522 0
-301 453 15522 0
896 -15523 0
-856 -15523 0
-896 856 15523 0
-785 -15524 0
583 -15524 0
785 -583 15524 0
428 -15525 0
850 -15525 0
-428 -850 15525 0
-829 -15526 0
737 -15526 0
829 -737 15526 0
992 -15527 0
-994 -15527 0
-992 994 15527 0
376 -15528 0
-416 -15528 0
-376 416 15528 0
728 -15529 0
-65 -15529 0
-728 65 15529 0
706 -15530 0
522 -15530 0
-706 -522 15530 0
630 -15531 0
525 -15531 0
-630 -525 15531 0
-610 -15532 0
113 -15532 0
610 -113 15532 0
978 -15533 0
-574 -15533 0
-978 574 15533 0
883 -15534 0
-214 -15534 0
-883 214 15534 0
-272 -15535 0
913 -15535 0
272 -913 15535 0
911 -15536 0
228 -15536 0
-911 -228 15536 0
686 -15537 0
699 -15537 0
-686 -699 15537 0
558 -15538 0
998 -15538 0
-558 -998 15538 0
-904 -15539 0
201 -15539 0
904 -201 15539 0
-564 -15540 0
770 -15540 0
564 -770 15540 0
488 -15541 0
786 -15541 0
-488 -786 15541 0
-441 -15542 0
91 -15542 0
441 -91 15542 0
-125 -15543 0
27 -15543 0
125 -27 15543 0
847 -15544 0
477 -15544 0
-847 -477 15544 0
264 -15545 0
41 -15545 0
-264 -41 15545 0
283 -15546 0
291 -15546 0
-283 -291 15546 0
485 -15547 0
217 -15547 0
-485 -217 15547 0
999 -15548 0
116 -15548 0
-999 -116 15548 0
148 -15549 0
-295 -15549 0
-148 295 15549 0
227 -15550 0
946 -15550 0
-227 -946 15550 0
-633 -15551 0
422 -15551 0
633 -422 15551 0
419 -15552 0
618 -15552 0
-419 -618 15552 0
94 -15553 0
-534 -15553 0
-94 534 15553 0
-770 -15554 0
177 -15554 0
770 -177 15554 0
27 -15555 0
-759 -15555 0
-27 759 15555 0
-616 -15556 0
154 -15556 0
616 -154 15556 0
989 -15557 0
-731 -15557 0
-989 731 15557 0
710 -15558 0
-188 -15558 0
-710 188 15558 0
996 -15559 0
643 -15559 0
-996 -643 15559 0
427 -15560 0
-86 -15560 0
-427 86 15560 0
423 -15561 0
715 -15561 0
-423 -715 15561 0
763 -15562 0
859 -15562 0
-763 -859 15562 0
384 -15563 0
-60 -15563 0
-384 60 15563 0
309 -15564 0
-828 -15564 0
-309 828 15564 0
495 -15565 0
733 -15565 0
-495 -733 15565 0
-656 -15566 0
745 -15566 0
656 -745 15566 0
-657 -15567 0
482 -15567 0
657 -482 15567 0
412 -15568 0
970 -15568 0
-412 -970 15568 0
544 -15569 0
198 -15569 0
-544 -198 15569 0
624 -15570 0
485 -15570 0
-624 -485 15570 0
509 -15571 0
386 -15571 0
-509 -386 15571 0
-481 -15572 0
62 -15572 0
481 -62 15572 0
559 -15573 0
-949 -15573 0
-559 949 15573 0
-973 -15574 0
451 -15574 0
973 -451 15574 0
359 -15575 0
-722 -15575 0
-359 722 15575 0
-155 -15576 0
84 -15576 0
155 -84 15576 0
303 -15577 0
879 -15577 0
-303 -879 15577 0
-592 -15578 0
994 -15578 0
592 -994 15578 0
-248 -15579 0
273 -15579 0
248 -273 15579 0
-9 -15580 0
138 -15580 0
9 -138 15580 0
992 -15581 0
-180 -15581 0
-992 180 15581 0
-320 -15582 0
39 -15582 0
320 -39 15582 0
-285 -15583 0
729 -15583 0
285 -729 15583 0
-859 -15584 0
36 -15584 0
859 -36 15584 0
-992 -15585 0
485 -15585 0
992 -485 15585 0
542 -15586 0
-524 -15586 0
-542 524 15586 0
-189 -15587 0
266 -15587 0
189 -266 15587 0
915 -15588 0
154 -15588 0
-915 -154 15588 0
12 -15589 0
233 -15589 0
-12 -233 15589 0
-322 -15590 0
723 -15590 0
322 -723 15590 0
846 -15591 0
-887 -15591 0
-846 887 15591 0
879 -15592 0
385 -15592 0
-879 -385 15592 0
-294 -15593 0
106 -15593 0
294 -106 15593 0
366 -15594 0
622 -15594 0
-366 -622 15594 0
900 -15595 0
578 -15595 0
-900 -578 15595 0
-888 -15596 0
438 -15596 0
888 -438 15596 0
-152 -15597 0
102 -15597 0
152 -102 15597 0
670 -15598 0
-717 -15598 0
-670 717 15598 0
71 -15599 0
771 -15599 0
-71 -771 15599 0
447 -15600 0
305 -15600 0
-447 -305 15600 0
39 -15601 0
-707 -15601 0
-39 707 15601 0
941 -15602 0
-604 -15602 0
-941 604 15602 0
485 -15603 0
698 -15603 0
-485 -698 15603 0
830 -15604 0
-922 -15604 0
-830 922 15604 0
-45 -15605 0
346 -15605 0
45 -346 15605 0
151 -15606 0
-157 -15606 0
-151 157 15606 0
-976 -15607 0
36 -15607 0
976 -36 15607 0
927 -15608 0
806 -15608 0
-927 -806 15608 0
-844 -15609 0
641 -15609 0
844 -641 15609 0
567 -15610 0
406 -15610 0
-567 -406 15610 0
-369 -15611 0
284 -15611 0
369 -284 15611 0
765 -15612 0
-163 -15612 0
-765 163 15612 0
-996 -15613 0
690 -15613 0
996 -690 15613 0
544 -15614 0
502 -15614 0
-544 -502 15614 0
686 -15615 0
108 -15615 0
-686 -108 15615 0
-401 -15616 0
165 -15616 0
401 -165 15616 0
54 -15617 0
498 -15617 0
-54 -498 15617 0
-858 -15618 0
148 -15618 0
858 -148 15618 0
-70 -15619 0
417 -15619 0
70 -417 15619 0
-909 -15620 0
865 -15620 0
909 -865 15620 0
-428 -15621 0
714 -15621 0
428 -714 15621 0
887 -15622 0
-372 -15622 0
-887 372 15622 0
153 -15623 0
689 -15623 0
-153 -689 15623 0
-586 -15624 0
417 -15624 0
586 -417 15624 0
-148 -15625 0
177 -15625 0
148 -177 15625 0
437 -15626 0
308 -15626 0
-437 -308 15626 0
-102 -15627 0
530 -15627 0
102 -530 15627 0
197 -15628 0
-325 -15628 0
-197 325 15628 0
420 -15629 0
995 -15629 0
-420 -995 15629 0
32 -15630 0
-658 -15630 0
-32 658 15630 0
600 -15631 0
836 -15631 0
-600 -836 15631 0
-792 -15632 0
555 -15632 0
792 -555 15632 0
581 -15633 0
331 -15633 0
-581 -331 15633 0
688 -15634 0
435 -15634 0
-688 -435 15634 0
-299 -15635 0
769 -15635 0
299 -769 15635 0
-218 -15636 0
462 -15636 0
218 -462 15636 0
-402 -15637 0
355 -15637 0
402 -355 15637 0
55 -15638 0
548 -15638 0
-55 -548 15638 0
645 -15639 0
740 -15639 0
-645 -740 15639 0
-698 -15640 0
845 -15640 0
698 -845 15640 0
-237 -15641 0
91 -15641 0
237 -91 15641 0
390 -15642 0
730 -15642 0
-390 -730 15642 0
204 -15643 0
507 -15643 0
-204 -507 15643 0
764 -15644 0
-350 -15644 0
-764 350 15644 0
-940 -15645 0
692 -15645 0
940 -692 15645 0
230 -15646 0
-93 -15646 0
-230 93 15646 0
-651 -15647 0
489 -15647 0
651 -489 15647 0
677 -15648 0
365 -15648 0
-677 -365 15648 0
882 -15649 0
506 -15649 0
-882 -506 15649 0
-612 -15650 0
332 -15650 0
612 -332 15650 0
903 -15651 0
628 -15651 0
-903 -628 15651 0
511 -15652 0
-142 -15652 0
-511 142 15652 0
126 -15653 0
361 -15653 0
-126 -361 15653 0
918 -15654 0
-203 -15654 0
-918 203 15654 0
64 -15655 0
-490 -15655 0
-64 490 15655 0
-428 -15656 0
651 -15656 0
428 -651 15656 0
139 -15657 0
-47 -15657 0
-139 47 15657 0
949 -15658 0
-907 -15658 0
-949 907 15658 0
-747 -15659 0
521 -15659 0
747 -521 15659 0
606 -15660 0
907 -15660 0
-606 -907 15660 0
-428 -15661 0
873 -15661 0
428 -873 15661 0
-516 -15662 0
827 -15662 0
516 -827 15662 0
310 -15663 0
-997 -15663 0
-310 997 15663 0
147 -15664 0
43 -15664 0
-147 -43 15664 0
12 -15665 0
995 -15665 0
-12 -995 15665 0
680 -15666 0
284 -15666 0
-680 -284 15666 0
572 -15667 0
-398 -15667 0
-572 398 15667 0
-987 -15668 0
841 -15668 0
987 -841 15668 0
383 -15669 0
-276 -15670 0
682 -15670 0
276 -682 15670 0
147 -15671 0
209 -15671 0
-147 -209 15671 0
-676 -15672 0
801 -15672 0
676 -801 15672 0
583 -15673 0
854 -15673 0
-583 -854 15673 0
-69 -15674 0
811 -15674 0
69 -811 15674 0
486 -15675 0
235 -15675 0
-486 -235 15675 0
493 -15676 0
692 -15676 0
-493 -692 15676 0
227 -15677 0
875 -15677 0
-227 -875 15677 0
887 -15678 0
486 -15678 0
-887 -486 15678 0
136 -15679 0
598 -15679 0
-136 -598 15679 0
-161 -15680 0
819 -15680 0
161 -819 15680 0
-961 -15681 0
459 -15681 0
961 -459 15681 0
-736 -15682 0
726 -15682 0
736 -726 15682 0
110 -15683 0
107 -15683 0
-110 -107 15683 0
-27 -15684 0
365 -15684 0
27 -365 15684 0
-245 -15685 0
617 -15685 0
245 -617 15685 0
-803 -15686 0
473 -15686 0
803 -473 15686 0
733 -15687 0
-885 -15687 0
-733 885 15687 0
-338 -15688 0
995 -15688 0
338 -995 15688 0
856 -15689 0
-178 -15689 0
-856 178 15689 0
143 -15690 0
-998 -15690 0
-143 998 15690 0
-465 -15691 0
35 -15691 0
465 -35 15691 0
421 -15692 0
-716 -15692 0
-421 716 15692 0
-154 -15693 0
293 -15693 0
154 -293 15693 0
-312 -15694 0
915 -15694 0
312 -915 15694 0
133 -15695 0
954 -15695 0
-133 -954 15695 0
743 -15696 0
-627 -15696 0
-743 627 15696 0
-620 -15697 0
241 -15697 0
620 -241 15697 0
-691 -15698 0
529 -15698 0
691 -529 15698 0
541 -15699 0
180 -15699 0
-541 -180 15699 0
-601 -15700 0
658 -15700 0
601 -658 15700 0
176 -15701 0
784 -15701 0
-176 -784 15701 0
-288 -15702 0
305 -15702 0
288 -305 15702 0
124 -15703 0
804 -15703 0
-124 -804 15703 0
224 -15704 0
-98 -15704 0
-224 98 15704 0
354 -15705 0
570 -15705 0
-354 -570 15705 0
-966 -15706 0
177 -15706 0
966 -177 15706 0
-890 -15707 0
682 -15707 0
890 -682 15707 0
-545 -15708 0
27 -15708 0
545 -27 15708 0
-905 -15709 0
230 -15709 0
905 -230 15709 0
-260 -15710 0
474 -15710 0
260 -474 15710 0
251 -15711 0
-789 -15711 0
-251 789 15711 0
-596 -15712 0
387 -15712 0
596 -387 15712 0
-985 -15713 0
141 -15713 0
985 -141 15713 0
-57 -15714 0
427 -15714 0
57 -427 15714 0
640 -15715 0
-469 -15715 0
-640 469 15715 0
478 -15716 0
889 -15716 0
-478 -889 15716 0
-684 -15717 0
889 -15717 0
684 -889 15717 0
751 -15718 0
602 -15718 0
-751 -602 15718 0
677 -15719 0
-180 -15719 0
-677 180 15719 0
551 -15720 0
-253 -15720 0
-551 253 15720 0
707 -15721 0
625 -15721 0
-707 -625 15721 0
-938 -15722 0
946 -15722 0
938 -946 15722 0
893 -15723 0
36 -15723 0
-893 -36 15723 0
295 -15724 0
-595 -15724 0
-295 595 15724 0
900 -15725 0
819 -15725 0
-900 -819 15725 0
902 -15726 0
498 -15726 0
-902 -498 15726 0
240 -15727 0
-673 -15727 0
-240 673 15727 0
72 -15728 0
-399 -15728 0
-72 399 15728 0
464 -15729 0
-622 -15729 0
-464 622 15729 0
-698 -15730 0
229 -15730 0
698 -229 15730 0
-877 -15731 0
403 -15731 0
877 -403 15731 0
-713 -15732 0
235 -15732 0
713 -235 15732 0
-737 -15733 0
670 -15733 0
737 -670 15733 0
197 -15734 0
827 -15734 0
-197 -827 15734 0
-984 -15735 0
530 -15735 0
984 -530 15735 0
284 -15736 0
297 -15736 0
-284 -297 15736 0
148 -15737 0
-901 -15737 0
-148 901 15737 0
991 -15738 0
-641 -15738 0
-991 641 15738 0
639 -15739 0
259 -15739 0
-639 -259 15739 0
-321 -15740 0
62 -15740 0
321 -62 15740 0
493 -15741 0
-892 -15741 0
-493 892 15741 0
-18 -15742 0
506 -15742 0
18 -506 15742 0
364 -15743 0
788 -15743 0
-364 -788 15743 0
-755 -15744 0
826 -15744 0
755 -826 15744 0
-809 -15745 0
977 -15745 0
809 -977 15745 0
755 -15746 0
-405 -15746 0
-755 405 15746 0
746 -15747 0
-335 -15747 0
-746 335 15747 0
623 -15748 0
-431 -15748 0
-623 431 15748 0
742 -15749 0
169 -15749 0
-742 -169 15749 0
744 -15750 0
62 -15750 0
-744 -62 15750 0
207 -15751 0
775 -15751 0
-207 -775 15751 0
475 -15752 0
267 -15752 0
-475 -267 15752 0
381 -15753 0
689 -15753 0
-381 -689 15753 0
685 -15754 0
741 -15754 0
-685 -741 15754 0
-235 -15755 0
825 -15755 0
235 -825 15755 0
-505 -15756 0
150 -15756 0
505 -150 15756 0
-619 -15757 0
220 -15757 0
619 -220 15757 0
136 -15758 0
-447 -15758 0
-136 447 15758 0
-767 -15759 0
969 -15759 0
767 -969 15759 0
719 -15760 0
-482 -15760 0
-719 482 15760 0
235 -15761 0
-175 -15761 0
-235 175 15761 0
935 -15762 0
-486 -15762 0
-935 486 15762 0
-266 -15763 0
17 -15763 0
266 -17 15763 0
261 -15764 0
257 -15764 0
-261 -257 15764 0
530 -15765 0
217 -15765 0
-530 -217 15765 0
277 -15766 0
-172 -15766 0
-277 172 15766 0
341 -15767 0
362 -15767 0
-341 -362 15767 0
716 -15768 0
834 -15768 0
-716 -834 15768 0
-680 -15769 0
53 -15769 0
680 -53 15769 0
252 -15770 0
-799 -15770 0
-252 799 15770 0
524 -15771 0
745 -15771 0
-524 -745 15771 0
183 -15772 0
883 -15772 0
-183 -883 15772 0
-665 -15773 0
851 -15773 0
665 -851 15773 0
530 -15774 0
353 -15774 0
-530 -353 15774 0
-908 -15775 0
321 -15775 0
908 -321 15775 0
-379 -15776 0
833 -15776 0
379 -833 15776 0
118 -15777 0
269 -15777 0
-118 -269 15777 0
-996 -15778 0
690 -15778 0
996 -690 15778 0
938 -15779 0
-534 -15779 0
-938 534 15779 0
551 -15780 0
724 -15780 0
-551 -724 15780 0
658 -15781 0
-671 -15781 0
-658 671 15781 0
-756 -15782 0
618 -15782 0
756 -618 15782 0
816 -15783 0
-209 -15783 0
-816 209 15783 0
-156 -15784 0
956 -15784 0
156 -956 15784 0
-77 -15785 0
570 -15785 0
77 -570 15785 0
-242 -15786 0
466 -15786 0
242 -466 15786 0
-613 -15787 0
26 -15787 0
613 -26 15787 0
54 -15788 0
549 -15788 0
-54 -549 15788 0
-922 -15789 0
621 -15789 0
922 -621 15789 0
-746 -15790 0
505 -15790 0
746 -505 15790 0
-42 -15791 0
254 -15791 0
42 -254 15791 0
624 -15792 0
90 -15792 0
-624 -90 15792 0
357 -15793 0
-549 -15793 0
-357 549 15793 0
-104 -15794 0
112 -15794 0
104 -112 15794 0
632 -15795 0
-561 -15795 0
-632 561 15795 0
307 -15796 0
83 -15796 0
-307 -83 15796 0
278 -15797 0
-126 -15797 0
-278 126 15797 0
832 -15798 0
-571 -15798 0
-832 571 15798 0
-379 -15799 0
308 -15799 0
379 -308 15799 0
27 -15800 0
-678 -15800 0
-27 678 15800 0
150 -15801 0
-882 -15801 0
-150 882 15801 0
88 -15802 0
218 -15802 0
-88 -218 15802 0
167 -15803 0
594 -15803 0
-167 -594 15803 0
601 -15804 0
-311 -15804 0
-601 311 15804 0
-336 -15805 0
342 -15805 0
336 -342 15805 0
-533 -15806 0
674 -15806 0
533 -674 15806 0
-264 -15807 0
579 -15807 0
264 -579 15807 0
-289 -15808 0
315 -15808 0
289 -315 15808 0
423 -15809 0
830 -15809 0
-423 -830 15809 0
316 -15810 0
427 -15810 0
-316 -427 15810 0
455 -15811 0
-87 -15811 0
-455 87 15811 0
334 -15812 0
149 -15812 0
-334 -149 15812 0
5 -15813 0
362 -15813 0
-5 -362 15813 0
-793 -15814 0
740 -15814 0
793 -740 15814 0
335 -15815 0
-428 -15815 0
-335 428 15815 0
995 -15816 0
674 -15816 0
-995 -674 15816 0
80 -15817 0
575 -15817 0
-80 -575 15817 0
-773 -15818 0
650 -15818 0
773 -650 15818 0
496 -15819 0
388 -15819 0
-496 -388 15819 0
839 -15820 0
444 -15820 0
-839 -444 15820 0
957 -15821 0
-732 -15821 0
-957 732 15821 0
163 -15822 0
89 -15822 0
-163 -89 15822 0
255 -15823 0
91 -15823 0
-255 -91 15823 0
-562 -15824 0
297 -15824 0
562 -297 15824 0
-643 -15825 0
905 -15825 0
643 -905 15825 0
934 -15826 0
-459 -15826 0
-934 459 15826 0
-45 -15827 0
210 -15827 0
45 -210 15827 0
-285 -15828 0
713 -15828 0
285 -713 15828 0
-936 -15829 0
483 -15829 0
936 -483 15829 0
-576 -15830 0
939 -15830 0
576 -939 15830 0
935 -15831 0
241 -15831 0
-935 -241 15831 0
719 -15832 0
-35 -15832 0
-719 35 15832 0
142 -15833 0
467 -15833 0
-142 -467 15833 0
488 -15834 0
746 -15834 0
-488 -746 15834 0
496 -15835 0
-681 -15835 0
-496 681 15835 0
298 -15836 0
-279 -15836 0
-298 279 15836 0
302 -15837 0
611 -15837 0
-302 -611 15837 0
144 -15838 0
778 -15838 0
-144 -778 15838 0
-355 -15839 0
684 -15839 0
355 -684 15839 0
-777 -15840 0
567 -15840 0
777 -567 15840 0
-776 -15841 0
827 -15841 0
776 -827 15841 0
-641 -15842 0
868 -15842 0
641 -868 15842 0
591 -15843 0
250 -15843 0
-591 -250 15843 0
-806 -15844 0
386 -15844 0
806 -386 15844 0
996 -15845 0
355 -15845 0
-996 -355 15845 0
694 -15846 0
661 -15846 0
-694 -661 15846 0
-272 -15847 0
350 -15847 0
272 -350 15847 0
152 -15848 0
-289 -15848 0
-152 289 15848 0
462 -15849 0
-146 -15849 0
-462 146 15849 0
375 -15850 0
21 -15850 0
-375 -21 15850 0
679 -15851 0
561 -15851 0
-679 -561 15851 0
-204 -15852 0
746 -15852 0
204 -746 15852 0
-923 -15853 0
419 -15853 0
923 -419 15853 0
-609 -15854 0
973 -15854 0
609 -973 15854 0
192 -15855 0
-865 -15855 0
-192 865 15855 0
675 -15856 0
-943 -15856 0
-675 943 15856 0
63 -15857 0
-746 -15857 0
-63 746 15857 0
815 -15858 0
-796 -15858 0
-815 796 15858 0
-88 -15859 0
256 -15859 0
88 -256 15859 0
447 -15860 0
427 -15860 0
-447 -427 15860 0
812 -15861 0
996 -15861 0
-812 -996 15861 0
752 -15862 0
199 -15862 0
-752 -199 15862 0
149 -15863 0
355 -15863 0
-149 -355 15863 0
845 -15864 0
155 -15864 0
-845 -155 15864 0
860 -15865 0
-863 -15865 0
-860 863 15865 0
904 -15866 0
-125 -15866 0
-904 125 15866 0
-760 -15867 0
644 -15867 0
760 -644 15867 0
101 -15868 0
-597 -15868 0
-101 597 15868 0
272 -15869 0
-75 -15869 0
-272 75 15869 0
174 -15870 0
-509 -15870 0
-174 509 15870 0
631 -15871 0
-322 -15871 0
-631 322 15871 0
159 -15872 0
-111 -15872 0
-159 111 15872 0
54 -15873 0
-58 -15873 0
-54 58 15873 0
-456 -15874 0
410 -15874 0
456 -410 15874 0
200 -15875 0
671 -15875 0
-200 -671 15875 0
784 -15876 0
126 -15876 0
-784 -126 15876 0
766 -15877 0
963 -15877 0
-766 -963 15877 0
536 -15878 0
-780 -15878 0
-536 780 15878 0
-64 -15879 0
937 -15879 0
64 -937 15879 0
671 -15880 0
135 -15880 0
-671 -135 15880 0
486 -15881 0
996 -15881 0
-486 -996 15881 0
78 -15882 0
-565 -15882 0
-78 565 15882 0
966 -15883 0
-525 -15883 0
-966 525 15883 0
192 -15884 0
173 -15884 0
-192 -173 15884 0
-922 -15885 0
841 -15885 0
922 -841 15885 0
435 -15886 0
-293 -15886 0
-435 293 15886 0
38 -15887 0
539 -15887 0
-38 -539 15887 0
246 -15888 0
614 -15888 0
-246 -614 15888 0
607 -15889 0
-975 -15889 0
-607 975 15889 0
575 -15890 0
-892 -15890 0
-575 892 15890 0
617 -15891 0
713 -15891 0
-617 -713 15891 0
375 -15892 0
649 -15892 0
-375 -649 15892 0
694 -15893 0
-796 -15893 0
-694 796 15893 0
59 -15894 0
-654 -15894 0
-59 654 15894 0
117 -15895 0
805 -15895 0
-117 -805 15895 0
-808 -15896 0
337 -15896 0
808 -337 15896 0
146 -15897 0
-159 -15897 0
-146 159 15897 0
-54 -15898 0
793 -15898 0
54 -793 15898 0
32 -15899 0
532 -15899 0
-32 -532 15899 0
-896 -15900 0
15 -15900 0
896 -15 15900 0
716 -15901 0
-991 -15901 0
-716 991 15901 0
852 -15902 0
-37 -15902 0
-852 37 15902 0
391 -15903 0
70 -15903 0
-391 -70 15903 0
588 -15904 0
-430 -15904 0
-588 430 15904 0
-107 -15905 0
137 -15905 0
107 -137 15905 0
-17 -15906 0
906 -15906 0
17 -906 15906 0
-136 -15907 0
348 -15907 0
136 -348 15907 0
222 -15908 0
109 -15908 0
-222 -109 15908 0
-555 -15909 0
620 -15909 0
555 -620 15909 0
-643 -15910 0
35 -15910 0
643 -35 15910 0
628 -15911 0
244 -15911 0
-628 -244 15911 0
372 -15912 0
-127 -15912 0
-372 127 15912 0
-810 -15913 0
316 -15913 0
810 -316 15913 0
736 -15914 0
-894 -15914 0
-736 894 15914 0
152 -15915 0
596 -15915 0
-152 -596 15915 0
104 -15916 0
234 -15916 0
-104 -234 15916 0
678 -15917 0
-308 -15917 0
-678 308 15917 0
376 -15918 0
385 -15918 0
-376 -385 15918 0
-169 -15919 0
829 -15919 0
169 -829 15919 0
-858 -15920 0
829 -15920 0
858 -829 15920 0
214 -15921 0
-373 -15921 0
-214 373 15921 0
630 -15922 0
331 -15922 0
-630 -331 15922 0
584 -15923 0
-198 -15923 0
-584 198 15923 0
832 -15924 0
950 -15924 0
-832 -950 15924 0
888 -15925 0
-613 -15925 0
-888 613 15925 0
344 -15926 0
-380 -15926 0
-344 380 15926 0
331 -15927 0
553 -15927 0
-331 -553 15927 0
-259 -15928 0
101 -15928 0
259 -101 15928 0
130 -15929 0
-655 -15929 0
-130 655 15929 0
484 -15930 0
65 -15930 0
-484 -65 15930 0
-249 -15931 0
113 -15931 0
249 -113 15931 0
856 -15932 0
-617 -15932 0
-856 617 15932 0
-209 -15933 0
833 -15933 0
209 -833 15933 0
895 -15934 0
-29 -15934 0
-895 29 15934 0
-93 -15935 0
131 -15935 0
93 -131 15935 0
791 -15936 0
-406 -15936 0
-791 406 15936 0
933 -15937 0
-255 -15937 0
-933 255 15937 0
328 -15938 0
709 -15938 0
-328 -709 15938 0
-673 -15939 0
85 -15939 0
673 -85 15939 0
550 -15940 0
-282 -15940 0
-550 282 15940 0
-216 -15941 0
823 -15941 0
216 -823 15941 0
516 -15942 0
625 -15942 0
-516 -625 15942 0
556 -15943 0
-695 -15943 0
-556 695 15943 0
852 -15944 0
-436 -15944 0
-852 436 15944 0
104 -15945 0
983 -15945 0
-104 -983 15945 0
96 -15946 0
-595 -15946 0
-96 595 15946 0
760 -15947 0
-120 -15947 0
-760 120 15947 0
221 -15948 0
635 -15948 0
-221 -635 15948 0
-928 -15949 0
122 -15949 0
928 -122 15949 0
500 -15950 0
441 -15950 0
-500 -441 15950 0
502 -15951 0
-955 -15951 0
-502 955 15951 0
-112 -15952 0
68 -15952 0
112 -68 15952 0
955 -15953 0
-271 -15953 0
-955 271 15953 0
387 -15954 0
-103 -15954 0
-387 103 15954 0
-609 -15955 0
965 -15955 0
609 -965 15955 0
67 -15956 0
129 -15956 0
-67 -129 15956 0
-265 -15957 0
841 -15957 0
265 -841 15957 0
88 -15958 0
215 -15958 0
-88 -215 15958 0
515 -15959 0
835 -15959 0
-515 -835 15959 0
693 -15960 0
-949 -15960 0
-693 949 15960 0
478 -15961 0
-725 -15961 0
-478 725 15961 0
914 -15962 0
-663 -15962 0
-914 663 15962 0
215 -15963 0
691 -15963 0
-215 -691 15963 0
702 -15964 0
-91 -15964 0
-702 91 15964 0
318 -15965 0
843 -15965 0
-318 -843 15965 0
-506 -15966 0
45 -15966 0
506 -45 15966 0
-500 -15967 0
281 -15967 0
500 -281 15967 0
795 -15968 0
-757 -15968 0
-795 757 15968 0
-849 -15969 0
540 -15969 0
849 -540 15969 0
-282 -15970 0
637 -15970 0
282 -637 15970 0
-947 -15971 0
554 -15971 0
947 -554 15971 0
-113 -15972 0
971 -15972 0
113 -971 15972 0
-473 -15973 0
721 -15973 0
473 -721 15973 0
32 -15974 0
-657 -15974 0
-32 657 15974 0
-658 -15975 0
153 -15975 0
658 -153 15975 0
-491 -15976 0
683 -15976 0
491 -683 15976 0
-309 -15977 0
442 -15977 0
309 -442 15977 0
272 -15978 0
867 -15978 0
-272 -867 15978 0
931 -15979 0
115 -15979 0
-931 -115 15979 0
-465 -15980 0
311 -15980 0
465 -311 15980 0
-659 -15981 0
193 -15981 0
659 -193 15981 0
362 -15982 0
-214 -15982 0
-362 214 15982 0
176 -15983 0
-371 -15983 0
-176 371 15983 0
559 -15984 0
430 -15984 0
-559 -430 15984 0
452 -15985 0
-639 -15985 0
-452 639 15985 0
913 -15986 0
153 -15986 0
-913 -153 15986 0
-737 -15987 0
499 -15987 0
737 -499 15987 0
-65 -15988 0
290 -15988 0
65 -290 15988 0
469 -15989 0
138 -15989 0
-469 -138 15989 0
471 -15990 0
477 -15990 0
-471 -477 15990 0
334 -15991 0
-212 -15991 0
-334 212 15991 0
78 -15992 0
491 -15992 0
-78 -491 15992 0
-259 -15993 0
669 -15993 0
259 -669 15993 0
940 -15994 0
578 -15994 0
-940 -578 15994 0
1000 -15995 0
951 -15995 0
-1000 -951 15995 0
571 -15996 0
322 -15996 0
-571 -322 15996 0
528 -15997 0
19 -15997 0
-528 -19 15997 0
407 -15998 0
-189 -15998 0
-407 189 15998 0
543 -15999 0
777 -15999 0
-543 -777 15999 0
768 -16000 0
711 -16000 0
-768 -711 16000 0
319 -16001 0
542 -16001 0
-319 -542 16001 0
-84 -16002 0
601 -16002 0
84 -601 16002 0
