p cnf 500 6306
40 -38 0
-390 277 0
-235 0
-479 389 0
-173 0
-110 0
-416 -289 0
-55 0
168 -90 0
-295 97 0
-292 0
80 -391 0
100 -458 0
467 -290 0
219 -433 0
-135 -365 0
-192 -238 0
267 -354 0
-430 0
-155 0
-282 0
-255 401 0
-222 0
97 -429 0
-378 0
-448 0
-349 0
-5 0
428 -340 0
-491 190 0
-167 51 0
-16 -337 0
-27 0
354 -21 0
-108 -433 0
-273 0
-475 0
-226 0
-376 0
-136 12 0
-296 210 0
-124 181 0
-220 -219 0
-463 0
-350 207 0
-430 482 0
377 -139 0
-448 54 0
-166 0
-299 -321 0
-97 0
218 -73 0
-315 0
-111 0
-399 0
-459 303 0
-470 0
195 -85 0
-381 499 0
-9 0
-55 0
-408 0
-335 -388 0
-291 -370 0
-469 -491 0
163 -195 0
392 -303 0
-166 0
-307 0
480 -465 0
345 -265 0
-142 0
-352 446 0
-112 0
-442 0
-144 53 0
36 -153 0
-406 0
-161 0
-300 485 0
-31 0
-170 0
-80 -170 0
-21 -354 0
-215 -425 0
496 -438 0
-317 0
203 -92 0
-3 0
-449 0
44 -178 0
-142 0
-422 0
-53 431 0
353 -494 0
-384 249 0
-28 0
332 -459 0
-254 302 0
-216 0
-189 0
475 -500 0
-496 -473 0
-367 -477 0
-194 0
-477 -346 0
-350 0
-481 0
-35 0
-294 0
304 -100 0
-60 -321 0
-26 0
-19 0
256 -488 0
-272 399 0
-163 0
-254 -36 0
19 -291 0
-167 0
-224 -348 0
-450 359 0
170 -274 0
-395 38 0
-485 0
-226 0
-255 0
-272 0
-190 0
-324 0
157 -106 0
-53 0
-78 173 0
316 -313 0
-433 0
-412 0
-243 254 0
-203 0
-191 0
-387 0
-76 0
-459 14 0
-403 -153 0
345 -265 0
-478 -341 0
-446 -476 0
-176 -90 0
-348 431 0
68 -11 0
-437 0
-382 0
-366 -314 0
-267 -499 0
-394 486 0
-466 0
-44 0
-147 0
-302 -299 0
-475 -354 0
-208 0
-189 0
-133 383 0
-309 484 0
185 -246 0
-323 -202 0
-242 0
313 -341 0
-131 13 0
-156 383 0
-12 0
-109 0
464 -428 0
-60 287 0
354 -450 0
-167 3 0
-20 0
492 -28 0
-402 0
-403 0
-279 -54 0
-347 -242 0
-344 -341 0
-56 371 0
208 -156 0
-133 -309 0
-341 0
-452 5 0
-265 -385 0
416 -478 0
-91 350 0
-229 0
-16 331 0
-434 0
-163 -465 0
-493 235 0
-232 0
-316 7 0
-393 71 0
-304 282 0
-320 0
-423 -85 0
-31 -442 0
-86 0
-247 0
-230 -68 0
471 -209 0
-462 -372 0
-160 68 0
-357 -265 0
-324 199 0
-471 0
-316 13 0
-38 468 0
-333 0
-171 0
-167 -382 0
-315 0
-471 -110 0
-404 0
-368 0
-311 -162 0
105 -173 0
61 -355 0
208 -106 0
-433 -201 0
272 -173 0
65 -271 0
-61 0
-6 231 0
-238 0
-206 -245 0
453 -43 0
-74 0
-278 -341 0
-372 -59 0
-415 0
-207 0
-423 167 0
-329 0
-333 0
-340 0
-44 -226 0
-16 -195 0
-149 -132 0
402 -427 0
-16 0
-345 0
-395 326 0
417 -471 0
-438 500 0
-295 -51 0
-24 23 0
-54 0
-499 0
232 -61 0
-167 244 0
-192 0
-412 0
-181 -401 0
256 -432 0
-36 -403 0
-416 20 0
-142 362 0
-84 0
-213 0
-399 318 0
-463 0
-39 0
-221 0
352 -139 0
-296 -242 0
-259 -481 0
-72 291 0
226 -35 0
-288 101 0
-193 0
-76 431 0
-310 0
-91 0
-53 0
-205 0
-182 0
-243 0
-98 -129 0
-50 -465 0
-325 0
344 -186 0
-437 159 0
-231 285 0
-328 -206 0
-407 0
-88 471 0
-69 380 0
-109 -92 0
-382 133 0
-455 172 0
-251 0
-92 44 0
-184 159 0
-284 0
-356 343 0
136 -102 0
-453 -365 0
297 -188 0
-381 -162 0
-47 0
-176 0
-421 -65 0
91 -397 0
-129 0
-416 -486 0
-294 0
364 -371 0
-69 0
-74 0
-265 0
26 -81 0
-89 0
378 -490 0
-103 0
-223 0
-88 -125 0
-281 0
280 -381 0
-175 291 0
-368 -163 0
-366 -370 0
-45 -300 0
-273 0
-6 21 0
-199 -485 0
-94 -174 0
-223 0
-142 380 0
202 -198 0
-262 -99 0
65 -113 0
-40 260 0
-48 0
337 -260 0
-253 284 0
-160 -380 0
-87 0
-168 0
-304 332 0
-30 0
-268 0
-304 131 0
-363 0
290 -331 0
-308 158 0
-469 446 0
-334 0
-137 0
-213 -373 0
-318 446 0
-363 0
-189 -83 0
121 -149 0
-127 0
-332 45 0
-96 -18 0
-143 -105 0
-145 0
-183 -6 0
-375 0
-47 -401 0
-138 0
-172 -138 0
-274 0
491 -18 0
-50 -273 0
411 -2 0
-108 438 0
1 -345 0
-16 -81 0
309 -233 0
-388 391 0
-34 0
-265 0
-210 190 0
-433 -377 0
-221 0
-425 0
-228 0
-357 0
48 -381 0
-237 351 0
-270 0
-450 0
-342 -482 0
-348 0
-374 -282 0
293 -154 0
-148 -1 0
-342 0
-290 0
-439 0
-286 0
-496 438 0
-435 0
480 -127 0
-174 -77 0
-413 70 0
-355 0
32 -33 0
-480 -399 0
-23 462 0
-51 0
459 -425 0
426 -198 0
-96 0
-421 -373 0
-244 0
-352 -250 0
-150 -498 0
-192 148 0
-397 174 0
-407 0
-309 -458 0
-429 0
249 -271 0
492 -267 0
-85 -244 0
-416 0
-79 -266 0
-334 437 0
-242 87 0
-243 0
-298 375 0
-440 0
-413 -188 0
-470 0
-168 -458 0
-435 0
-343 0
-441 0
-240 0
-16 -499 0
-497 0
-498 0
-345 271 0
-475 -282 0
-99 0
-6 0
-79 483 0
-104 0
-228 -20 0
-463 140 0
361 -13 0
-483 0
-364 0
-451 -201 0
264 -252 0
-336 0
-21 125 0
-248 -343 0
-422 405 0
-103 -461 0
232 -240 0
-26 0
438 -330 0
-58 463 0
-229 324 0
211 -468 0
-464 174 0
459 -218 0
-40 -239 0
-331 0
-265 0
-478 0
-144 0
-190 0
474 -101 0
-376 395 0
-189 0
-234 0
-228 0
-471 -307 0
-252 0
-170 230 0
-306 0
60 -210 0
-440 161 0
283 -188 0
-138 0
-489 0
-439 0
-414 285 0
-374 492 0
-212 -236 0
-14 0
-286 0
-311 0
-35 0
-224 -211 0
-63 -202 0
-462 0
-178 0
-92 -394 0
-216 -46 0
-351 422 0
-31 -100 0
-264 -194 0
-63 0
-299 0
-140 0
-69 414 0
-353 0
-236 0
-390 0
-458 0
-222 0
-246 -309 0
-236 0
309 -417 0
403 -411 0
291 -474 0
-221 -441 0
-56 40 0
-381 199 0
425 -115 0
-158 50 0
-148 205 0
218 -108 0
-388 0
112 -82 0
-365 277 0
-396 0
-356 0
-46 203 0
-252 0
-278 -465 0
-58 303 0
-205 -333 0
-111 -212 0
-276 143 0
-295 0
90 -53 0
-356 181 0
-421 0
-188 0
24 -162 0
-75 -290 0
-93 0
-286 -197 0
-454 133 0
-61 0
347 -105 0
-70 0
-339 -1 0
-192 -493 0
-154 0
-167 196 0
-370 -490 0
-446 278 0
-267 0
-39 0
-87 132 0
-271 0
-410 0
232 -81 0
-261 -194 0
-478 21 0
-29 0
457 -63 0
-149 277 0
-366 0
-253 412 0
-299 0
-177 0
134 -233 0
-285 0
-419 0
-266 -10 0
-121 0
84 -329 0
-347 247 0
-242 495 0
91 -251 0
352 -459 0
-464 -231 0
-395 0
-110 0
-176 -396 0
-21 172 0
-81 0
44 -497 0
-304 0
-198 219 0
451 -346 0
-198 -389 0
-403 -323 0
434 -251 0
-161 0
-79 -221 0
-119 0
162 -17 0
-237 0
-154 0
-240 357 0
-254 12 0
258 -253 0
-54 -393 0
-176 0
221 -210 0
-382 0
-64 495 0
-174 0
-455 -5 0
-204 0
205 -457 0
-264 452 0
152 -470 0
-166 149 0
-384 0
104 -387 0
-160 -61 0
-285 68 0
-277 0
-360 -60 0
-260 94 0
-163 0
-138 0
-256 230 0
-92 182 0
321 -379 0
-109 -386 0
-143 -238 0
-347 134 0
-207 0
116 -449 0
387 -196 0
107 -315 0
-283 0
-278 -189 0
-147 0
-232 0
433 -441 0
-32 346 0
458 -281 0
-458 271 0
260 -66 0
-334 -259 0
-322 0
-349 0
-438 284 0
273 -161 0
26 -188 0
-262 0
-424 -15 0
-59 0
-307 0
73 -57 0
-108 0
-448 -28 0
-142 0
-238 0
112 -196 0
104 -306 0
-10 0
-238 -267 0
-335 388 0
-190 483 0
-365 251 0
-2 0
-293 452 0
-224 0
-295 361 0
-351 0
-454 0
-143 117 0
-448 205 0
-325 0
-111 0
-168 402 0
-428 0
-110 59 0
-390 -154 0
-263 -381 0
-384 0
-179 0
-410 0
-189 0
241 -92 0
-271 69 0
-146 23 0
-323 -274 0
-31 -164 0
-277 -338 0
-352 10 0
-166 0
-429 -196 0
-348 0
24 -251 0
-441 0
378 -426 0
-295 273 0
-230 -173 0
-336 -130 0
-307 0
-11 205 0
-44 0
-227 0
-17 0
-181 461 0
-370 -1 0
-55 451 0
-48 0
-7 -388 0
-475 0
122 -141 0
378 -438 0
-6 -162 0
-419 0
472 -14 0
-456 0
-444 -73 0
-317 164 0
-107 0
-186 0
-421 -402 0
154 -74 0
-408 0
-282 -241 0
-120 0
-148 0
-184 0
-347 0
132 -234 0
-201 0
-323 0
-296 0
483 -499 0
261 -171 0
405 -378 0
-110 0
-376 153 0
-155 -321 0
129 -54 0
-109 0
-339 -353 0
-32 0
34 -356 0
-440 0
321 -303 0
-461 0
326 -121 0
354 -389 0
186 -58 0
-6 0
-110 0
-239 165 0
-135 -445 0
353 -61 0
-480 -213 0
377 -135 0
297 -374 0
-136 -4 0
378 -210 0
-25 0
-226 0
-46 0
169 -163 0
-432 0
-159 250 0
209 -258 0
-414 0
208 -171 0
-248 -161 0
-152 0
-184 26 0
-359 -83 0
-176 84 0
-295 0
-259 0
356 -124 0
-306 478 0
-12 0
280 -470 0
264 -405 0
-379 -425 0
-24 1 0
-292 0
-419 -81 0
-382 181 0
-297 -41 0
-446 254 0
-94 -259 0
-352 395 0
454 -106 0
-392 0
-378 0
-360 211 0
488 -94 0
-496 0
-130 0
-254 395 0
-257 -9 0
-153 0
-312 181 0
-239 0
-261 0
-388 -275 0
-373 -354 0
-139 0
-488 -77 0
-496 -67 0
-439 0
400 -320 0
-216 0
-23 -97 0
2 -60 0
-264 0
-176 0
-320 -242 0
-181 307 0
-156 0
-357 0
-439 0
476 -211 0
-71 407 0
-259 -330 0
-64 -164 0
57 -101 0
432 -218 0
-43 0
-90 0
417 -337 0
233 -55 0
-100 0
-249 0
-111 -468 0
-470 -83 0
-409 0
-269 37 0
24 -111 0
-211 0
-446 -186 0
-129 0
-203 -227 0
-296 4 0
-356 -81 0
-200 0
-203 -346 0
-374 -69 0
-107 0
-39 -172 0
-325 0
488 -225 0
-344 355 0
-394 0
-390 0
-285 292 0
-9 0
373 -379 0
-117 -364 0
-140 247 0
217 -434 0
100 -387 0
-258 0
-362 0
-324 0
-231 207 0
273 -82 0
-60 0
-338 486 0
486 -73 0
496 -3 0
-232 0
-304 7 0
-340 0
-464 -488 0
-41 0
275 -36 0
322 -313 0
-286 0
-179 133 0
-248 0
149 -298 0
-489 0
-236 0
-190 0
-125 0
-344 0
-318 155 0
-336 0
-165 391 0
-224 0
-9 -153 0
-445 0
-103 63 0
-95 0
160 -55 0
-84 0
-276 0
-176 0
-424 0
244 -265 0
210 -26 0
-167 107 0
-13 -307 0
-384 0
-230 -460 0
-120 -276 0
-59 77 0
-227 222 0
-133 0
-252 0
-430 343 0
-383 0
-20 0
369 -479 0
-308 5 0
329 -233 0
-186 0
139 -387 0
16 -265 0
-204 -3 0
-45 0
-140 383 0
1 -453 0
-6 0
-399 -281 0
-49 0
119 -465 0
-485 59 0
-362 0
-302 -438 0
229 -305 0
-114 0
334 -161 0
-22 -115 0
-136 0
168 -362 0
-93 0
-423 0
-351 0
-175 -37 0
-458 350 0
-461 387 0
-252 134 0
192 -460 0
-22 319 0
-360 464 0
410 -194 0
204 -115 0
-491 0
-428 143 0
-434 -2 0
-344 -450 0
-421 -332 0
-456 0
-450 0
-151 -438 0
201 -257 0
-264 -75 0
-334 0
-354 0
34 -225 0
-275 -99 0
-58 0
331 -89 0
-404 0
163 -45 0
-158 -205 0
489 -66 0
-368 -300 0
-55 0
-377 0
-260 78 0
-496 431 0
-403 173 0
2 -129 0
-256 0
-251 415 0
-350 68 0
-282 0
-16 -381 0
-293 0
-317 -108 0
-144 354 0
-410 0
-140 0
-465 0
-245 174 0
-302 0
-175 -103 0
-103 492 0
-492 0
-207 132 0
-180 0
-208 -310 0
245 -418 0
401 -220 0
306 -33 0
-317 0
-197 -348 0
-320 -230 0
-324 -51 0
-413 -372 0
323 -109 0
-259 0
-35 -18 0
-56 202 0
-190 163 0
-255 0
-367 359 0
-292 0
-99 0
-107 0
234 -489 0
-283 -265 0
-217 0
-205 300 0
-227 0
-82 0
32 -351 0
-143 372 0
-448 -333 0
218 -298 0
196 -492 0
-407 0
-451 463 0
-312 0
-214 0
-114 0
-77 0
-143 0
498 -300 0
-150 0
480 -379 0
-353 0
291 -42 0
-196 -258 0
-11 -267 0
81 -199 0
-406 0
-451 0
-148 0
-66 295 0
58 -237 0
-237 -410 0
-301 0
-40 -325 0
100 -444 0
-447 0
-240 -445 0
-470 0
-196 0
-169 0
-212 0
274 -282 0
-170 0
-180 60 0
-395 438 0
416 -316 0
-351 460 0
-242 0
-445 0
-255 -441 0
-2 0
-402 199 0
-257 0
-276 0
203 -108 0
106 -430 0
-38 47 0
-478 0
-447 -387 0
-290 0
-97 0
-207 0
128 -142 0
-449 0
224 -236 0
-375 0
-115 0
-389 0
-477 0
-313 0
361 -348 0
-135 0
408 -161 0
467 -451 0
384 -258 0
-231 0
-160 0
-343 0
195 -170 0
-11 255 0
-448 0
-62 -49 0
-264 480 0
-420 0
-375 0
-287 -99 0
-56 -54 0
-268 0
-471 -414 0
-24 0
428 -234 0
-498 0
-402 0
-343 123 0
-341 0
-374 282 0
-323 0
-348 0
-344 -149 0
-441 0
-310 0
-488 97 0
74 -237 0
-285 7 0
-191 0
163 -11 0
-388 -444 0
115 -17 0
-311 -57 0
-442 0
98 -267 0
451 -388 0
-340 437 0
-54 -370 0
-374 0
-122 0
-2 0
-488 89 0
-402 30 0
-295 93 0
241 -129 0
-484 0
400 -46 0
118 -250 0
243 -228 0
290 -154 0
-78 53 0
-264 0
-292 0
-411 335 0
-39 426 0
57 -115 0
-145 0
-244 -395 0
-279 354 0
-35 182 0
-112 -223 0
-30 0
-284 0
-365 -458 0
379 -226 0
99 -309 0
-177 0
-492 182 0
-269 0
-190 -85 0
396 -259 0
62 -113 0
-143 0
-171 413 0
-127 0
-386 262 0
-380 -50 0
-464 453 0
-110 435 0
-8 67 0
-211 0
-231 0
-183 0
-127 0
-353 0
500 -218 0
-325 0
264 -359 0
-468 0
-16 -407 0
324 -242 0
-332 0
-206 -153 0
-97 0
-470 165 0
-388 0
-182 0
265 -469 0
-196 375 0
-174 0
492 -10 0
-168 0
179 -36 0
-32 221 0
-325 0
-273 0
-415 0
-59 0
-413 135 0
-183 -171 0
-275 0
-171 0
-20 -11 0
-99 0
-147 0
-340 0
280 -438 0
-286 0
-392 142 0
-285 76 0
-150 0
-70 109 0
178 -473 0
-309 0
-68 0
-22 3 0
-403 -330 0
-271 30 0
53 -266 0
-34 0
-170 478 0
14 -201 0
-149 -147 0
-174 -275 0
144 -253 0
-272 0
-368 0
-286 382 0
-263 -398 0
-452 -451 0
-480 -295 0
89 -77 0
-183 0
40 -444 0
395 -242 0
68 -12 0
-234 -481 0
-167 0
-431 -268 0
-356 76 0
-264 -90 0
-16 0
-55 0
350 -161 0
-270 0
-495 0
401 -229 0
-222 179 0
-221 -252 0
339 -393 0
-110 494 0
-242 0
-406 0
417 -249 0
364 -395 0
-255 -291 0
3 -57 0
70 -498 0
137 -73 0
-214 0
-327 -436 0
-280 -246 0
-271 220 0
-464 0
-249 0
-407 -60 0
-349 0
83 -284 0
-130 0
-75 0
-269 397 0
-500 -73 0
-422 58 0
-271 0
276 -20 0
-423 0
-41 -129 0
-385 0
-170 0
-29 0
-58 0
-383 0
-316 0
-328 165 0
-49 0
-16 0
-487 0
-228 0
-392 -289 0
-439 0
-369 0
-15 0
-391 -110 0
-104 -383 0
-283 0
-286 -461 0
-478 252 0
-143 252 0
-126 -174 0
60 -43 0
-157 -116 0
156 -427 0
-2 0
-249 0
-31 -238 0
-205 0
61 -137 0
-483 0
313 -484 0
56 -320 0
140 -82 0
-119 0
-443 -321 0
481 -437 0
-462 50 0
-79 0
-108 0
-315 0
-175 75 0
-34 0
-339 0
150 -281 0
-392 -412 0
-430 0
346 -338 0
-464 -231 0
312 -395 0
126 -377 0
-278 0
-294 0
-77 0
-301 0
-139 -123 0
-388 239 0
-152 386 0
-350 0
-152 0
-236 0
-371 215 0
-266 0
-88 320 0
-345 0
-8 488 0
-62 0
-136 0
-78 364 0
-160 0
-461 0
-232 200 0
-248 0
-94 0
-360 159 0
-171 -137 0
339 -61 0
457 -36 0
8 -141 0
-312 -265 0
-136 -6 0
-378 0
-32 -79 0
248 -325 0
-213 0
379 -201 0
-487 0
-479 478 0
-95 340 0
-143 106 0
-135 258 0
-419 -67 0
-356 0
-351 0
-114 0
-24 -418 0
41 -57 0
-151 418 0
-152 37 0
-311 -77 0
-381 0
-290 0
-411 0
-14 -252 0
-331 0
-163 0
-289 0
-11 0
392 -42 0
-293 0
-363 -33 0
283 -180 0
-484 0
-422 -258 0
149 -497 0
-195 0
-104 84 0
-49 0
-148 326 0
-284 -458 0
-16 -205 0
-87 0
-495 -122 0
-439 -237 0
-176 -103 0
-175 -299 0
-87 468 0
176 -464 0
-112 -29 0
-88 251 0
-313 0
-82 0
-262 244 0
437 -258 0
336 -104 0
-103 0
-262 -235 0
-265 0
-317 0
132 -138 0
174 -226 0
-453 -468 0
272 -480 0
-213 -483 0
210 -12 0
-232 -230 0
-190 -155 0
-278 -476 0
475 -225 0
137 -217 0
-372 -219 0
-165 -257 0
-422 0
-4 0
-336 0
304 -236 0
-355 78 0
-472 -237 0
-485 0
-360 0
428 -97 0
-84 0
-6 -362 0
-380 -155 0
240 -356 0
-272 229 0
-203 0
-305 0
-337 0
-136 -89 0
-240 0
-209 0
-47 0
-283 0
-176 168 0
-283 0
-253 0
203 -187 0
96 -151 0
-151 0
-391 -126 0
-131 0
-267 0
-42 438 0
-119 -141 0
-302 250 0
-222 214 0
-316 -305 0
-95 0
184 -395 0
104 -278 0
-101 0
-476 -291 0
-150 0
-255 259 0
-193 -257 0
-499 277 0
-174 0
-231 0
420 -121 0
-428 0
215 -241 0
-6 -269 0
-103 -453 0
28 -443 0
-149 0
-315 0
-397 -89 0
-286 -51 0
-64 -48 0
-120 0
-283 0
-206 165 0
-30 356 0
-283 0
-350 0
-356 0
-198 0
-224 -4 0
-28 0
184 -27 0
333 -410 0
-363 421 0
-246 0
-302 357 0
-219 0
-72 -76 0
-126 -380 0
-488 324 0
-322 0
-192 0
-54 0
-21 211 0
-419 0
-312 -479 0
-228 0
-57 0
-89 0
-398 -372 0
-431 212 0
-182 0
-357 0
145 -295 0
-375 5 0
-143 0
-8 -333 0
305 -186 0
-236 0
-318 -274 0
-343 0
-56 -6 0
-320 0
-322 0
317 -58 0
-449 0
-382 -297 0
-213 -12 0
-443 -346 0
-290 0
76 -337 0
-190 0
-348 118 0
-308 0
-201 0
-155 -331 0
-236 0
-424 0
-388 -331 0
-408 0
435 -356 0
-231 -141 0
-429 -12 0
-483 0
-118 451 0
-319 0
69 -338 0
338 -243 0
-89 0
-349 0
-48 92 0
-441 0
-383 0
197 -67 0
198 -466 0
331 -84 0
229 -122 0
-70 0
-202 -450 0
-205 0
-264 -24 0
142 -169 0
-403 358 0
-264 0
496 -269 0
-487 187 0
-369 0
-446 0
-89 0
-16 -302 0
444 -187 0
-111 -186 0
-6 -252 0
-156 0
477 -233 0
-326 -365 0
-383 0
-127 -210 0
-279 163 0
115 -149 0
488 -275 0
-37 -43 0
472 -198 0
-366 0
369 -106 0
-490 0
-21 372 0
-200 0
-37 190 0
-79 171 0
-62 0
-404 119 0
-400 -401 0
-218 0
-271 0
-87 0
-147 0
1 -113 0
-260 0
61 -490 0
-472 -213 0
-194 0
-157 0
332 -281 0
-200 198 0
-263 -499 0
-414 446 0
-232 31 0
-175 -69 0
221 -58 0
-274 0
-318 -37 0
-308 222 0
-472 -390 0
-244 0
-199 0
-115 -201 0
297 -45 0
-16 -332 0
-63 0
-403 0
-248 234 0
-52 0
-429 -171 0
393 -236 0
153 -479 0
-115 0
-159 0
-86 0
-139 -353 0
-413 0
-13 239 0
-428 0
-454 198 0
-418 -449 0
-240 0
-363 0
-343 0
-120 0
-477 0
-464 0
-96 0
-288 0
-448 0
-64 63 0
301 -290 0
-71 0
-190 -234 0
-309 0
-462 0
-373 0
-453 422 0
300 -115 0
138 -201 0
-363 0
-500 0
-118 -13 0
-6 262 0
-98 0
-191 173 0
-186 231 0
-138 0
-271 -79 0
-459 0
-144 145 0
-173 0
-421 0
-233 0
-142 415 0
-107 0
-199 -234 0
-10 0
345 -258 0
-135 0
-120 0
-341 383 0
435 -250 0
-304 367 0
-402 0
160 -97 0
320 -116 0
157 -242 0
-186 0
133 -202 0
-126 -409 0
-193 71 0
-437 55 0
-23 -418 0
408 -42 0
-247 0
-80 -67 0
-13 387 0
-88 -299 0
-83 198 0
334 -66 0
-272 0
-348 0
-416 73 0
468 -116 0
337 -229 0
-126 0
-315 94 0
49 -369 0
332 -209 0
-116 76 0
-115 0
-197 0
300 -420 0
-77 0
-172 150 0
-158 0
-411 374 0
414 -401 0
-387 0
-479 141 0
-336 205 0
225 -363 0
-377 0
-63 61 0
481 -435 0
-437 367 0
-63 135 0
-245 -490 0
-73 0
257 -298 0
-172 -220 0
30 -441 0
160 -247 0
-36 255 0
491 -353 0
-146 0
-445 437 0
-288 -81 0
-395 0
-424 445 0
-440 -94 0
-496 0
-437 0
-370 62 0
-460 0
-500 238 0
97 -381 0
-463 -333 0
-123 0
-415 0
-358 -145 0
-85 335 0
-38 0
-159 -301 0
-499 0
-83 350 0
92 -474 0
281 -349 0
85 -193 0
-165 423 0
-220 214 0
-386 486 0
-399 0
-319 0
497 -155 0
213 -386 0
-38 0
-186 0
467 -28 0
-330 0
-366 0
-478 0
-286 -284 0
-4 279 0
-254 0
-167 0
-455 244 0
-127 0
-460 0
282 -389 0
-406 107 0
328 -211 0
-201 0
-152 0
282 -289 0
-420 -427 0
307 -273 0
200 -86 0
-468 0
-117 0
-471 -303 0
-350 0
-497 0
-383 0
19 -413 0
-271 469 0
-184 343 0
-222 0
-374 0
465 -229 0
-39 436 0
-166 84 0
-89 0
-312 -429 0
-245 0
360 -158 0
-487 151 0
401 -261 0
-376 384 0
-158 0
-192 -402 0
-118 -99 0
-62 0
-45 0
-40 0
-446 0
48 -50 0
225 -367 0
-125 0
-104 0
-112 -274 0
-366 0
-417 0
-230 0
325 -162 0
-286 -99 0
-477 -41 0
-34 383 0
-400 0
-441 0
-38 -13 0
-255 0
-488 0
-22 -20 0
-221 187 0
-240 377 0
-467 -59 0
-380 -385 0
-23 0
-371 0
-175 183 0
170 -310 0
-126 -277 0
-400 0
-6 -450 0
-93 0
-159 0
169 -478 0
-136 -442 0
359 -41 0
-47 159 0
-200 -23 0
-335 0
-310 0
-372 0
-343 194 0
-317 0
-352 420 0
-320 452 0
-456 0
-227 439 0
-225 0
121 -130 0
-33 0
305 -398 0
-400 0
-454 -82 0
-78 0
-241 0
-150 0
-101 0
331 -203 0
-230 -166 0
-328 -471 0
-479 391 0
-136 0
-104 0
43 -489 0
134 -105 0
-10 -345 0
-223 0
72 -211 0
-218 0
-99 0
-104 0
-298 286 0
-284 86 0
-276 430 0
57 -252 0
341 -57 0
-151 -277 0
-308 0
105 -131 0
-142 -129 0
-231 0
-331 -305 0
-280 -120 0
-48 -387 0
72 -495 0
-221 0
42 -43 0
-345 -41 0
-494 0
416 -428 0
-393 0
-216 0
-373 -492 0
-85 0
-334 0
-485 -187 0
-254 0
453 -241 0
-59 0
-246 -203 0
-124 -36 0
-342 211 0
-148 367 0
-141 0
-495 0
-136 410 0
105 -479 0
-444 0
-152 0
-138 0
210 -118 0
-434 70 0
4 -259 0
321 -358 0
-175 -10 0
-309 0
-126 -282 0
-62 -390 0
-500 0
-235 -202 0
360 -62 0
-148 0
-408 0
-268 0
-432 0
-92 389 0
-484 -172 0
159 -161 0
-259 0
-80 338 0
-59 221 0
-260 0
-21 486 0
-319 0
-393 0
-380 0
-194 0
-125 -10 0
29 -321 0
85 -265 0
-453 212 0
-350 347 0
-420 0
-302 0
-454 0
482 -413 0
-60 0
-84 0
-60 199 0
-125 0
-255 0
-481 0
-290 167 0
99 -329 0
50 -274 0
478 -161 0
-421 -273 0
-280 462 0
-341 0
-453 0
490 -339 0
-94 -385 0
-374 0
473 -305 0
-231 11 0
-253 -349 0
-232 315 0
-375 -346 0
-283 397 0
-164 0
-184 -20 0
-50 -321 0
-62 284 0
-431 -236 0
-215 0
-482 -217 0
-365 444 0
58 -314 0
-288 391 0
-239 0
-196 254 0
-478 0
-362 -450 0
-285 0
-118 0
-373 0
-272 -154 0
-356 -50 0
-317 231 0
-221 -306 0
203 -425 0
-478 -346 0
-73 0
-374 87 0
-255 -397 0
-148 493 0
-108 0
-322 302 0
-280 364 0
-203 0
-114 0
-425 -97 0
315 -233 0
-160 0
-270 381 0
-358 333 0
-166 30 0
-188 0
-313 0
-416 -201 0
-122 0
-71 -434 0
25 -299 0
-117 0
409 -365 0
-199 0
-109 0
-158 -226 0
-357 0
-152 -312 0
-327 341 0
-453 0
-224 47 0
-474 0
-191 0
368 -42 0
-191 0
-462 -433 0
-84 0
-432 -257 0
-177 0
184 -375 0
-351 454 0
-140 -387 0
-217 0
-350 -114 0
-496 0
-405 -219 0
-62 7 0
-372 0
-360 -445 0
342 -2 0
-375 226 0
-171 -465 0
-155 0
-164 -458 0
106 -153 0
-31 0
-398 0
-47 0
-179 0
-491 0
-163 -202 0
153 -234 0
-189 0
-68 0
-301 6 0
-491 279 0
267 -297 0
380 -17 0
197 -473 0
-283 0
-66 0
-415 0
-314 0
-213 -100 0
-115 0
-458 0
-270 -180 0
-111 0
-478 -92 0
-364 0
435 -211 0
496 -277 0
-14 -230 0
-36 150 0
-187 0
-372 -451 0
-463 0
425 -65 0
-200 253 0
-317 68 0
-341 0
-479 0
-485 -490 0
464 -197 0
-51 53 0
-189 0
-373 0
-144 -281 0
-163 87 0
-291 0
-323 223 0
-219 0
-484 -283 0
-434 0
-159 0
314 -285 0
-357 0
-494 0
121 -226 0
185 -142 0
-86 -212 0
-160 0
-486 -481 0
351 -481 0
-179 -395 0
-342 0
-52 -33 0
-84 0
-471 -340 0
-320 410 0
108 -484 0
-177 0
-397 476 0
-195 -50 0
-178 -345 0
-171 -425 0
-347 0
-245 0
-373 0
315 -225 0
203 -337 0
-80 -442 0
-361 0
321 -203 0
-448 0
-111 -427 0
-128 462 0
-472 0
-127 499 0
-175 0
-75 0
-480 0
-159 -306 0
-281 0
-301 0
299 -85 0
-292 0
9 -74 0
-117 0
-254 0
-262 -123 0
-120 -326 0
-483 30 0
104 -187 0
-66 0
-29 396 0
-108 -76 0
298 -404 0
-93 0
-476 0
-412 -65 0
137 -379 0
-103 -162 0
-124 405 0
-71 -346 0
-173 253 0
197 -306 0
323 -26 0
-476 310 0
-51 471 0
-16 302 0
249 -22 0
163 -339 0
-241 0
410 -361 0
-390 -45 0
-168 -191 0
-229 -379 0
500 -243 0
-6 243 0
120 -121 0
-310 -379 0
-13 125 0
-7 -435 0
325 -379 0
-316 -467 0
-360 0
-222 67 0
-188 0
-275 189 0
-222 -105 0
74 -235 0
264 -103 0
-7 0
-159 455 0
-125 -337 0
-48 425 0
-135 0
-62 0
-330 0
-496 315 0
-14 -99 0
-95 0
-212 0
-424 329 0
388 -476 0
-141 -417 0
352 -434 0
232 -320 0
-126 0
-399 -177 0
-242 -217 0
-232 0
-375 -425 0
-450 238 0
-74 0
-382 54 0
-298 0
223 -161 0
300 -227 0
-304 -449 0
-64 0
483 -313 0
-357 0
-472 -460 0
-386 7 0
-310 -446 0
-409 0
-477 230 0
-398 236 0
78 -378 0
-62 266 0
-200 -202 0
-330 0
-418 -146 0
-276 0
-477 0
-112 0
-79 0
-141 -457 0
-461 0
-356 0
-398 0
-408 57 0
-158 0
-422 0
131 -19 0
48 -491 0
-338 0
-339 0
-350 0
-157 0
-288 0
-63 -197 0
-478 19 0
-264 470 0
-365 -354 0
304 -244 0
27 -219 0
-326 258 0
-310 0
284 -323 0
482 -474 0
-266 0
-350 35 0
-294 -73 0
-249 0
-464 -222 0
-458 0
-408 0
-94 198 0
-357 0
-374 0
-342 0
-304 0
-328 -122 0
-103 -204 0
-352 -88 0
-370 0
129 -363 0
-235 0
-380 0
348 -298 0
233 -190 0
-390 0
202 -457 0
-439 142 0
-102 77 0
-368 -464 0
-493 171 0
-414 -429 0
376 -193 0
-42 143 0
452 -465 0
-336 0
-376 154 0
-455 77 0
-462 133 0
-223 0
-421 403 0
146 -165 0
-160 -343 0
-416 0
131 -369 0
305 -155 0
-285 0
-237 -117 0
-337 111 0
-148 0
-412 0
-426 -282 0
-320 0
-18 0
262 -241 0
121 -403 0
-360 0
-284 118 0
-161 0
-270 -245 0
-242 0
-268 0
-267 0
-126 0
-198 0
-469 -188 0
-183 0
-15 -241 0
498 -227 0
-171 0
-118 159 0
-421 0
390 -330 0
-431 491 0
-388 0
-15 0
-132 -426 0
384 -382 0
312 -73 0
152 -444 0
-77 230 0
-16 0
483 -209 0
-396 -441 0
2 -18 0
488 -2 0
-474 0
-104 -425 0
193 -34 0
-438 0
-80 476 0
-456 309 0
-272 13 0
41 -27 0
-206 -125 0
-484 214 0
-376 -16 0
-190 5 0
-109 0
-113 0
-243 413 0
-239 -269 0
-402 0
-281 0
-250 263 0
473 -2 0
-437 0
-447 0
-493 -105 0
-296 417 0
25 -350 0
-45 0
-405 0
-54 124 0
-312 -119 0
-404 0
-329 375 0
-209 0
-363 0
-258 0
-26 335 0
177 -281 0
-22 69 0
-254 0
-166 206 0
-185 0
-396 0
-112 0
441 -142 0
240 -243 0
-22 -59 0
-82 0
-8 0
488 -329 0
-217 0
-29 -460 0
-430 204 0
376 -247 0
-219 0
-488 260 0
-133 0
-85 0
-60 0
-360 0
-111 -479 0
-22 -92 0
-139 0
-442 -433 0
-397 404 0
-259 0
418 -210 0
-257 0
-340 0
-159 101 0
258 -187 0
-400 -440 0
444 -147 0
-440 0
-376 -279 0
-291 -161 0
478 -489 0
-373 0
-424 330 0
-325 -146 0
-370 0
-234 151 0
-130 0
-7 115 0
-184 0
-306 95 0
440 -422 0
-489 0
-80 -490 0
-428 45 0
-182 -28 0
112 -405 0
-174 67 0
-289 0
-423 -157 0
-447 -459 0
-173 286 0
37 -91 0
-398 -41 0
-223 0
-275 -33 0
-81 0
-462 446 0
386 -202 0
-17 0
368 -229 0
-333 -170 0
-466 0
-51 0
-285 -49 0
273 -108 0
-273 295 0
-143 -182 0
-40 0
-421 407 0
-335 -383 0
386 -245 0
121 -371 0
-416 0
-356 0
-344 -420 0
441 -28 0
180 -162 0
-238 87 0
137 -434 0
-122 0
-200 0
200 -326 0
325 -442 0
-111 -446 0
-443 413 0
-80 -469 0
491 -81 0
309 -2 0
139 -396 0
-421 0
-408 0
-323 0
-24 0
-210 0
-191 234 0
-125 -331 0
-92 0
-480 0
-138 0
-167 -163 0
281 -410 0
-242 0
442 -73 0
132 -164 0
86 -90 0
369 -51 0
-368 0
-256 140 0
383 -17 0
-263 0
-448 0
456 -454 0
-61 0
337 -260 0
-200 -339 0
-322 0
-408 -351 0
467 -115 0
-33 0
-108 0
371 -162 0
-214 0
-414 455 0
-76 252 0
-299 135 0
-295 22 0
-324 -185 0
-418 0
-13 476 0
-461 0
-470 0
-460 0
-342 346 0
-319 0
296 -266 0
-451 0
-49 -361 0
-365 0
194 -101 0
-71 -140 0
-54 -388 0
72 -187 0
42 -28 0
-107 -169 0
-351 -469 0
-2 0
-132 -98 0
-469 -25 0
-428 0
-125 -243 0
-498 0
-320 0
-396 0
-270 0
-418 87 0
-277 285 0
357 -234 0
-68 300 0
-491 0
385 -426 0
-349 85 0
286 -129 0
-403 0
9 -279 0
290 -258 0
418 -131 0
-199 0
-120 0
-47 197 0
-104 0
-149 -52 0
-454 325 0
-244 0
-112 -205 0
-186 -185 0
-208 -149 0
-221 0
-31 483 0
-261 0
-170 423 0
417 -77 0
-357 -291 0
-64 0
210 -345 0
-321 0
-255 76 0
-88 -266 0
-332 -9 0
72 -315 0
-253 0
-451 -297 0
-187 0
-379 0
-223 0
-22 0
-395 -65 0
-340 263 0
280 -209 0
-75 0
-63 0
329 -146 0
-186 0
-147 -379 0
-45 53 0
-43 -329 0
-30 0
-383 470 0
-59 0
-44 478 0
-132 0
-205 0
-415 0
-255 -25 0
-46 0
-250 270 0
-63 0
444 -235 0
-293 -233 0
-352 0
-12 0
480 -232 0
-377 0
-143 -66 0
232 -383 0
-447 -385 0
-440 0
-404 0
-203 0
-163 0
-416 460 0
-360 247 0
-247 188 0
-470 -290 0
-418 0
194 -77 0
-460 -449 0
-232 109 0
-461 -105 0
18 -21 0
-15 -363 0
-42 -161 0
-285 0
-344 0
-31 0
-15 0
-118 92 0
-319 0
-352 0
8 -234 0
-43 293 0
-37 0
-401 0
-111 44 0
-271 0
-439 0
-175 85 0
-476 0
-88 297 0
-39 298 0
-172 0
-4 0
-144 406 0
170 -37 0
-407 0
134 -473 0
457 -394 0
-330 -465 0
-304 181 0
361 -390 0
65 -249 0
264 -300 0
-447 228 0
176 -333 0
-216 -229 0
-389 271 0
-361 319 0
-156 -249 0
-469 0
-100 0
-95 55 0
-19 0
-454 187 0
-193 0
-153 0
-175 -372 0
-166 0
-355 -74 0
-314 0
-190 355 0
162 -284 0
-157 0
-72 0
-209 0
464 -335 0
-11 0
446 -450 0
97 -252 0
-198 -206 0
-336 -42 0
500 -10 0
-300 0
-31 0
-111 -482 0
-36 0
336 -423 0
-140 -354 0
-253 268 0
336 -73 0
-348 0
-315 -387 0
305 -341 0
-302 0
-301 405 0
-135 371 0
-233 0
-485 0
-181 156 0
-24 -350 0
-15 -337 0
-70 179 0
-438 -446 0
202 -114 0
300 -178 0
-332 -481 0
-468 439 0
-389 37 0
-71 342 0
-244 0
-94 267 0
-38 0
-198 0
-227 0
41 -146 0
-458 374 0
260 -236 0
-301 0
-152 -222 0
-392 -82 0
-38 0
-31 487 0
-353 0
-119 458 0
-120 289 0
-150 -75 0
-276 87 0
-76 0
57 -50 0
-190 0
200 -246 0
-226 0
-499 0
-101 61 0
-417 0
-135 -363 0
-280 0
-325 0
-22 0
226 -185 0
-187 79 0
-141 0
-240 64 0
-320 345 0
-20 -81 0
-194 0
-32 -207 0
-177 0
-346 0
-55 205 0
-192 107 0
-339 0
339 -348 0
-95 0
-308 -452 0
-238 0
-218 0
331 -371 0
-151 -463 0
-386 0
-275 0
-187 -234 0
-471 195 0
-278 -453 0
-103 0
-194 0
-192 446 0
-79 0
-260 0
-371 0
-311 239 0
50 -213 0
-162 239 0
-287 -341 0
-289 0
-270 0
-465 0
-207 -57 0
32 -78 0
-380 214 0
105 -6 0
-477 0
-254 475 0
-69 239 0
-431 101 0
-49 0
-88 260 0
-105 0
-490 367 0
-384 -2 0
-331 -329 0
-192 -170 0
-63 402 0
-84 -329 0
258 -339 0
-107 367 0
-231 85 0
-485 0
-397 -4 0
-204 -226 0
144 -479 0
-80 109 0
-244 -354 0
-480 0
-65 -121 0
377 -450 0
-131 -490 0
-257 0
-24 152 0
-69 -244 0
120 -290 0
-236 -17 0
334 -369 0
89 -130 0
-258 0
494 -297 0
-394 0
393 -28 0
-211 0
-410 0
-444 -137 0
-212 -234 0
-360 242 0
-271 -302 0
-412 0
-432 298 0
385 -275 0
115 -324 0
-309 -105 0
-497 0
-349 0
-300 0
-145 0
-54 220 0
-41 0
-453 0
-279 0
220 -379 0
-200 -43 0
357 -137 0
-175 457 0
-88 247 0
371 -74 0
347 -354 0
178 -454 0
-316 0
-340 37 0
51 -285 0
-353 0
-240 -30 0
-69 -66 0
-170 0
16 -183 0
-245 -73 0
-141 0
-287 0
315 -34 0
-171 -106 0
-103 -260 0
-372 0
246 -497 0
-292 0
-439 0
-77 142 0
-103 492 0
254 -169 0
-335 -51 0
320 -353 0
139 -57 0
224 -497 0
465 -463 0
331 -329 0
-32 4 0
-291 310 0
-482 0
-498 0
-84 0
-337 0
-444 0
10 -293 0
-184 -490 0
-384 0
-8 132 0
-432 -355 0
-292 -241 0
-215 0
-429 -411 0
-359 -36 0
-476 333 0
-420 0
-332 0
-43 -49 0
-269 429 0
449 -13 0
-58 446 0
-278 356 0
-286 0
473 -475 0
-146 0
-193 0
42 -314 0
-272 -278 0
-365 -331 0
-498 -234 0
106 -396 0
325 -105 0
-234 -33 0
-368 0
-431 -151 0
-488 -156 0
-18 0
-122 0
-47 0
89 -241 0
-455 14 0
-455 125 0
-275 -194 0
-291 -459 0
-396 37 0
-491 0
-256 0
-317 0
-215 -134 0
-420 0
257 -155 0
-184 0
-459 -171 0
-5 0
-42 0
-500 -315 0
-197 47 0
-53 0
81 -166 0
-327 0
434 -114 0
-113 0
48 -133 0
64 -97 0
-209 0
-320 -41 0
-21 455 0
-24 255 0
-433 0
-480 15 0
-392 434 0
-337 0
-160 0
313 -186 0
-92 -442 0
-228 0
-424 -107 0
-247 -430 0
67 -179 0
-464 0
-158 0
-304 155 0
-129 255 0
388 -49 0
387 -386 0
-173 0
-117 0
60 -219 0
-132 292 0
-195 189 0
-116 -409 0
-360 183 0
-68 0
-334 483 0
228 -266 0
-153 0
18 -330 0
441 -99 0
-62 0
-296 0
20 -171 0
-464 0
-182 0
-424 138 0
-88 -207 0
-334 0
-36 0
-211 287 0
-383 0
-210 0
148 -299 0
-101 102 0
-213 0
-96 226 0
-323 0
-54 -270 0
-123 278 0
-87 398 0
-289 0
25 -106 0
-93 0
-237 500 0
-464 -393 0
-359 -292 0
-114 0
349 -363 0
194 -358 0
-56 0
264 -38 0
-328 -108 0
-298 0
-415 250 0
-67 -305 0
-398 70 0
-112 170 0
27 -340 0
-208 410 0
48 -233 0
-383 318 0
-117 0
69 -289 0
-234 471 0
-250 0
-114 -490 0
-427 -81 0
-157 359 0
245 -57 0
-126 0
408 -444 0
-3 0
-422 -105 0
-285 0
-392 -131 0
-8 250 0
-110 262 0
-472 302 0
-216 -367 0
-192 -67 0
-252 0
-95 0
-477 -154 0
307 -4 0
-404 -386 0
-440 -170 0
-332 0
305 -437 0
-23 -465 0
-341 -116 0
-287 -474 0
-55 0
164 -313 0
475 -482 0
-240 169 0
-419 -250 0
-24 265 0
-408 0
-495 87 0
-85 0
-145 0
220 -138 0
-96 0
-95 -475 0
-147 0
-400 242 0
-278 0
-72 0
325 -66 0
-424 477 0
-176 165 0
101 -418 0
-389 0
-95 -363 0
-295 -311 0
-286 463 0
8 -492 0
-36 0
-434 -337 0
385 -202 0
-331 -1 0
-283 -193 0
-69 -381 0
-79 -463 0
-415 186 0
-96 363 0
-38 -203 0
65 -303 0
-126 -29 0
257 -113 0
-359 0
-133 0
-247 463 0
-480 -184 0
-438 -481 0
12 -164 0
-95 331 0
-446 -50 0
-304 482 0
-100 0
-448 0
-120 -106 0
-455 0
-283 -435 0
-85 0
-351 -442 0
498 -81 0
-110 229 0
-416 451 0
-412 -74 0
-222 0
-129 0
-79 281 0
-412 -482 0
-96 -85 0
-174 -117 0
324 -10 0
-480 0
-467 0
-398 0
-459 398 0
-107 0
152 -263 0
-457 0
-325 22 0
-240 336 0
-364 126 0
-9 0
-335 199 0
-455 0
-279 -90 0
-483 0
-383 447 0
359 -153 0
-57 0
-262 -178 0
440 -93 0
248 -228 0
-16 425 0
456 -415 0
129 -334 0
-496 -445 0
-488 0
-404 0
-381 364 0
-30 -246 0
273 -143 0
-153 0
377 -115 0
-197 0
-208 0
-206 389 0
-301 69 0
27 -297 0
-491 0
143 -169 0
-318 0
-400 197 0
-70 0
-329 -361 0
74 -28 0
-438 -61 0
451 -433 0
-32 -321 0
322 -457 0
-104 0
-395 0
-374 435 0
-167 313 0
-80 0
-140 0
-438 229 0
-24 70 0
-129 0
-124 84 0
-81 0
-136 0
-180 317 0
-262 406 0
-191 -158 0
489 -260 0
449 -219 0
-79 0
-6 0
-144 122 0
-472 450 0
-228 0
-447 -420 0
-63 -105 0
-158 117 0
-22 0
-409 0
25 -111 0
32 -306 0
-392 3 0
-424 11 0
-12 0
-319 374 0
224 -358 0
-427 0
-386 -369 0
-342 262 0
-211 -305 0
-49 0
-299 61 0
-52 12 0
-440 446 0
394 -225 0
-3 0
-456 -53 0
-425 0
-264 0
-331 0
76 -346 0
498 -461 0
-478 253 0
-415 62 0
80 -72 0
-39 204 0
-389 -356 0
-430 0
-237 0
-397 191 0
-288 -220 0
-5 -177 0
-360 -339 0
-227 0
-159 49 0
-475 0
-400 -304 0
-484 342 0
-384 159 0
-63 143 0
-149 -162 0
-306 0
224 -310 0
-173 39 0
-62 0
305 -245 0
-351 172 0
288 -112 0
-124 188 0
341 -443 0
-388 -67 0
225 -420 0
-427 0
-412 284 0
-421 0
-356 92 0
-125 -180 0
89 -430 0
-347 0
-460 0
-93 0
283 -396 0
88 -62 0
-327 0
-117 -172 0
-156 -99 0
-84 341 0
-264 0
-474 31 0
-173 0
-409 0
-317 0
-141 0
-246 -252 0
-365 -474 0
-144 430 0
-108 0
273 -351 0
-498 0
-41 0
-210 0
-429 -307 0
-90 103 0
-315 446 0
-390 0
-10 0
-24 0
-440 0
467 -372 0
-114 0
-38 -357 0
-288 -255 0
-12 0
355 -76 0
-488 0
-271 -459 0
-97 0
-243 -186 0
-406 0
-155 0
-311 0
384 -55 0
-167 322 0
-402 174 0
-259 0
171 -202 0
-124 0
-38 -403 0
4 -418 0
-164 0
-179 0
108 -450 0
-98 0
-445 366 0
285 -49 0
-215 0
-240 88 0
312 -350 0
402 -404 0
96 -273 0
-259 0
-127 135 0
-455 83 0
-182 0
-320 0
-134 0
-450 0
-123 0
-251 0
-29 0
-187 -82 0
-384 -487 0
-190 0
-105 0
-280 0
-28 0
-407 -170 0
-273 0
-477 318 0
-292 0
-400 221 0
37 -131 0
-422 0
-279 -300 0
-441 0
-198 0
-407 -45 0
248 -273 0
-309 404 0
-189 -459 0
-275 0
479 -481 0
-409 0
-230 0
-99 374 0
-124 0
-325 -188 0
-313 0
314 -339 0
-403 0
-175 0
489 -67 0
-95 305 0
-456 0
-341 0
257 -226 0
-21 0
-88 0
35 -364 0
-261 0
-455 42 0
-499 45 0
98 -221 0
-150 0
-368 218 0
-297 0
474 -437 0
-156 0
296 -338 0
-2 0
-276 -67 0
-29 -460 0
49 -223 0
432 -417 0
-431 282 0
427 -418 0
-162 0
-242 0
-465 0
-275 -355 0
-157 -396 0
-437 0
-89 0
-261 0
-164 0
-269 430 0
269 -370 0
-56 9 0
-205 0
336 -251 0
180 -292 0
-46 0
-284 0
-129 0
-264 0
-429 155 0
-264 0
392 -81 0
-334 0
-260 -410 0
-278 429 0
-138 0
-478 326 0
178 -237 0
154 -315 0
56 -191 0
-168 0
-442 0
67 -213 0
-226 0
-416 -143 0
-496 0
-184 178 0
-315 0
-299 0
-209 0
11 -308 0
-309 -107 0
-103 0
312 -472 0
-456 -314 0
192 -269 0
160 -428 0
-376 103 0
-143 0
-264 418 0
192 -76 0
-168 0
347 -269 0
-373 0
-128 304 0
-57 0
233 -145 0
-263 428 0
-212 486 0
97 -225 0
-10 167 0
-124 -1 0
-478 93 0
436 -122 0
-273 0
-294 0
-192 87 0
-199 -342 0
-364 -225 0
-260 0
356 -236 0
473 -363 0
-198 0
-478 0
417 -254 0
-225 0
-46 0
-189 358 0
-134 -177 0
-368 -211 0
-78 0
-439 0
-269 -218 0
-383 -77 0
45 -266 0
-440 -428 0
-408 -206 0
-408 23 0
-471 -243 0
-144 0
-415 -386 0
371 -148 0
-234 0
224 -55 0
-223 154 0
-78 -124 0
428 -89 0
-195 111 0
-70 0
-442 -282 0
232 -164 0
-328 234 0
-193 0
146 -113 0
96 -278 0
-327 0
-178 0
248 -433 0
-278 0
-487 447 0
-116 0
-66 0
-191 6 0
-30 0
-412 0
-439 149 0
-124 0
-53 84 0
-206 0
-309 0
-399 -83 0
40 -199 0
376 -142 0
456 -213 0
-90 0
-8 0
-54 38 0
-232 0
115 -202 0
-98 0
-278 0
-357 0
-445 163 0
-178 0
-63 0
-233 0
-342 -234 0
-397 0
-88 137 0
-329 0
-479 -241 0
-166 0
-500 0
-77 -218 0
-112 347 0
-483 383 0
-279 399 0
-447 295 0
-124 0
-22 119 0
376 -3 0
-413 364 0
113 -229 0
-210 0
58 -27 0
-104 374 0
-39 0
-439 195 0
-330 -498 0
-47 333 0
-246 293 0
-189 -194 0
65 -483 0
-400 0
-373 -210 0
249 -225 0
225 -413 0
-14 0
-119 22 0
153 -123 0
-358 -417 0
-23 379 0
-84 -426 0
-190 -121 0
-283 0
-93 53 0
80 -373 0
-136 0
-368 -486 0
-438 419 0
-427 -490 0
495 -225 0
-98 0
-52 397 0
102 -193 0
-406 0
-320 -300 0
-390 0
328 -309 0
-277 0
-102 -451 0
392 -139 0
-288 -278 0
-458 0
-464 166 0
-253 -389 0
-301 -316 0
-96 -428 0
-111 0
-241 0
-239 0
-236 0
-291 -473 0
-61 0
-172 334 0
56 -427 0
-442 -57 0
-403 0
-269 0
-391 -189 0
-399 69 0
-195 0
-447 -65 0
-415 0
-166 0
-245 12 0
499 -82 0
-135 -239 0
294 -473 0
-458 0
-128 -315 0
-483 0
-119 0
-366 0
-467 -395 0
-336 0
321 -329 0
-174 -325 0
-317 -226 0
-245 -404 0
-427 406 0
170 -388 0
-147 6 0
-175 0
249 -259 0
-46 -12 0
-385 -177 0
-10 -498 0
420 -106 0
-346 0
-187 173 0
493 -107 0
-299 278 0
395 -330 0
53 -49 0
-40 53 0
-383 29 0
-283 -378 0
-372 -346 0
-352 107 0
-295 -285 0
-84 0
-197 0
-100 -306 0
177 -154 0
-318 0
-117 0
-297 0
-221 -444 0
-339 0
-139 -201 0
-168 -19 0
-152 198 0
-156 0
-260 0
233 -276 0
-85 238 0
250 -172 0
-499 197 0
-284 0
-263 0
-415 0
67 -2 0
-60 0
-322 0
-366 -214 0
-496 0
-446 -348 0
-79 458 0
-155 0
-231 -20 0
-241 0
368 -204 0
121 -314 0
-205 0
388 -242 0
-240 -322 0
-406 0
-427 0
-63 150 0
52 -154 0
-287 -228 0
-498 0
-22 -97 0
-418 0
-36 0
-138 0
-227 0
-270 0
-476 0
-483 0
-22 0
-146 0
-205 0
-479 318 0
-68 0
-215 -381 0
-84 0
301 -329 0
281 -174 0
228 -305 0
-488 0
-86 -441 0
-217 0
-45 244 0
-398 -435 0
-61 0
-72 -116 0
-221 91 0
-397 231 0
-398 0
-184 -237 0
-383 0
333 -99 0
-76 0
-198 -285 0
-158 460 0
-381 0
-326 -140 0
-6 0
-317 -59 0
-173 0
-265 0
-348 0
-330 0
69 -313 0
-391 0
-183 0
-294 478 0
-148 7 0
-308 0
-285 230 0
188 -458 0
89 -277 0
-231 0
-478 0
-54 0
-493 0
-134 0
-360 0
-494 15 0
-136 0
-11 -258 0
197 -489 0
-247 359 0
-66 0
45 -371 0
41 -193 0
480 -324 0
-329 0
-490 0
-74 0
-389 447 0
-206 173 0
-423 -137 0
416 -215 0
-421 110 0
164 -473 0
29 -34 0
279 -129 0
397 -426 0
-325 0
-13 -9 0
-256 139 0
-110 36 0
-343 93 0
-58 0
-484 199 0
-298 15 0
-496 0
499 -101 0
-89 0
-263 470 0
-118 -401 0
-496 246 0
-188 0
-236 0
-239 -283 0
-218 303 0
-232 -221 0
427 -404 0
-328 0
-260 0
-419 0
-91 494 0
-393 0
-79 0
-72 0
-204 0
-411 -74 0
-163 0
-288 0
-326 -338 0
-325 -380 0
-342 -220 0
-60 183 0
434 -244 0
-496 246 0
-328 0
264 -334 0
-403 118 0
-399 0
-159 23 0
-307 0
-110 -233 0
-135 164 0
282 -41 0
-315 -10 0
-350 0
-136 132 0
-8 355 0
-399 0
-51 0
-4 -179 0
-84 0
-302 0
-21 0
-191 0
-278 -125 0
-219 0
-236 -49 0
-108 -195 0
-301 0
-436 -90 0
-358 453 0
-375 449 0
-377 0
-420 38 0
-4 341 0
-170 0
-181 126 0
-383 55 0
-155 0
-78 83 0
-318 -211 0
272 -169 0
-8 -444 0
73 -182 0
-351 0
-215 0
-243 190 0
-93 31 0
-314 0
-286 0
152 -116 0
345 -123 0
113 -71 0
-287 -155 0
-182 260 0
-158 -109 0
-293 -308 0
-208 0
-33 0
-240 -303 0
-22 141 0
-48 0
-44 93 0
-76 -452 0
-85 -275 0
-162 0
-31 0
294 -474 0
-400 88 0
-181 -365 0
297 -201 0
-99 0
280 -147 0
-245 0
56 -376 0
-259 -385 0
-21 0
-382 228 0
-395 0
-131 0
-217 0
-152 -150 0
-198 0
-393 0
-293 14 0
-277 -258 0
-236 0
197 -169 0
-50 0
124 -107 0
-27 -226 0
-9 -33 0
400 -329 0
427 -266 0
-184 0
-472 -55 0
-87 0
52 -266 0
27 -18 0
-121 0
-458 0
-142 -253 0
-309 0
-149 0
-165 -497 0
-93 0
-349 0
-264 0
309 -403 0
19 -161 0
-141 182 0
-86 0
-442 0
456 -166 0
-476 0
220 -394 0
-180 0
169 -123 0
-253 0
-115 0
-396 0
-459 -402 0
-491 0
-1 0
-223 -306 0
-145 0
-310 0
-138 399 0
-298 0
-360 0
163 -467 0
-17 0
115 -67 0
-61 0
123 -57 0
-351 0
-462 0
-363 0
-166 -434 0
333 -267 0
-46 442 0
-255 0
-322 79 0
-476 0
-334 -105 0
-99 0
-276 0
-470 67 0
-235 269 0
-81 0
-364 0
-360 0
-51 309 0
497 -251 0
-103 0
-28 0
328 -191 0
-419 0
-430 -137 0
-331 -441 0
-274 0
-230 -268 0
-278 -422 0
-406 0
330 -442 0
-264 111 0
352 -466 0
-357 -427 0
-48 110 0
317 -42 0
-239 -91 0
-438 0
-199 0
49 -162 0
-101 0
-332 -2 0
-176 0
-262 0
279 -209 0
-392 0
-346 0
-284 222 0
-47 -109 0
-195 0
-348 276 0
449 -370 0
121 -462 0
-118 -460 0
-399 -237 0
348 -201 0
-379 0
-211 0
-247 0
-311 -433 0
-67 -74 0
75 -21 0
-471 -237 0
-427 -105 0
211 -146 0
-306 -330 0
-245 0
-148 461 0
272 -295 0
300 -43 0
-173 163 0
-393 0
-103 95 0
120 -290 0
-481 -465 0
-134 -82 0
-195 0
-416 63 0
290 -459 0
-367 -299 0
464 -184 0
-296 0
-414 -29 0
408 -422 0
-500 486 0
-167 0
-109 86 0
-376 239 0
-347 0
-296 0
208 -149 0
-101 0
201 -449 0
-478 -121 0
-399 22 0
-275 0
-120 0
-96 -350 0
-48 406 0
-199 -317 0
-385 0
-293 -251 0
-237 6 0
-79 -253 0
-238 0
-477 271 0
17 -209 0
-283 0
-279 175 0
-247 0
-384 182 0
371 -442 0
217 -261 0
-64 375 0
-250 0
-154 0
196 -482 0
392 -293 0
-22 35 0
-48 -258 0
-477 0
-447 0
-398 127 0
-480 -457 0
-288 340 0
-128 308 0
-328 -244 0
-163 383 0
-344 -329 0
-376 -238 0
-425 0
-199 -326 0
-239 129 0
-116 0
-463 204 0
314 -117 0
-232 0
400 -244 0
81 -385 0
-357 -324 0
-187 0
-255 -125 0
-206 0
347 -489 0
-36 0
407 -177 0
-499 0
89 -231 0
-403 0
177 -484 0
-8 -413 0
-216 300 0
-296 -361 0
-466 0
-423 0
-43 461 0
-127 0
-381 -475 0
-86 -93 0
-264 -82 0
113 -98 0
-352 0
108 -188 0
-117 -228 0
301 -233 0
-460 0
-480 422 0
-287 -277 0
-465 0
-326 324 0
-366 0
-288 79 0
157 -209 0
-43 222 0
-304 -261 0
-355 -146 0
-124 0
-40 0
-415 -385 0
-275 -105 0
-421 0
-177 0
-409 0
-115 0
-455 -411 0
-461 5 0
-79 -357 0
-23 -325 0
-311 423 0
186 -302 0
-57 0
-111 -301 0
330 -499 0
-479 0
-463 0
-347 0
-318 468 0
480 -95 0
-58 0
-268 -27 0
-77 0
410 -301 0
284 -426 0
-23 215 0
499 -201 0
-319 0
-130 0
485 -26 0
-4 0
146 -74 0
-397 -267 0
-155 -209 0
210 -308 0
260 -121 0
-94 0
-276 0
-303 0
-184 9 0
-445 0
-215 358 0
-254 279 0
-278 0
-29 0
-472 401 0
-29 0
-284 151 0
477 -450 0
-460 0
387 -473 0
-125 -307 0
66 -123 0
-104 0
-429 222 0
-460 0
-97 -273 0
-134 0
-488 0
-496 71 0
-4 -106 0
331 -411 0
-287 -20 0
130 -181 0
-492 174 0
-21 0
411 -210 0
-398 0
-368 158 0
-82 0
-184 -7 0
-160 0
-476 -282 0
196 -28 0
-453 341 0
-455 434 0
-102 235 0
-190 157 0
-24 0
-208 0
-215 -357 0
-273 0
260 -419 0
-199 461 0
-70 -465 0
-103 0
323 -117 0
-246 84 0
300 -163 0
-236 -321 0
-67 0
-281 0
120 -341 0
-376 0
-488 0
-390 -374 0
377 -273 0
-436 0
-197 0
-26 0
-87 0
-435 133 0
-388 -169 0
378 -457 0
-46 -476 0
-167 0
129 -172 0
-354 -89 0
9 -206 0
52 -491 0
412 -361 0
-256 0
-243 63 0
-296 -164 0
-200 -19 0
-416 -317 0
134 -161 0
-359 -490 0
-302 267 0
-422 -36 0
283 -100 0
-78 -489 0
-424 -372 0
-150 -166 0
-6 82 0
-128 -356 0
-436 61 0
-351 -43 0
-48 -186 0
-118 0
-56 -430 0
-413 348 0
-78 0
-476 -35 0
-254 -6 0
-69 0
338 -139 0
-411 -243 0
409 -11 0
-243 -105 0
-162 -370 0
-453 -355 0
-152 449 0
-471 0
-453 -357 0
199 -65 0
-375 0
314 -403 0
-331 -82 0
-333 29 0
-486 0
228 -378 0
-367 -323 0
-126 -333 0
-55 -359 0
227 -418 0
-154 0
-189 0
481 -130 0
337 -405 0
328 -135 0
66 -109 0
-229 195 0
88 -236 0
-433 -489 0
-408 -196 0
74 -414 0
-88 0
280 -245 0
-7 0
231 -113 0
-80 -51 0
-36 260 0
-480 -143 0
-283 -498 0
-304 0
200 -12 0
-141 -130 0
-343 -330 0
-426 0
-359 0
-180 247 0
-148 0
-485 429 0
-168 0
-87 0
-472 481 0
-76 0
-97 0
-86 -445 0
-64 0
-181 0
-365 0
-373 0
-190 -282 0
-127 0
-250 0
-190 0
-280 384 0
-179 0
-95 0
-121 0
-63 0
140 -305 0
-493 -129 0
-252 421 0
368 -261 0
330 -370 0
-74 -105 0
195 -5 0
-165 203 0
-218 0
-475 0
-76 311 0
-273 0
56 -93 0
-188 0
-461 0
217 -429 0
-239 -123 0
-432 -455 0
-136 -182 0
-192 323 0
-103 -419 0
-308 0
-452 0
401 -155 0
-290 0
-214 0
-22 276 0
-384 -116 0
-72 138 0
-395 -147 0
-156 -332 0
464 -306 0
-444 0
-222 -290 0
-43 0
-359 0
-390 197 0
-80 -283 0
48 -304 0
-267 0
-394 0
-210 0
-60 0
-487 -225 0
-480 -22 0
-253 0
-164 -379 0
-230 164 0
-71 249 0
-366 -171 0
-470 58 0
-390 370 0
-304 0
-88 125 0
-182 0
-207 47 0
-146 423 0
-441 0
-488 0
438 -225 0
-98 0
362 -457 0
-239 -149 0
-352 -217 0
376 -451 0
-361 0
461 -67 0
-183 -1 0
138 -83 0
325 -369 0
-328 0
-310 -45 0
-55 -85 0
-464 379 0
-326 -13 0
-77 0
-414 0
-180 0
199 -209 0
-75 0
-469 0
-69 0
-477 -42 0
-241 0
-469 -92 0
-467 0
-71 -414 0
-48 -73 0
-211 -27 0
-70 0
-414 14 0
-449 -145 0
-494 -397 0
-88 0
-300 -345 0
-415 -5 0
-135 0
180 -9 0
456 -443 0
-495 -430 0
138 -331 0
-251 0
-390 14 0
-45 -362 0
-366 190 0
-64 -219 0
-376 -275 0
-68 0
-296 0
-83 0
-408 288 0
-111 430 0
-100 0
321 -493 0
-426 0
-88 310 0
-232 185 0
-364 0
-46 0
-190 347 0
-71 0
-462 -81 0
338 -217 0
-308 -84 0
-306 0
-422 0
-286 -497 0
-93 -348 0
-248 0
-61 166 0
-284 0
74 -210 0
-232 -170 0
-72 0
-456 0
-68 0
-368 -314 0
12 -211 0
-123 -114 0
-317 -393 0
-174 -181 0
-388 -131 0
-278 -154 0
354 -44 0
-441 255 0
347 -37 0
-444 373 0
-45 54 0
441 -459 0
336 -299 0
-62 12 0
139 -58 0
-425 0
-413 -10 0
482 -411 0
-265 0
-270 -68 0
-197 0
-312 379 0
-285 0
258 -129 0
-111 -145 0
-325 85 0
-105 0
456 -349 0
74 -106 0
-93 -266 0
-352 -344 0
-268 0
-168 77 0
-25 31 0
-160 -387 0
-354 0
-410 0
-46 0
-252 -249 0
-97 0
-38 340 0
-369 0
-35 0
-254 -475 0
-213 375 0
-66 0
-115 0
-285 -227 0
-138 0
-463 -437 0
-288 -153 0
-238 390 0
-53 -373 0
-15 0
-317 0
-210 0
-424 -356 0
-192 352 0
400 -103 0
402 -4 0
-427 0
-226 0
500 -370 0
460 -228 0
-26 0
-68 0
-267 0
-162 0
-314 0
-200 -111 0
-269 0
489 -386 0
-486 0
-2 0
-113 0
-111 397 0
-8 188 0
-184 -338 0
-486 36 0
-11 -2 0
-66 -217 0
-388 0
322 -229 0
328 -97 0
489 -373 0
-208 0
-246 10 0
186 -349 0
-303 0
296 -130 0
-291 0
-320 0
-498 0
-213 0
296 -76 0
-54 -220 0
-150 0
-248 0
-189 263 0
488 -466 0
-86 -145 0
-93 0
-320 -146 0
-48 237 0
-74 0
-230 101 0
-438 0
-32 459 0
-176 -421 0
69 -275 0
257 -453 0
-169 0
-444 0
82 -437 0
408 -166 0
-186 0
-395 0
-17 0
-157 0
-450 0
-73 0
-370 0
-325 0
-86 0
-162 0
-13 -131 0
-432 -475 0
-471 -201 0
-24 -33 0
-232 0
-421 292 0
-208 233 0
-295 47 0
-364 0
-495 -246 0
337 -477 0
26 -33 0
113 -437 0
-272 262 0
281 -422 0
144 -141 0
361 -345 0
-353 0
-129 0
-320 110 0
-494 363 0
-260 0
-77 0
-34 0
257 -343 0
270 -353 0
330 -489 0
-469 0
-416 409 0
160 -285 0
108 -33 0
-22 0
-324 -409 0
-236 5 0
-388 0
-376 -118 0
-346 0
201 -435 0
-229 0
-94 0
-359 0
-104 -385 0
-272 -325 0
380 -370 0
-215 229 0
-311 -417 0
-215 -418 0
-100 0
160 -303 0
-286 0
-470 0
-98 0
-472 -148 0
-304 0
-101 0
-384 279 0
-110 -266 0
-394 0
-403 405 0
-470 -498 0
-346 0
-35 0
-352 184 0
193 -405 0
417 -11 0
-457 0
-459 -315 0
-304 0
409 -236 0
-40 85 0
-367 102 0
-475 0
-383 0
305 -22 0
-60 383 0
-397 0
-500 479 0
449 -234 0
-101 0
-445 0
-321 0
-175 -183 0
-475 0
-406 238 0
52 -202 0
-349 0
-439 -180 0
-31 -129 0
-281 0
-163 0
-61 0
373 -467 0
-414 0
291 -109 0
-442 0
-423 -187 0
-64 -219 0
-318 -347 0
-155 -90 0
-74 0
-25 399 0
-349 -148 0
-178 -274 0
-216 395 0
-465 0
-111 84 0
-468 0
-72 144 0
-467 0
-5 0
-134 0
-231 0
-351 420 0
-232 -420 0
-188 151 0
-34 223 0
292 -411 0
-434 -337 0
-227 0
-126 0
18 -466 0
-495 332 0
-194 0
-5 0
-486 -275 0
-440 0
491 -107 0
-22 0
413 -26 0
-296 -271 0
82 -346 0
-342 415 0
-344 -469 0
-350 221 0
-285 236 0
-39 5 0
-370 0
473 -385 0
-370 -266 0
217 -442 0
-23 -301 0
-348 -236 0
-266 0
-400 -174 0
-246 47 0
-296 -19 0
81 -330 0
-493 0
459 -53 0
-312 0
156 -57 0
-135 -371 0
-191 -420 0
234 -468 0
120 -90 0
-335 0
-215 0
-350 -170 0
-87 299 0
-66 0
-486 -324 0
-332 -321 0
-173 -259 0
475 -308 0
-492 -226 0
-266 0
314 -278 0
-182 -452 0
147 -145 0
-52 0
-160 -391 0
-66 0
96 -437 0
-10 -281 0
-386 0
-402 0
-423 -42 0
-51 0
-47 -313 0
-446 0
-68 0
83 -42 0
416 -431 0
-132 0
403 -433 0
-89 0
-439 -469 0
-38 0
-54 -354 0
-471 0
-212 0
65 -186 0
-240 -147 0
-31 0
-438 -362 0
-396 -379 0
-439 0
-48 0
-492 0
-101 -75 0
-152 -211 0
-200 -178 0
-444 0
296 -467 0
-113 23 0
-129 0
-471 -251 0
16 -332 0
-495 -130 0
-436 0
-302 0
475 -65 0
-224 300 0
-431 255 0
-79 -52 0
-384 461 0
-146 167 0
-326 442 0
-430 2 0
-10 0
-334 222 0
-198 334 0
-427 -81 0
-471 -174 0
-157 -267 0
-71 390 0
-151 0
-70 -22 0
355 -489 0
249 -38 0
-72 351 0
-159 -251 0
-144 -285 0
330 -374 0
-197 -204 0
-469 22 0
400 -379 0
-227 0
-399 0
203 -219 0
232 -154 0
-474 0
-434 0
-366 -165 0
-136 0
-456 -29 0
459 -172 0
-264 78 0
-158 0
259 -388 0
-412 -465 0
-129 0
472 -403 0
-86 -410 0
393 -268 0
-306 334 0
-485 0
-342 -348 0
-48 0
-279 -305 0
-269 181 0
-334 259 0
-30 -395 0
-80 167 0
-435 0
-382 0
-472 439 0
-206 -164 0
-88 0
-440 -484 0
331 -250 0
-36 0
-5 -59 0
-409 0
-480 -131 0
-342 499 0
-268 0
-91 -145 0
-470 -82 0
193 -298 0
-264 337 0
-328 -473 0
-70 -485 0
-141 0
-97 0
-86 0
-212 0
-272 -287 0
99 -283 0
294 -337 0
-112 387 0
308 -425 0
-181 0
-427 0
-448 -114 0
-357 0
-448 438 0
320 -363 0
-314 0
-144 338 0
-428 268 0
-36 261 0
-95 498 0
-42 0
287 -449 0
-325 -314 0
-318 0
-190 0
-224 0
-171 0
251 -105 0
-432 -494 0
-263 0
91 -81 0
-62 0
-239 -20 0
-274 -225 0
407 -169 0
273 -449 0
-383 498 0
-180 0
-67 0
-21 0
-499 0
-445 0
481 -315 0
-309 -476 0
-11 0
-334 286 0
-117 -36 0
-21 492 0
-38 -309 0
-404 0
-413 372 0
-29 -35 0
-132 0
-307 0
-392 0
-38 0
-73 487 0
-354 0
-196 0
-291 0
-33 0
-172 445 0
-308 0
-376 310 0
-478 0
-94 0
-128 429 0
-253 0
-254 189 0
-261 467 0
-252 0
-156 76 0
-439 0
464 -73 0
-411 0
-368 150 0
-374 -126 0
2 -59 0
-184 -135 0
-76 -33 0
-79 0
-492 0
-103 0
-403 -99 0
-150 0
-144 335 0
-372 0
-407 0
-72 0
-455 0
480 -290 0
-494 -6 0
-32 -122 0
-117 101 0
-135 -221 0
-232 0
-382 -252 0
-195 0
-217 0
-364 0
-463 91 0
-215 -302 0
-122 -113 0
208 -250 0
-395 -305 0
323 -242 0
-35 462 0
-168 460 0
434 -291 0
-488 0
-89 0
-460 0
-269 155 0
256 -326 0
-252 -177 0
-416 400 0
-352 0
225 -430 0
-270 -155 0
-58 0
-318 383 0
-116 -41 0
307 -261 0
-284 175 0
-8 416 0
-444 0
-413 0
-335 0
272 -415 0
-243 319 0
-451 397 0
-8 362 0
320 -10 0
190 -345 0
-311 132 0
-99 189 0
281 -425 0
-388 0
-268 0
-353 0
203 -42 0
-320 -474 0
-205 0
-284 0
-432 364 0
-182 0
-362 0
-424 0
-255 115 0
-171 0
-24 210 0
-205 -420 0
-183 0
-391 0
-381 -9 0
-487 0
-232 -307 0
-414 165 0
252 -233 0
-476 125 0
298 -273 0
-76 357 0
433 -348 0
-500 0
177 -353 0
-403 0
-302 250 0
-374 437 0
-63 -490 0
444 -449 0
-165 -219 0
-167 -277 0
244 -499 0
-149 63 0
-191 -300 0
-283 0
-175 75 0
-301 0
154 -153 0
-8 271 0
-134 0
90 -365 0
-227 0
-440 79 0
-442 0
-198 0
-93 -217 0
-348 0
-78 250 0
-488 0
-34 0
-233 0
-263 -282 0
-33 0
-432 -168 0
-294 386 0
-334 260 0
-486 271 0
-307 0
450 -142 0
354 -73 0
-361 -321 0
-432 232 0
-355 326 0
-351 0
222 -410 0
212 -137 0
-157 183 0
-442 0
-148 348 0
-474 -338 0
-253 -292 0
-343 495 0
-183 0
-28 0
217 -473 0
-10 0
-48 -397 0
-162 -169 0
-495 159 0
288 -446 0
-101 381 0
405 -201 0
-286 270 0
289 -177 0
-428 -17 0
-198 -461 0
-448 0
438 -401 0
-4 -459 0
-102 0
-100 335 0
-248 0
-494 0
-167 489 0
-64 -71 0
-97 0
-194 -458 0
-48 0
97 -221 0
-464 241 0
-366 -372 0
-74 0
160 -135 0
273 -36 0
320 -177 0
352 -349 0
-492 -257 0
-338 -313 0
-300 0
393 -133 0
-151 36 0
-331 0
372 -307 0
-164 398 0
-185 0
-401 -233 0
360 -307 0
-236 0
-294 159 0
-116 0
-251 0
-23 91 0
-458 -145 0
348 -17 0
-269 -276 0
292 -194 0
89 -138 0
-100 -396 0
-267 -115 0
-307 0
-193 0
-395 0
-372 221 0
-480 0
189 -322 0
-269 -481 0
-326 0
-64 315 0
-352 282 0
148 -65 0
-165 -297 0
-44 0
-34 0
-282 0
-357 453 0
-171 -50 0
457 -371 0
-239 0
397 -273 0
396 -162 0
-363 0
-35 0
-204 0
-199 0
-287 268 0
-472 0
-374 0
73 -217 0
332 -51 0
330 -315 0
-85 -250 0
-222 0
-353 0
280 -179 0
416 -469 0
-443 158 0
404 -500 0
-42 0
-137 0
-426 270 0
118 -426 0
-391 0
-477 0
-1 0
-27 239 0
-119 0
-358 0
-487 0
-184 0
-187 0
240 -431 0
-172 0
-100 -196 0
-150 0
-360 -457 0
-79 58 0
-31 -55 0
-258 0
-113 0
-202 0
-408 130 0
-390 301 0
-200 -359 0
-442 0
-411 0
-247 397 0
-346 471 0
-408 -209 0
200 -1 0
216 -175 0
-333 -425 0
448 -426 0
-405 0
-3 0
-79 0
-53 0
-91 0
-39 9 0
64 -294 0
-124 -460 0
-445 0
-458 407 0
-448 -375 0
-37 -17 0
-232 0
-278 -457 0
-184 0
-448 0
-144 439 0
-443 -18 0
258 -337 0
435 -149 0
-255 0
217 -403 0
-316 0
-444 0
-420 0
-278 -332 0
345 -409 0
-40 306 0
-447 0
-166 -68 0
-82 -425 0
134 -418 0
-256 135 0
-31 -18 0
-447 -33 0
247 -17 0
-119 -78 0
-181 0
-112 -385 0
-424 -250 0
-279 0
-355 414 0
-206 10 0
-243 14 0
-455 123 0
266 -35 0
-403 350 0
-262 -28 0
2 -298 0
-368 62 0
136 -129 0
456 -3 0
-272 34 0
-370 0
-120 -147 0
-364 -452 0
174 -193 0
-341 0
121 -249 0
-135 494 0
-175 -54 0
-338 79 0
-276 374 0
-475 -369 0
-105 0
243 -45 0
116 -163 0
208 -88 0
328 -206 0
-223 0
-105 0
140 -137 0
-29 0
-70 0
-87 460 0
-28 383 0
-206 395 0
99 -185 0
-304 -483 0
-182 0
-281 0
-65 0
-8 0
-23 135 0
-3 0
197 -50 0
-465 0
129 -338 0
241 -345 0
-116 0
-280 0
-485 -420 0
-119 0
-222 -229 0
-351 0
-447 0
-276 247 0
-327 -243 0
80 -172 0
144 -374 0
297 -219 0
-309 247 0
416 -334 0
-352 -372 0
-168 346 0
-364 398 0
-52 0
-40 329 0
354 -59 0
-178 0
-27 397 0
-69 311 0
-391 -259 0
26 -61 0
-393 0
345 -327 0
-153 0
97 -290 0
-5 -325 0
-464 0
-206 362 0
-55 270 0
-221 60 0
-55 0
-473 0
-390 367 0
-270 0
-215 0
-168 0
-190 0
-221 -428 0
-291 -82 0
-344 0
444 -74 0
170 -114 0
402 -138 0
-95 342 0
-229 0
91 -29 0
-7 0
-1 0
164 -401 0
-481 0
128 -64 0
-175 265 0
191 -489 0
-439 0
-285 500 0
-221 0
-286 444 0
-349 116 0
-239 131 0
-327 61 0
84 -204 0
-269 493 0
-165 -89 0
173 -201 0
-72 192 0
304 -80 0
-316 0
-309 -491 0
-59 0
-206 374 0
-485 -212 0
-259 367 0
-218 -394 0
-169 0
-38 378 0
-293 -116 0
-447 -303 0
-122 0
90 -3 0
-39 -415 0
-437 0
201 -314 0
416 -131 0
-344 -261 0
-474 0
-269 0
-299 373 0
-76 0
354 -452 0
114 -250 0
-279 460 0
-307 0
-301 0
-131 0
-448 0
-446 -358 0
-440 56 0
-204 -466 0
-27 285 0
-473 0
-318 -349 0
-488 -486 0
-130 0
-22 -196 0
-366 -387 0
-355 454 0
-48 0
14 -337 0
-469 -12 0
-337 0
-13 0
-61 0
-254 0
-271 -315 0
-483 0
-491 494 0
440 -375 0
-429 0
-158 123 0
-193 0
408 -209 0
-262 260 0
202 -410 0
81 -355 0
-376 329 0
-6 0
-239 259 0
-8 0
-92 -257 0
-351 187 0
-246 0
-158 411 0
-343 0
351 -361 0
-482 0
-488 0
-216 -371 0
321 -287 0
-37 -25 0
-449 0
409 -84 0
-4 -242 0
-162 0
-175 -404 0
-236 0
154 -147 0
-498 -193 0
330 -253 0
384 -182 0
-178 0
-483 165 0
-198 486 0
-100 319 0
-329 0
-317 261 0
-212 0
442 -230 0
-158 0
-424 407 0
387 -139 0
-192 -26 0
-102 0
-393 0
448 -286 0
-432 0
390 -305 0
-112 326 0
-149 310 0
-254 -108 0
474 -338 0
428 -42 0
-31 332 0
-291 0
-6 0
-247 0
216 -337 0
-155 0
59 -473 0
-40 -359 0
-485 139 0
-263 0
-430 230 0
-99 181 0
-213 0
304 -452 0
130 -123 0
-133 38 0
-8 389 0
-196 -425 0
-445 -180 0
-400 -457 0
-434 198 0
-12 0
-264 179 0
-53 139 0
-311 0
-137 0
-168 -60 0
170 -22 0
307 -148 0
-35 0
-24 -368 0
-413 437 0
-191 0
-264 0
-245 63 0
-182 -265 0
-235 0
-327 0
-175 0
57 -177 0
16 -465 0
-399 0
-80 0
-231 5 0
-157 -13 0
-191 0
-461 443 0
-344 2 0
-124 0
-166 307 0
-255 173 0
-468 0
-444 -450 0
-424 -228 0
-270 -34 0
-150 22 0
-161 0
-164 -219 0
64 -481 0
68 -306 0
-216 -41 0
-110 -482 0
488 -323 0
-205 0
-464 0
129 -277 0
-294 134 0
-254 108 0
-424 0
-332 -235 0
378 -75 0
441 -324 0
-128 0
-469 252 0
-95 -29 0
-323 0
-383 -52 0
-483 0
-39 122 0
250 -331 0
-87 0
-338 0
-435 247 0
-23 -322 0
-215 258 0
-230 -155 0
-62 -267 0
-232 0
-327 -43 0
-8 -268 0
-190 0
-58 0
304 -180 0
-296 0
-154 294 0
-382 -11 0
-421 -340 0
-125 286 0
-326 0
-331 0
201 -348 0
-379 -490 0
-439 0
102 -25 0
368 -48 0
-194 0
220 -234 0
291 -276 0
-187 0
-112 0
-251 182 0
-365 37 0
-155 0
-74 94 0
-265 0
-371 71 0
-96 -10 0
338 -97 0
-432 297 0
-65 0
26 -433 0
345 -425 0
-456 -49 0
-186 454 0
-295 190 0
-394 0
-500 390 0
-32 371 0
-251 0
-8 -2 0
-413 0
-269 -196 0
-222 -107 0
-279 115 0
57 -409 0
-390 260 0
-315 0
266 -4 0
-436 285 0
-106 0
-71 -14 0
-254 0
163 -211 0
448 -387 0
188 -468 0
414 -313 0
-335 -274 0
-59 -379 0
207 -337 0
-250 0
25 -203 0
-323 0
385 -245 0
-237 0
432 -196 0
-459 0
-247 -324 0
-180 0
377 -134 0
-430 343 0
-30 0
-181 260 0
-336 481 0
-395 0
-348 -1 0
-299 -73 0
227 -419 0
-414 -234 0
-206 -309 0
-290 0
-54 0
-144 181 0
341 -153 0
-450 0
-106 0
-294 279 0
-384 -287 0
-233 0
-323 0
-487 0
-206 0
-408 0
-250 -449 0
-319 395 0
-318 -243 0
-260 244 0
-211 0
140 -163 0
-44 0
-406 -450 0
-217 0
-494 0
-414 -418 0
-197 -67 0
-166 0
427 -393 0
203 -91 0
-101 0
-44 0
-120 22 0
-293 0
-183 -123 0
152 -157 0
314 -59 0
-10 -393 0
-460 0
-256 -167 0
116 -259 0
390 -250 0
-308 0
-136 0
-286 0
-112 -31 0
-500 0
-356 0
-241 -145 0
-54 -1 0
38 -217 0
-451 0
-248 143 0
-301 0
-326 -226 0
9 -365 0
-344 137 0
-29 -434 0
-318 0
-394 -490 0
-404 0
27 -362 0
184 -164 0
-55 -37 0
-487 0
-200 -181 0
-277 -492 0
157 -377 0
425 -58 0
-272 0
-223 -113 0
-267 0
-12 0
-294 -284 0
-478 -115 0
216 -377 0
-484 0
-477 0
-173 -441 0
-488 -5 0
-183 474 0
-452 0
-457 0
-73 0
-151 315 0
114 -387 0
324 -402 0
-212 0
-487 -403 0
-412 0
-395 7 0
-189 -225 0
-360 369 0
-466 22 0
-358 -132 0
-11 0
65 -387 0
-358 90 0
-426 0
-475 0
-62 0
-40 0
-198 -84 0
-230 -153 0
146 -177 0
-198 0
-190 0
1 -202 0
384 -475 0
-69 -28 0
400 -115 0
-126 0
-120 0
-339 0
-269 -459 0
-191 198 0
-242 0
-338 -273 0
-383 358 0
-239 0
-207 227 0
-411 0
-312 -87 0
392 -381 0
444 -323 0
-271 -211 0
-188 -18 0
-140 0
-380 0
-206 34 0
-200 0
-398 0
-243 -50 0
-419 0
-154 0
-91 191 0
-383 138 0
-459 0
-207 410 0
-448 325 0
-480 0
261 -345 0
-168 -206 0
-451 0
-414 -388 0
92 -250 0
-143 -125 0
-24 0
-151 381 0
-458 0
-273 -337 0
-182 245 0
-94 492 0
152 -159 0
-312 373 0
137 -463 0
-45 0
-141 0
-187 -298 0
-156 333 0
-123 -17 0
489 -37 0
-383 151 0
-389 165 0
-328 0
-471 -236 0
281 -113 0
-105 0
-419 0
-310 0
-223 -185 0
-474 0
208 -307 0
275 -43 0
-433 0
423 -289 0
-49 0
-412 358 0
-475 0
-351 419 0
289 -230 0
-245 -333 0
-311 0
-449 0
-191 0
-76 -161 0
-279 -81 0
-244 31 0
-359 0
-306 0
-248 -292 0
198 -489 0
186 -105 0
-348 430 0
-392 -369 0
-295 -122 0
371 -460 0
-134 0
-65 0
-499 398 0
-374 -369 0
-488 0
-215 -98 0
-71 132 0
-78 0
-427 0
-282 231 0
-247 277 0
-348 0
-416 -151 0
-496 -96 0
317 -115 0
-356 437 0
-330 -226 0
-327 267 0
-20 109 0
-208 -222 0
38 -385 0
-153 0
456 -224 0
-88 0
376 -415 0
-230 -180 0
-80 23 0
-7 0
-478 0
-333 0
-42 0
-316 0
-438 0
-419 311 0
-330 0
-83 0
120 -322 0
-73 0
-426 7 0
424 -8 0
-276 0
-486 0
-30 -25 0
-127 205 0
492 -67 0
372 -403 0
-24 47 0
163 -202 0
-277 438 0
-491 463 0
-204 0
-125 -194 0
-272 -394 0
-9 0
352 -494 0
-216 327 0
-195 0
442 -212 0
-2 0
-470 0
-261 0
-273 0
291 -362 0
-324 204 0
-360 0
467 -410 0
65 -2 0
372 -90 0
-327 -293 0
-269 211 0
410 -228 0
-117 0
-265 0
-47 182 0
-68 445 0
-465 0
-466 0
-184 358 0
-431 -103 0
-386 0
-211 0
-343 -458 0
275 -305 0
-5 0
-365 -306 0
-252 -218 0
-96 -498 0
-27 455 0
-190 0
498 -57 0
-349 204 0
-188 0
-167 0
-88 412 0
-283 -419 0
-260 0
-447 228 0
-88 0
-3 0
-254 -12 0
-437 267 0
-348 0
-229 213 0
-189 0
-454 -465 0
-396 0
-169 0
-336 394 0
-336 141 0
-126 0
-131 0
-270 468 0
-496 0
-285 20 0
-216 0
-135 0
-159 420 0
-6 0
-36 -3 0
-453 -315 0
-342 -114 0
-486 0
-30 0
-428 0
-324 407 0
296 -248 0
-191 -140 0
-47 -385 0
-18 0
-20 278 0
100 -132 0
-247 117 0
-170 -313 0
305 -269 0
-355 0
114 -190 0
-236 -18 0
-252 0
-175 -399 0
-48 -441 0
344 -114 0
-416 160 0
-19 0
-194 0
-189 95 0
-68 0
-382 0
-221 -5 0
-491 0
90 -406 0
180 -137 0
-200 0
-220 191 0
-23 418 0
-5 0
-119 292 0
-16 53 0
-112 82 0
-362 -441 0
-210 207 0
-256 0
-287 381 0
280 -184 0
-480 269 0
-408 182 0
-371 0
393 -1 0
-235 -273 0
-327 0
-120 0
340 -219 0
-28 0
-181 0
-68 0
170 -364 0
-315 231 0
-116 332 0
-126 0
371 -365 0
-55 0
-208 -340 0
-166 -157 0
392 -342 0
-253 -165 0
27 -365 0
-273 0
-91 0
-314 0
-272 0
-8 -337 0
-45 -105 0
-439 53 0
-375 0
-406 21 0
-342 -450 0
-315 -242 0
-271 277 0
-108 -282 0
341 -379 0
-200 0
-214 117 0
-48 0
-362 0
-206 -282 0
-406 0
195 -193 0
-48 -305 0
-318 -348 0
-114 0
-236 0
-67 0
-241 0
-342 211 0
202 -342 0
-307 0
-61 30 0
-93 -98 0
-29 -412 0
-280 -358 0
430 -442 0
-66 87 0
-175 0
-455 -233 0
227 -101 0
393 -102 0
-418 63 0
42 -289 0
-113 0
-70 -462 0
-294 0
-15 -91 0
-500 -346 0
-131 238 0
60 -178 0
-101 -380 0
-256 269 0
-441 0
361 -434 0
-78 -282 0
-78 0
312 -71 0
-199 405 0
-357 0
-440 150 0
-195 0
289 -339 0
-228 0
-496 0
-75 0
-308 0
-128 433 0
-419 0
-401 0
-451 0
-5 0
-457 0
313 -471 0
72 -385 0
-191 -311 0
-96 -279 0
-467 0
-325 0
-268 0
128 -296 0
465 -293 0
-128 -171 0
-372 317 0
-275 -137 0
-428 0
-411 0
-246 -345 0
-399 -269 0
19 -225 0
-279 -101 0
-292 477 0
-335 87 0
104 -101 0
-487 -54 0
-138 -201 0
88 -271 0
-356 0
-190 0
-498 95 0
236 -473 0
-131 0
-453 125 0
-300 0
-15 171 0
-435 223 0
421 -123 0
-128 -391 0
57 -238 0
-210 -289 0
-36 -458 0
-303 246 0
-82 0
376 -80 0
-320 -427 0
-363 310 0
-36 0
-169 0
-349 0
-300 0
-292 -460 0
-252 0
-265 0
398 -1 0
-437 0
-470 332 0
-151 -35 0
-176 206 0
-176 178 0
289 -153 0
-366 0
-147 0
-359 91 0
-256 -478 0
436 -489 0
-295 459 0
-360 106 0
-87 0
49 -196 0
-359 0
-38 0
-261 0
-480 0
-122 0
-136 0
-406 181 0
-318 -245 0
-135 0
268 -483 0
-93 0
-88 295 0
73 -124 0
-198 0
320 -307 0
-279 0
-377 0
-184 1 0
-312 424 0
345 -309 0
-432 0
-323 0
-42 -25 0
-116 0
392 -7 0
-250 0
-424 0
-79 115 0
-321 0
-476 0
368 -218 0
-85 -115 0
-387 447 0
-229 -101 0
-213 0
314 -419 0
-387 0
-386 -209 0
-206 -373 0
-353 0
-309 0
-163 0
341 -474 0
-32 267 0
-71 -486 0
-446 -115 0
-460 -73 0
465 -78 0
-342 0
-286 0
-382 -99 0
338 -253 0
332 -395 0
-163 0
256 -320 0
-191 -441 0
-446 0
-54 -281 0
-446 322 0
-294 0
-161 0
88 -499 0
-179 -75 0
-31 0
-37 -218 0
-113 -161 0
-351 0
-486 0
-60 254 0
-92 0
-294 228 0
-170 -210 0
-263 -90 0
-271 -214 0
-295 0
-338 0
32 -428 0
-456 -226 0
-56 -193 0
-196 0
-475 0
-123 0
-288 268 0
-383 58 0
-302 383 0
-242 0
465 -106 0
-378 0
-64 0
-96 0
-456 321 0
-101 0
126 -242 0
-191 0
-197 -449 0
-5 327 0
187 -171 0
-440 -230 0
-88 50 0
-5 0
-358 0
-46 0
-456 -80 0
161 -397 0
-32 178 0
-383 298 0
-200 -136 0
-460 357 0
-134 0
-309 44 0
-79 270 0
-255 0
-84 228 0
-160 0
-293 0
-405 0
-375 0
412 -91 0
-13 0
-246 0
-302 0
-10 191 0
-162 0
88 -268 0
-59 0
-233 0
-192 0
-294 -73 0
474 -499 0
323 -365 0
-468 0
366 -225 0
-366 -493 0
-364 0
-181 310 0
-481 0
-390 0
-155 0
-88 0
-478 463 0
-72 0
-368 0
-113 0
475 -106 0
282 -325 0
400 -327 0
-174 0
-214 0
-109 -413 0
-200 -190 0
-258 494 0
-315 -42 0
-32 -432 0
-495 -489 0
-95 0
-248 0
-354 0
-316 30 0
-77 -180 0
-191 -262 0
-174 0
-365 0
-167 0
-309 0
-34 63 0
-204 -18 0
-98 31 0
