p cnf 1261 5963
248 0
440 0
334 0
66 0
131 406 0
240 493 0
48 0
391 0
119 0
180 0
453 0
160 366 0
329 0
138 0
84 0
464 380 0
30 0
471 0
276 391 0
334 102 0
28 110 0
234 0
337 0
38 0
18 171 0
122 319 0
392 395 0
260 0
321 0
491 0
33 111 0
315 0
142 0
443 0
473 167 0
277 0
312 244 0
68 0
108 0
195 0
362 0
386 76 0
387 4 0
424 114 0
35 95 0
50 492 0
236 308 0
371 0
447 0
297 210 0
261 0
187 0
86 0
435 412 0
428 0
137 0
291 0
500 0
37 0
245 0
380 0
107 94 0
347 0
4 455 0
454 0
24 9 0
259 0
386 0
16 0
31 0
233 0
495 0
368 0
161 309 0
429 326 0
231 0
28 0
88 19 0
83 0
65 0
268 0
330 228 0
185 0
34 0
257 0
281 119 0
132 0
162 0
400 132 0
78 0
471 0
445 350 0
453 0
442 427 0
431 0
234 0
37 0
158 0
115 0
349 0
170 0
288 383 0
173 0
16 451 0
448 154 0
70 0
52 93 0
264 0
367 0
408 0
425 0
449 0
4 0
58 447 0
368 0
48 0
167 0
379 0
309 0
326 0
500 0
332 0
174 0
475 85 0
42 0
444 68 0
213 0
36 142 0
185 164 0
366 0
229 0
440 211 0
407 0
162 0
186 0
13 0
328 0
384 0
16 0
75 0
445 0
67 93 0
212 0
303 0
284 0
179 0
248 276 0
168 384 0
84 0
196 485 0
245 0
112 486 0
432 389 0
341 0
338 107 0
66 0
16 334 0
177 0
330 243 0
110 0
121 0
474 468 0
339 13 0
86 0
217 0
218 38 0
482 0
295 0
418 397 0
50 0
228 0
329 452 0
281 62 0
193 0
338 0
248 0
491 4 0
386 0
342 0
1 84 0
134 167 0
73 132 0
456 0
210 0
360 6 0
486 175 0
400 0
226 68 0
379 75 0
319 0
192 47 0
231 0
101 0
135 0
156 0
294 0
149 0
353 319 0
436 0
353 0
377 479 0
276 0
137 0
233 292 0
248 0
374 0
416 0
389 413 0
71 0
190 447 0
375 0
129 0
291 0
434 0
250 0
305 366 0
105 0
205 0
272 402 0
329 0
317 0
448 178 0
372 0
321 0
220 109 0
59 0
154 230 0
184 15 0
131 0
150 0
380 213 0
416 0
147 0
436 0
80 210 0
176 0
432 0
273 221 0
83 284 0
209 255 0
401 0
1 4 0
319 0
414 0
311 0
327 0
120 0
419 0
30 0
16 397 0
271 0
322 299 0
343 0
362 0
164 0
292 0
27 0
123 0
15 0
133 0
22 0
103 0
391 0
392 8 0
437 0
113 0
102 0
160 0
144 80 0
196 0
197 0
211 446 0
421 0
231 0
28 0
198 0
214 0
474 0
116 343 0
241 253 0
231 0
85 0
159 0
221 0
40 0
17 495 0
37 142 0
415 0
331 350 0
176 0
327 0
221 127 0
299 0
496 378 0
425 0
318 0
243 0
26 0
122 0
433 0
168 0
204 0
378 34 0
26 0
298 0
400 0
453 0
184 0
349 37 0
125 0
166 0
132 262 0
65 364 0
380 0
42 402 0
453 0
92 87 0
54 0
100 0
358 0
399 0
177 0
259 0
433 0
280 0
421 0
9 0
449 0
93 0
429 406 0
307 0
141 103 0
379 268 0
451 405 0
67 214 0
324 302 0
104 398 0
181 0
440 0
214 0
407 0
482 0
407 0
475 0
444 303 0
298 0
489 0
1 0
148 69 0
188 0
114 0
275 332 0
233 239 0
98 0
403 0
223 0
469 0
458 0
266 342 0
456 0
252 191 0
73 291 0
500 0
457 0
77 0
412 0
142 214 0
245 334 0
233 0
114 299 0
244 205 0
139 0
396 0
54 0
112 0
280 241 0
284 0
33 358 0
319 0
358 0
366 0
1 0
482 0
255 0
491 0
243 174 0
453 0
446 0
222 0
245 0
384 27 0
224 0
9 0
219 340 0
452 0
38 0
470 0
25 210 0
319 0
254 0
434 0
44 0
436 0
16 0
259 0
201 0
167 0
121 75 0
362 0
66 0
489 258 0
427 0
117 0
376 252 0
348 0
453 0
390 0
290 0
452 0
439 0
339 148 0
364 0
93 0
272 0
487 0
6 0
194 0
379 0
430 0
478 0
492 102 0
415 0
408 0
400 154 0
185 499 0
106 0
326 0
340 103 0
442 0
417 479 0
35 476 0
413 0
401 470 0
152 310 0
171 0
78 0
257 0
241 467 0
360 0
197 0
202 0
353 263 0
58 484 0
492 0
162 187 0
293 0
180 189 0
145 0
136 280 0
473 0
363 147 0
2 0
313 0
124 0
75 0
111 0
150 0
164 469 0
247 0
490 270 0
210 0
132 0
193 0
160 0
298 0
100 157 0
67 0
269 0
195 403 0
192 0
156 0
369 0
210 0
112 0
147 0
463 15 0
163 0
369 0
21 0
184 0
319 0
493 309 0
374 0
305 330 0
79 0
98 0
132 0
359 0
187 0
76 0
381 0
304 0
50 0
118 0
454 239 0
102 231 0
194 234 0
460 0
441 226 0
312 0
93 0
305 132 0
164 0
105 0
119 0
105 0
399 0
135 0
152 116 0
156 0
307 175 0
85 0
321 0
10 0
165 0
283 54 0
389 166 0
330 0
369 0
321 0
290 0
96 282 0
404 340 0
79 0
477 0
275 0
82 151 0
395 251 0
340 0
111 0
381 0
361 0
455 295 0
285 0
464 16 0
177 310 0
436 0
368 0
424 0
26 359 0
442 0
436 207 0
488 0
354 0
287 0
165 0
77 0
5 0
250 0
324 0
490 0
247 0
456 371 0
433 314 0
416 0
100 0
123 0
257 0
101 0
371 0
265 91 0
342 0
40 230 0
59 463 0
67 244 0
436 0
263 0
35 94 0
185 468 0
82 250 0
1 283 0
49 0
400 69 0
326 0
202 0
122 373 0
33 0
386 0
478 0
242 70 0
467 0
333 358 0
164 0
197 0
294 143 0
97 294 0
43 411 0
494 0
340 0
403 285 0
461 0
81 41 0
200 0
491 0
228 253 0
360 31 0
318 0
484 0
4 0
115 0
325 0
468 414 0
231 0
255 0
415 0
290 0
290 53 0
457 263 0
304 105 0
260 0
224 0
120 407 0
241 201 0
159 0
264 0
152 190 0
487 0
73 318 0
430 0
16 0
109 102 0
234 95 0
220 0
224 0
130 0
73 319 0
208 0
152 0
197 78 0
124 0
238 0
99 0
203 0
133 0
331 0
226 90 0
109 0
230 0
53 415 0
450 119 0
344 364 0
330 0
342 0
251 0
232 219 0
116 157 0
284 0
376 325 0
402 0
296 454 0
363 20 0
202 0
467 109 0
328 116 0
401 380 0
141 0
8 0
326 0
369 194 0
16 440 0
341 0
452 420 0
482 0
222 0
242 0
402 389 0
376 153 0
400 0
66 0
336 365 0
77 0
151 0
305 420 0
315 0
490 35 0
306 5 0
285 261 0
301 0
16 0
182 0
293 0
252 0
386 276 0
67 422 0
354 0
104 0
464 382 0
323 54 0
277 0
105 0
273 0
346 126 0
63 0
224 0
365 0
266 0
373 0
291 326 0
39 0
357 0
247 0
36 0
377 279 0
384 0
65 0
185 18 0
112 205 0
414 0
62 0
296 0
121 0
219 0
183 0
234 396 0
315 0
472 0
428 0
479 0
423 0
450 322 0
174 95 0
448 0
300 0
234 0
159 0
107 0
266 0
112 459 0
363 0
464 141 0
157 0
170 196 0
125 142 0
135 0
89 0
403 0
138 0
310 0
259 76 0
48 27 0
30 262 0
357 206 0
464 0
22 0
410 0
463 0
475 292 0
369 366 0
372 0
436 212 0
68 0
145 0
177 0
336 0
47 0
413 0
161 0
470 167 0
127 0
314 493 0
435 0
302 110 0
167 0
176 219 0
499 174 0
144 199 0
207 0
213 0
40 483 0
347 0
152 0
435 0
99 0
339 452 0
131 0
322 405 0
437 0
64 0
93 326 0
144 183 0
432 494 0
148 0
131 0
328 168 0
312 475 0
135 0
328 27 0
222 0
136 221 0
6 0
127 0
42 0
288 0
205 303 0
75 415 0
432 369 0
341 127 0
446 23 0
67 0
310 0
385 0
351 0
446 0
302 0
497 127 0
230 0
110 455 0
458 0
323 0
48 135 0
484 0
387 39 0
387 0
235 0
247 0
94 0
2 0
412 0
5 0
317 0
189 0
97 0
467 0
326 55 0
139 0
138 0
453 0
35 0
266 0
358 0
20 0
22 367 0
40 0
215 0
114 251 0
293 0
482 403 0
261 247 0
18 60 0
474 74 0
44 0
485 0
452 0
233 0
138 250 0
50 0
201 0
162 0
480 481 0
265 290 0
152 0
134 0
35 0
365 0
421 0
61 0
456 0
123 0
177 0
56 0
491 0
74 90 0
258 461 0
493 0
62 0
352 212 0
497 0
293 0
342 0
282 310 0
305 458 0
314 0
330 228 0
303 0
432 0
267 0
309 439 0
141 0
381 0
137 0
253 0
447 0
233 0
97 0
90 0
8 108 0
177 0
273 338 0
393 0
59 388 0
235 325 0
83 0
317 0
154 191 0
3 295 0
427 0
477 0
285 0
119 151 0
261 0
59 0
106 348 0
348 0
481 123 0
175 79 0
417 378 0
155 0
414 0
28 29 0
209 0
413 0
164 55 0
367 0
312 156 0
500 0
304 4 0
373 0
200 174 0
28 0
36 0
304 476 0
409 0
123 53 0
386 0
85 118 0
232 90 0
13 0
441 0
429 0
10 0
239 0
82 123 0
153 39 0
385 0
146 198 0
166 175 0
296 316 0
161 0
339 0
57 66 0
221 0
65 0
84 0
439 0
496 135 0
35 237 0
279 0
369 111 0
288 0
244 0
378 0
416 0
12 0
172 0
469 6 0
330 0
82 375 0
444 0
383 0
129 0
381 0
157 0
374 167 0
89 0
334 0
137 0
361 0
391 0
28 0
490 0
13 0
337 137 0
128 102 0
56 343 0
115 0
204 175 0
296 211 0
441 265 0
500 0
230 0
408 0
227 204 0
350 0
345 274 0
8 497 0
418 0
448 0
370 0
317 0
85 0
458 316 0
262 0
24 0
429 0
154 389 0
457 39 0
306 0
7 0
187 0
126 231 0
295 0
25 0
115 0
18 0
73 0
128 0
192 0
311 0
463 0
96 0
335 0
234 295 0
434 253 0
340 0
177 107 0
172 0
288 238 0
148 0
28 0
38 0
333 0
124 0
86 0
274 0
216 0
157 0
478 0
360 260 0
369 199 0
81 204 0
114 205 0
159 0
372 0
53 0
102 0
232 0
290 0
398 0
350 0
356 300 0
358 0
281 129 0
97 0
497 0
375 0
57 0
210 213 0
407 0
490 0
171 0
400 76 0
171 0
55 0
137 0
435 387 0
3 167 0
498 61 0
188 0
449 0
12 0
121 0
10 212 0
56 459 0
475 0
356 0
105 466 0
61 327 0
482 372 0
101 0
352 0
188 60 0
110 0
65 0
452 0
210 0
138 325 0
410 0
115 76 0
472 140 0
344 0
106 0
232 398 0
56 89 0
129 461 0
437 0
98 0
129 0
322 123 0
125 62 0
194 447 0
324 0
220 0
110 0
313 198 0
369 0
128 259 0
288 398 0
282 0
24 338 0
484 0
166 0
265 174 0
489 326 0
498 220 0
459 29 0
371 223 0
218 167 0
259 0
251 0
18 0
307 0
329 0
312 0
449 0
497 0
210 0
410 428 0
57 0
138 222 0
70 0
109 0
56 261 0
141 0
470 0
349 485 0
56 0
209 221 0
216 225 0
353 0
312 450 0
17 0
57 0
265 0
374 7 0
107 388 0
47 0
410 212 0
387 222 0
219 149 0
133 0
444 279 0
111 0
392 430 0
43 0
399 0
61 0
67 420 0
328 330 0
74 0
99 0
120 177 0
64 0
358 0
323 0
42 71 0
473 0
419 493 0
487 0
315 0
344 0
364 0
307 0
69 0
481 0
428 0
363 470 0
193 0
17 0
254 0
122 286 0
467 413 0
106 0
4 149 0
332 0
132 0
97 0
236 0
422 0
441 0
344 0
349 71 0
384 0
268 0
497 164 0
262 0
398 0
366 0
194 0
442 109 0
291 0
201 213 0
229 0
80 300 0
210 0
462 0
332 0
19 0
86 255 0
484 254 0
423 0
104 287 0
325 0
457 404 0
280 0
427 0
100 159 0
82 115 0
124 52 0
421 0
146 0
306 0
52 0
482 45 0
167 0
481 327 0
479 0
292 127 0
436 0
10 0
362 0
307 431 0
484 0
145 0
483 79 0
329 0
440 0
217 419 0
442 0
288 0
368 0
9 0
81 50 0
82 372 0
441 0
328 0
382 0
150 0
348 166 0
133 0
369 362 0
185 0
110 0
454 0
412 365 0
256 0
475 0
62 231 0
408 0
230 0
239 0
248 0
313 339 0
465 330 0
301 0
356 0
131 0
148 0
64 401 0
355 476 0
56 108 0
362 0
24 348 0
349 0
113 0
3 173 0
414 0
1 0
336 0
119 0
140 0
330 285 0
292 429 0
11 60 0
377 0
126 135 0
162 0
2 0
365 126 0
373 343 0
306 0
115 0
325 0
221 253 0
442 491 0
58 0
80 0
392 231 0
436 0
446 0
307 427 0
467 78 0
409 127 0
247 0
329 396 0
325 238 0
218 0
387 0
106 0
416 0
275 52 0
98 350 0
321 0
63 0
176 266 0
352 0
257 0
104 0
353 0
163 0
488 0
127 0
74 0
383 0
466 283 0
195 0
218 0
418 0
28 463 0
202 0
90 149 0
377 0
248 0
29 0
96 0
409 0
217 201 0
274 119 0
18 0
424 0
136 206 0
48 5 0
98 298 0
407 0
232 0
337 0
490 0
430 0
364 0
186 78 0
106 294 0
220 0
8 0
416 494 0
163 0
209 252 0
3 0
128 32 0
80 148 0
448 0
81 185 0
290 0
229 463 0
129 226 0
353 0
100 396 0
339 0
173 0
329 348 0
462 0
50 0
368 0
38 0
415 0
490 0
329 404 0
234 0
88 0
493 0
206 0
389 0
300 141 0
160 79 0
160 0
98 343 0
111 0
422 0
482 0
330 0
104 290 0
395 0
41 446 0
254 0
213 0
264 115 0
448 0
412 365 0
377 0
363 0
181 133 0
336 0
258 52 0
70 0
156 0
120 0
320 0
416 77 0
397 0
24 0
110 0
180 0
250 0
296 0
341 303 0
407 0
217 0
306 114 0
1 0
203 0
227 0
35 0
419 172 0
33 0
460 0
170 53 0
386 222 0
63 0
116 0
301 405 0
313 140 0
340 0
3 149 0
49 455 0
355 0
110 0
450 0
472 30 0
70 0
411 0
29 0
267 0
301 0
169 0
292 126 0
202 367 0
434 0
320 0
347 0
184 0
200 262 0
289 0
283 230 0
496 0
168 0
337 25 0
54 191 0
259 188 0
144 0
469 0
27 0
470 0
402 0
136 0
201 0
200 0
116 61 0
375 271 0
449 0
488 202 0
18 0
126 0
295 0
176 0
57 0
412 0
371 0
24 0
353 79 0
480 0
124 205 0
448 0
371 0
313 299 0
161 0
296 191 0
56 0
322 212 0
388 0
223 0
317 295 0
441 494 0
89 0
299 211 0
283 251 0
49 172 0
93 215 0
35 143 0
293 327 0
393 438 0
217 0
105 292 0
1 0
18 187 0
50 0
398 494 0
294 0
385 147 0
4 0
86 175 0
110 335 0
226 0
494 0
321 0
288 0
30 0
239 0
362 0
313 164 0
321 301 0
53 0
26 493 0
480 0
75 0
123 0
481 83 0
308 300 0
136 0
451 399 0
483 0
235 0
277 198 0
269 0
328 0
430 71 0
387 0
477 0
433 0
299 221 0
280 0
162 0
490 0
261 430 0
197 0
107 252 0
283 263 0
27 0
49 0
133 0
366 0
488 0
175 0
115 388 0
451 124 0
166 0
32 0
114 238 0
417 0
337 0
496 354 0
208 182 0
230 0
370 98 0
380 0
360 490 0
442 0
38 0
403 478 0
487 0
84 493 0
406 0
381 0
88 441 0
113 0
22 0
489 0
179 0
218 478 0
95 0
138 394 0
219 0
257 0
199 0
306 0
15 0
409 460 0
260 0
496 0
494 0
427 0
396 0
296 0
372 447 0
411 231 0
458 0
123 452 0
412 0
442 0
454 255 0
35 0
104 418 0
401 451 0
458 93 0
31 0
220 0
269 0
138 100 0
161 0
404 84 0
238 0
90 102 0
473 203 0
155 0
165 0
42 0
409 0
307 455 0
86 0
461 375 0
296 117 0
363 0
238 0
404 0
443 0
275 150 0
257 394 0
182 0
358 0
50 132 0
424 437 0
212 0
42 0
247 0
16 0
406 0
280 0
361 330 0
372 0
171 0
7 0
455 0
447 0
78 0
123 0
459 0
392 0
257 0
115 0
483 0
465 395 0
206 0
397 167 0
7 0
73 358 0
151 0
314 0
176 0
9 0
473 0
356 0
251 319 0
197 0
471 0
135 0
468 0
320 363 0
251 79 0
96 255 0
395 0
2 0
6 0
169 0
136 159 0
107 0
54 0
280 0
379 0
9 0
297 47 0
257 0
138 0
389 0
161 0
356 78 0
499 0
430 0
230 0
394 0
84 238 0
215 0
108 135 0
159 0
116 0
59 0
121 0
104 465 0
263 0
172 0
423 0
321 449 0
84 0
162 0
429 0
72 261 0
115 0
342 151 0
437 294 0
242 454 0
436 0
355 219 0
189 0
105 386 0
215 0
185 0
483 0
333 0
384 0
482 0
121 0
442 0
206 0
160 230 0
286 0
211 0
16 0
298 483 0
425 0
75 0
196 0
429 0
302 0
321 121 0
33 115 0
484 0
76 47 0
65 0
397 0
135 0
352 200 0
489 341 0
375 0
299 207 0
18 0
37 134 0
133 0
104 0
24 428 0
129 0
497 0
435 0
274 0
28 0
57 0
332 0
174 0
382 0
36 0
117 0
195 0
410 0
104 498 0
355 125 0
285 119 0
457 0
266 0
80 0
179 0
57 0
320 384 0
49 0
322 0
346 0
458 0
466 314 0
191 7 0
320 475 0
55 0
414 0
84 0
245 0
242 319 0
236 0
17 0
186 0
437 0
153 0
150 0
399 0
231 0
341 0
401 0
70 0
164 0
331 0
164 0
117 0
254 0
377 421 0
68 134 0
54 23 0
451 0
47 0
341 0
346 0
86 0
92 341 0
446 0
357 0
380 172 0
299 0
54 0
432 1 0
320 136 0
188 0
117 0
285 0
114 220 0
52 0
426 0
460 0
419 0
140 119 0
254 0
272 25 0
48 0
387 0
220 181 0
294 351 0
431 0
182 0
416 0
220 0
8 0
50 266 0
114 482 0
444 0
474 0
386 0
57 347 0
94 0
186 317 0
279 0
418 51 0
215 0
207 0
265 0
37 0
163 0
418 101 0
136 0
19 303 0
162 285 0
276 0
257 0
165 0
363 0
478 0
111 0
211 343 0
353 0
118 0
217 0
296 0
466 0
156 0
105 0
192 361 0
281 255 0
460 471 0
331 374 0
42 0
139 0
103 0
58 0
340 238 0
266 0
434 0
144 0
316 0
123 28 0
80 0
474 453 0
480 0
285 0
354 0
132 166 0
254 0
50 206 0
385 0
291 0
3 0
321 52 0
335 0
244 0
80 0
217 12 0
385 0
316 367 0
358 0
177 0
162 0
354 0
498 0
70 0
142 0
308 0
126 0
9 0
59 0
75 0
17 228 0
145 0
393 254 0
173 0
70 0
12 0
72 0
439 0
175 15 0
106 0
477 0
154 118 0
133 0
429 405 0
201 306 0
360 0
231 0
55 0
56 292 0
409 431 0
85 0
127 0
180 0
457 180 0
432 0
87 0
129 231 0
134 0
81 209 0
116 0
62 0
305 0
434 420 0
481 0
270 0
310 23 0
245 0
91 0
328 374 0
169 0
447 0
129 0
89 0
40 0
106 0
355 0
253 31 0
211 0
454 0
113 0
266 0
465 11 0
57 355 0
128 0
57 0
338 0
34 37 0
374 0
490 0
369 67 0
233 239 0
51 0
329 303 0
184 483 0
256 0
123 0
269 0
422 0
296 0
458 0
122 0
361 335 0
436 0
363 0
496 0
94 0
315 435 0
241 0
202 0
283 469 0
11 0
402 0
198 318 0
66 420 0
494 0
55 0
385 402 0
244 0
442 0
278 0
255 0
251 0
116 0
475 0
211 0
411 0
427 0
369 452 0
170 0
323 181 0
160 0
426 366 0
210 314 0
473 0
450 0
422 0
19 0
452 0
137 30 0
385 396 0
466 0
339 140 0
169 0
204 0
314 0
361 164 0
242 428 0
395 0
237 0
148 70 0
195 500 0
384 274 0
267 277 0
171 0
315 142 0
185 223 0
401 385 0
293 486 0
309 0
497 63 0
120 445 0
154 0
286 0
40 0
450 0
271 0
437 55 0
84 0
49 442 0
169 0
251 493 0
226 463 0
97 0
426 0
29 0
408 256 0
383 0
112 0
258 0
444 165 0
221 0
137 406 0
476 0
151 0
479 0
481 0
229 0
43 0
298 333 0
338 107 0
321 258 0
464 56 0
364 0
357 0
261 0
77 0
408 1 0
101 0
404 0
410 0
87 0
265 0
107 302 0
349 0
220 0
186 0
474 0
100 0
449 0
265 0
496 150 0
262 0
72 66 0
101 0
54 0
362 0
460 484 0
469 0
171 0
448 0
25 0
38 0
413 0
445 0
103 0
322 0
353 292 0
122 0
402 0
386 0
322 0
392 115 0
452 0
92 207 0
96 57 0
310 191 0
18 0
393 319 0
367 0
242 0
156 0
297 0
258 187 0
138 182 0
309 0
24 0
105 0
159 0
193 0
370 211 0
361 0
352 0
268 0
187 0
286 0
169 452 0
36 0
226 0
207 0
153 0
416 194 0
427 0
121 190 0
195 0
204 0
74 0
49 0
211 237 0
27 0
340 0
335 0
11 324 0
315 39 0
424 0
308 0
309 119 0
263 0
318 0
407 159 0
12 0
95 0
97 0
144 0
499 0
364 0
236 0
430 0
387 0
374 431 0
404 0
120 122 0
285 0
478 463 0
73 122 0
96 0
48 166 0
475 364 0
336 0
114 58 0
16 7 0
367 111 0
295 0
246 0
376 0
88 0
294 55 0
278 0
378 165 0
29 0
203 0
99 0
406 0
496 0
136 0
56 0
168 0
215 0
432 493 0
484 0
377 343 0
329 343 0
238 0
224 258 0
494 0
488 0
140 0
5 0
201 117 0
104 98 0
2 158 0
394 0
491 0
175 0
463 0
165 0
200 190 0
434 331 0
263 0
237 0
369 492 0
423 0
445 0
191 0
271 0
124 0
329 0
22 0
224 315 0
118 206 0
71 0
361 0
26 74 0
450 0
180 0
81 0
359 0
461 0
484 366 0
49 167 0
243 0
331 0
26 219 0
221 0
491 0
424 356 0
274 134 0
205 0
80 265 0
81 117 0
323 179 0
342 47 0
43 0
304 0
181 0
305 0
46 0
368 0
423 0
307 0
66 51 0
284 413 0
71 0
339 0
145 0
273 398 0
168 198 0
409 0
39 0
55 0
471 0
194 0
320 365 0
353 182 0
469 0
456 0
199 0
1 124 0
240 142 0
376 299 0
185 0
153 0
389 399 0
86 0
213 0
234 0
101 0
305 0
102 0
66 381 0
156 0
428 357 0
369 0
132 0
18 407 0
87 0
37 0
441 214 0
146 0
410 0
64 0
97 386 0
3 0
175 0
83 339 0
220 351 0
311 0
2 298 0
349 0
488 194 0
119 0
297 87 0
72 0
425 412 0
370 135 0
278 0
16 0
447 0
402 447 0
428 0
173 0
294 0
22 0
360 0
317 0
328 0
239 0
302 0
80 0
346 0
57 0
101 0
225 0
42 0
316 0
251 0
48 0
166 0
497 315 0
160 126 0
119 0
329 0
337 95 0
164 0
91 100 0
267 302 0
256 0
34 0
154 99 0
376 466 0
49 237 0
258 0
17 415 0
59 0
378 0
344 0
435 0
224 415 0
88 131 0
36 0
184 0
461 0
196 0
189 0
224 426 0
318 350 0
429 0
88 0
37 0
33 158 0
408 0
151 0
441 0
434 0
397 0
135 0
419 213 0
273 173 0
77 0
232 3 0
204 156 0
193 0
462 0
394 0
496 97 0
77 0
412 13 0
156 0
474 228 0
75 0
437 0
474 0
152 0
179 423 0
60 0
229 437 0
453 0
210 0
135 0
276 0
186 374 0
217 0
376 0
449 349 0
5 0
361 0
494 0
158 0
18 439 0
8 340 0
210 0
210 242 0
37 0
89 0
303 0
284 110 0
490 459 0
415 0
224 0
187 366 0
419 87 0
65 449 0
105 0
280 0
489 0
67 0
222 0
69 0
108 343 0
418 455 0
427 471 0
343 0
298 0
482 0
367 0
84 0
252 374 0
270 0
160 0
328 0
353 0
333 0
439 0
359 0
56 127 0
280 0
401 0
363 0
288 262 0
172 318 0
388 0
156 0
269 0
464 0
177 0
76 0
444 0
368 171 0
136 212 0
113 430 0
323 0
34 399 0
110 182 0
48 0
349 335 0
490 0
44 0
286 0
146 0
256 340 0
326 0
413 0
58 0
428 181 0
259 0
178 6 0
256 74 0
202 382 0
380 0
157 0
395 0
17 0
370 183 0
53 0
437 111 0
320 0
219 0
207 391 0
453 0
478 0
222 0
92 0
156 0
170 0
308 0
340 0
426 0
239 0
3 71 0
73 494 0
235 0
481 172 0
484 0
373 343 0
444 0
17 54 0
471 0
433 287 0
241 393 0
293 398 0
283 45 0
305 231 0
131 205 0
384 69 0
475 493 0
10 0
329 26 0
221 0
2 0
303 423 0
245 0
318 0
221 301 0
477 0
139 0
59 0
12 495 0
418 14 0
219 0
451 327 0
57 0
185 371 0
374 0
337 0
481 219 0
294 118 0
220 0
473 21 0
167 0
48 85 0
57 0
489 0
105 0
322 0
204 0
298 0
396 0
476 0
19 0
260 294 0
1 457 0
454 286 0
91 316 0
50 27 0
288 268 0
334 0
123 0
461 0
176 0
353 383 0
225 0
413 0
252 28 0
28 47 0
466 0
224 297 0
121 220 0
464 0
325 0
443 0
134 0
193 436 0
47 0
458 0
49 86 0
373 0
127 0
407 0
343 0
279 0
320 434 0
290 0
335 0
165 0
83 0
27 0
241 0
6 0
29 0
327 0
238 0
352 0
57 283 0
422 0
204 0
496 486 0
51 0
351 103 0
3 68 0
243 484 0
164 0
114 134 0
153 391 0
204 215 0
426 284 0
59 211 0
162 415 0
70 0
205 0
242 0
261 0
454 0
122 0
410 469 0
220 53 0
348 485 0
281 0
23 0
42 247 0
155 0
87 0
267 0
220 285 0
298 0
272 0
496 122 0
193 0
334 438 0
353 0
253 0
281 0
62 0
388 0
253 0
307 0
42 0
271 0
36 0
153 0
260 0
393 21 0
333 0
100 484 0
446 0
316 0
440 1 0
292 0
305 196 0
154 0
378 0
362 0
31 71 0
13 0
181 0
292 183 0
119 0
474 0
208 0
114 0
480 0
70 0
410 318 0
201 0
77 0
266 326 0
312 0
48 0
275 0
449 450 0
160 430 0
368 107 0
216 172 0
112 498 0
238 0
8 0
444 0
51 0
323 478 0
57 0
500 0
285 0
177 0
405 0
44 0
382 0
407 7 0
385 0
266 196 0
408 500 0
34 0
138 0
285 0
170 0
26 230 0
444 366 0
460 237 0
63 0
267 0
274 54 0
264 375 0
356 0
344 0
456 0
11 0
17 381 0
204 0
123 0
426 0
67 0
180 311 0
231 0
377 465 0
439 0
292 0
100 0
160 0
311 0
328 330 0
161 126 0
25 349 0
66 0
63 0
33 100 0
54 0
455 271 0
50 0
424 354 0
58 403 0
357 0
492 71 0
468 0
145 307 0
104 0
323 365 0
112 422 0
449 295 0
139 0
242 0
309 0
329 0
296 0
396 0
266 0
388 0
442 0
340 0
363 0
37 0
242 0
34 0
304 361 0
28 0
352 0
232 0
389 0
60 311 0
362 53 0
34 0
137 402 0
413 0
289 0
26 0
288 0
421 270 0
152 314 0
474 261 0
212 0
353 33 0
357 0
213 0
82 0
210 406 0
144 0
312 0
36 0
378 90 0
17 0
52 0
122 244 0
173 159 0
490 71 0
393 53 0
13 0
285 0
55 0
226 13 0
321 0
329 387 0
478 0
427 0
130 53 0
481 0
442 228 0
144 156 0
358 279 0
324 0
20 0
401 254 0
68 0
33 0
268 0
80 59 0
351 0
47 0
208 394 0
185 0
382 0
450 390 0
79 0
143 0
326 0
497 179 0
10 0
257 0
389 0
192 0
100 0
333 0
215 0
447 0
160 0
370 0
482 0
288 0
381 0
43 0
148 404 0
220 0
355 31 0
355 0
416 0
463 0
402 61 0
77 279 0
345 0
400 0
233 0
117 0
202 0
82 0
487 0
88 0
94 0
167 0
266 0
170 0
220 0
80 0
454 0
392 315 0
379 0
383 0
386 0
445 0
6 0
349 0
329 0
138 462 0
424 331 0
345 0
96 450 0
291 0
166 0
256 0
289 0
338 90 0
90 0
434 0
33 164 0
264 282 0
23 0
377 487 0
321 0
21 0
25 0
306 0
70 0
55 0
232 0
378 131 0
72 394 0
232 145 0
197 358 0
283 0
187 0
378 0
218 30 0
50 0
347 0
179 327 0
83 211 0
241 43 0
68 0
379 46 0
127 0
123 0
48 0
21 0
77 0
138 0
170 0
265 0
239 0
443 0
413 0
413 30 0
89 427 0
163 227 0
362 103 0
300 0
347 0
383 0
185 427 0
285 151 0
488 322 0
235 0
282 477 0
315 0
497 0
352 58 0
436 60 0
61 0
392 247 0
311 0
382 0
359 0
170 0
39 0
434 0
230 6 0
264 0
199 0
128 335 0
416 348 0
170 495 0
173 0
85 0
174 159 0
72 489 0
403 0
132 141 0
152 0
221 0
48 0
8 148 0
233 335 0
89 361 0
181 0
445 0
117 0
483 0
106 0
353 317 0
38 0
482 0
290 285 0
302 0
56 0
357 0
375 0
395 0
164 0
375 0
255 0
161 479 0
294 0
37 0
432 0
138 253 0
276 0
324 0
25 0
115 399 0
301 0
254 0
157 166 0
487 0
186 135 0
290 0
421 0
180 0
431 0
21 0
9 0
442 0
493 0
168 283 0
219 0
153 0
321 307 0
24 262 0
184 0
429 0
420 0
477 45 0
383 0
160 0
402 0
67 0
212 0
129 0
265 0
230 0
446 230 0
218 0
475 214 0
308 300 0
481 475 0
347 308 0
162 124 0
385 265 0
47 0
188 0
324 0
422 0
218 126 0
85 0
254 0
345 252 0
21 0
406 0
243 0
272 0
257 0
174 0
477 0
186 0
48 0
462 0
91 0
151 0
82 132 0
84 77 0
483 158 0
450 0
403 157 0
273 0
328 139 0
496 68 0
146 0
317 293 0
164 0
92 0
208 307 0
321 0
63 0
445 0
275 0
133 0
179 0
482 275 0
20 0
303 0
65 125 0
369 0
486 0
146 51 0
342 335 0
465 0
262 31 0
48 0
232 0
492 0
205 0
494 0
65 0
373 0
208 11 0
489 195 0
448 437 0
14 0
134 0
488 0
312 0
194 0
497 91 0
129 241 0
307 175 0
248 0
136 0
163 316 0
458 263 0
246 0
280 0
392 29 0
25 0
190 0
305 269 0
401 0
146 0
302 0
295 0
421 141 0
266 0
272 400 0
418 0
117 0
18 380 0
92 0
429 0
130 0
58 271 0
168 371 0
395 0
178 2 0
493 0
404 0
288 0
192 0
28 158 0
261 0
181 0
187 0
336 0
433 0
417 0
369 0
452 0
175 0
282 190 0
394 258 0
289 262 0
371 0
358 0
136 388 0
131 239 0
339 0
272 152 0
490 0
148 0
110 0
105 0
10 0
316 0
71 0
3 0
337 0
244 0
11 0
444 204 0
343 0
455 0
418 0
283 47 0
49 0
274 191 0
260 493 0
185 205 0
274 0
403 0
284 0
415 0
202 0
391 0
464 242 0
25 491 0
280 0
35 429 0
30 0
294 0
242 0
236 0
193 0
298 71 0
181 0
223 463 0
24 93 0
125 0
231 0
256 0
190 0
85 0
116 0
43 293 0
157 0
32 120 0
286 0
139 71 0
449 0
233 469 0
56 155 0
97 0
444 0
495 0
339 0
463 0
397 0
282 422 0
21 0
443 0
258 0
336 0
479 0
161 0
134 0
1 391 0
466 0
392 0
227 0
130 484 0
456 386 0
218 0
394 0
396 0
42 59 0
193 430 0
257 265 0
371 0
281 0
31 0
160 0
481 388 0
109 0
2 127 0
416 0
154 367 0
348 181 0
312 0
251 0
251 78 0
217 0
34 0
467 53 0
488 0
151 343 0
269 279 0
243 383 0
402 308 0
107 0
328 0
320 477 0
174 38 0
72 0
474 0
422 0
180 0
271 0
259 324 0
149 0
293 0
420 0
390 0
25 383 0
74 220 0
105 330 0
395 0
384 388 0
131 0
158 0
184 224 0
316 0
85 301 0
273 0
177 28 0
393 325 0
443 0
328 114 0
217 0
198 0
150 383 0
441 0
411 247 0
203 303 0
17 115 0
400 0
120 356 0
394 0
360 0
441 467 0
415 0
146 0
322 0
258 0
193 441 0
295 0
448 214 0
190 0
437 0
425 0
324 0
40 487 0
244 0
108 0
467 0
314 271 0
335 0
497 470 0
30 71 0
156 0
365 0
315 0
307 238 0
488 0
362 0
449 0
105 0
16 0
296 0
435 0
434 0
479 0
199 0
349 0
453 0
295 0
424 0
196 0
346 333 0
177 0
281 0
97 0
319 0
304 0
78 0
498 0
466 463 0
218 499 0
267 15 0
57 0
433 134 0
441 387 0
337 251 0
428 228 0
316 446 0
154 0
183 0
126 247 0
314 0
275 0
217 327 0
21 0
307 0
264 0
448 0
137 29 0
209 0
27 36 0
431 0
452 294 0
250 267 0
236 0
497 311 0
38 0
233 373 0
280 161 0
64 0
459 0
185 327 0
328 66 0
498 0
120 0
160 0
149 0
431 0
125 0
226 198 0
153 4 0
282 0
57 0
389 0
211 478 0
388 0
14 0
176 0
266 0
453 350 0
212 0
62 0
487 0
384 226 0
415 0
233 381 0
192 0
19 0
488 0
220 0
187 159 0
13 0
146 0
251 101 0
145 412 0
272 431 0
329 5 0
206 0
49 0
10 374 0
91 252 0
65 2 0
387 0
230 0
74 230 0
327 0
24 18 0
370 410 0
54 0
484 247 0
256 401 0
14 0
457 386 0
291 429 0
466 254 0
255 0
235 0
185 485 0
269 0
278 0
351 0
315 0
232 459 0
132 405 0
133 30 0
101 190 0
383 0
241 0
257 0
352 0
137 0
276 0
43 229 0
305 477 0
217 273 0
458 190 0
374 358 0
401 421 0
379 0
471 0
387 0
264 0
182 0
80 0
500 0
151 0
107 0
353 185 0
366 0
190 0
67 0
497 0
322 404 0
131 365 0
427 47 0
398 0
183 0
370 205 0
16 0
139 0
307 0
314 0
457 403 0
35 0
1 370 0
264 0
407 0
205 0
129 450 0
243 319 0
131 0
383 0
396 0
49 350 0
429 486 0
500 222 0
481 0
167 0
478 0
305 0
210 0
391 0
314 0
160 133 0
145 356 0
397 0
254 0
219 0
404 487 0
361 0
218 35 0
148 0
307 0
428 252 0
262 0
295 0
268 455 0
199 0
197 437 0
44 237 0
188 0
233 0
368 334 0
354 341 0
94 335 0
355 420 0
174 0
423 0
265 0
492 0
246 0
235 0
442 0
432 266 0
34 0
213 478 0
500 0
427 0
476 0
240 0
296 434 0
291 0
203 469 0
386 390 0
354 0
397 198 0
429 0
258 0
196 0
322 0
144 0
297 0
448 0
299 70 0
123 428 0
29 0
115 159 0
317 359 0
247 0
370 0
330 0
89 403 0
318 0
328 0
28 0
9 462 0
483 0
374 0
19 0
188 0
233 443 0
135 447 0
155 0
171 262 0
20 174 0
99 102 0
424 0
445 0
163 0
433 390 0
16 0
59 0
384 0
288 142 0
473 12 0
369 423 0
263 0
61 0
221 0
83 293 0
333 365 0
428 159 0
337 421 0
161 245 0
476 100 0
373 0
336 0
101 0
151 0
285 0
116 277 0
323 0
97 450 0
317 0
407 0
29 0
170 0
426 314 0
49 147 0
336 419 0
73 251 0
203 0
12 0
66 0
357 0
419 0
50 0
90 133 0
63 0
262 0
245 0
371 0
104 0
48 269 0
40 497 0
255 0
256 115 0
228 0
280 0
473 0
324 471 0
105 437 0
304 0
248 0
496 0
126 0
353 0
481 0
356 0
149 0
400 0
331 0
406 0
472 0
92 0
475 0
194 62 0
297 0
201 0
102 0
165 0
156 0
441 0
86 87 0
34 0
384 216 0
186 0
449 70 0
17 67 0
449 356 0
235 76 0
430 31 0
106 0
202 0
349 0
331 0
81 0
168 332 0
402 0
362 0
403 0
112 346 0
235 0
494 0
167 0
58 0
98 364 0
432 0
368 173 0
50 0
474 0
300 0
46 0
59 0
187 0
82 0
270 0
240 108 0
305 0
170 204 0
465 0
364 244 0
404 0
306 0
120 0
480 282 0
223 0
261 0
395 180 0
468 0
72 0
104 0
395 423 0
127 0
200 1 0
158 0
145 229 0
10 0
403 190 0
405 0
134 327 0
152 0
225 194 0
225 0
465 0
339 0
470 0
424 0
279 0
29 422 0
404 0
62 -501 0
390 -501 0
-62 -390 501 0
355 -502 0
-454 -502 0
-355 454 502 0
174 -503 0
77 -503 0
-174 -77 503 0
-134 -504 0
105 -504 0
134 -105 504 0
-192 -505 0
269 -505 0
192 -269 505 0
360 -506 0
339 -506 0
-360 -339 506 0
111 -507 0
482 -507 0
-111 -482 507 0
456 -508 0
-321 -508 0
-456 321 508 0
30 -509 0
395 -509 0
-30 -395 509 0
160 -510 0
-68 -510 0
-160 68 510 0
408 -511 0
-130 -511 0
-408 130 511 0
-20 -512 0
171 -512 0
20 -171 512 0
-179 -513 0
36 -513 0
179 -36 513 0
475 -514 0
369 -514 0
-475 -369 514 0
184 -515 0
7 -515 0
-184 -7 515 0
136 -516 0
-12 -516 0
-136 12 516 0
-200 -517 0
246 -517 0
200 -246 517 0
-356 -518 0
124 -518 0
356 -124 518 0
48 -519 0
441 -519 0
-48 -441 519 0
423 -520 0
157 -520 0
-423 -157 520 0
-121 -521 0
314 -521 0
121 -314 521 0
476 -522 0
35 -522 0
-476 -35 522 0
175 -523 0
103 -523 0
-175 -103 523 0
-257 -524 0
113 -524 0
257 -113 524 0
-317 -525 0
115 -525 0
317 -115 525 0
-450 -526 0
142 -526 0
450 -142 526 0
-74 -527 0
210 -527 0
74 -210 527 0
-218 -528 0
298 -528 0
218 -298 528 0
447 -529 0
33 -529 0
-447 -33 529 0
480 -530 0
-269 -530 0
-480 269 530 0
440 -531 0
170 -531 0
-440 -170 531 0
472 -532 0
-481 -532 0
-472 481 532 0
125 -533 0
180 -533 0
-125 -180 533 0
-37 -534 0
131 -534 0
37 -131 534 0
495 -535 0
-332 -535 0
-495 332 535 0
334 -536 0
-260 -536 0
-334 260 536 0
-330 -537 0
370 -537 0
330 -370 537 0
264 -538 0
-470 -538 0
-264 470 538 0
-281 -539 0
349 -539 0
281 -349 539 0
-169 -540 0
163 -540 0
169 -163 540 0
63 -541 0
-143 -541 0
-63 143 541 0
30 -542 0
246 -542 0
-30 -246 542 0
-464 -543 0
184 -543 0
464 -184 543 0
-53 -544 0
266 -544 0
53 -266 544 0
-459 -545 0
172 -545 0
459 -172 545 0
460 -546 0
73 -546 0
-460 -73 546 0
176 -547 0
-178 -547 0
-176 178 547 0
230 -548 0
173 -548 0
-230 -173 548 0
31 -549 0
164 -549 0
-31 -164 549 0
-128 -550 0
64 -550 0
128 -64 550 0
-157 -551 0
242 -551 0
157 -242 551 0
291 -552 0
82 -552 0
-291 -82 552 0
-9 -553 0
206 -553 0
9 -206 553 0
79 -554 0
-171 -554 0
-79 171 554 0
464 -555 0
-174 -555 0
-464 174 555 0
319 -556 0
-374 -556 0
-319 374 556 0
-72 -557 0
495 -557 0
72 -495 557 0
80 -558 0
51 -558 0
-80 -51 558 0
245 -559 0
490 -559 0
-245 -490 559 0
-115 -560 0
67 -560 0
115 -67 560 0
-467 -561 0
115 -561 0
467 -115 561 0
392 -562 0
369 -562 0
-392 -369 562 0
9 -563 0
153 -563 0
-9 -153 563 0
425 -564 0
97 -564 0
-425 -97 564 0
150 -565 0
75 -565 0
-150 -75 565 0
141 -566 0
417 -566 0
-141 -417 566 0
32 -567 0
-4 -567 0
-32 4 567 0
139 -568 0
353 -568 0
-139 -353 568 0
65 -569 0
121 -569 0
-65 -121 569 0
-378 -570 0
75 -570 0
378 -75 570 0
-321 -571 0
203 -571 0
321 -203 571 0
-325 -572 0
66 -572 0
325 -66 572 0
366 -573 0
372 -573 0
-366 -372 573 0
468 -574 0
-439 -574 0
-468 439 574 0
344 -575 0
-2 -575 0
-344 2 575 0
429 -576 0
171 -576 0
-429 -171 576 0
-116 -577 0
163 -577 0
116 -163 577 0
87 -578 0
-299 -578 0
-87 299 578 0
40 -579 0
-53 -579 0
-40 53 579 0
464 -580 0
393 -580 0
-464 -393 580 0
110 -581 0
-36 -581 0
-110 36 581 0
236 -582 0
49 -582 0
-236 -49 582 0
218 -583 0
394 -583 0
-218 -394 583 0
370 -584 0
490 -584 0
-370 -490 584 0
21 -585 0
354 -585 0
-21 -354 585 0
354 -586 0
89 -586 0
-354 -89 586 0
11 -587 0
258 -587 0
-11 -258 587 0
143 -588 0
-106 -588 0
-143 106 588 0
357 -589 0
291 -589 0
-357 -291 589 0
311 -590 0
433 -590 0
-311 -433 590 0
448 -591 0
-438 -591 0
-448 438 591 0
179 -592 0
-133 -592 0
-179 133 592 0
-156 -593 0
57 -593 0
156 -57 593 0
-467 -594 0
372 -594 0
467 -372 594 0
-224 -595 0
236 -595 0
224 -236 595 0
256 -596 0
-269 -596 0
-256 269 596 0
332 -597 0
321 -597 0
-332 -321 597 0
-312 -598 0
73 -598 0
312 -73 598 0
93 -599 0
-31 -599 0
-93 31 599 0
187 -600 0
-173 -600 0
-187 173 600 0
476 -601 0
291 -601 0
-476 -291 601 0
304 -602 0
449 -602 0
-304 -449 602 0
376 -603 0
-154 -603 0
-376 154 603 0
242 -604 0
-87 -604 0
-242 87 604 0
293 -605 0
-452 -605 0
-293 452 605 0
-325 -606 0
105 -606 0
325 -105 606 0
56 -607 0
6 -607 0
-56 -6 607 0
414 -608 0
-446 -608 0
-414 446 608 0
-412 -609 0
361 -609 0
412 -361 609 0
-378 -610 0
426 -610 0
378 -426 610 0
402 -611 0
-199 -611 0
-402 199 611 0
64 -612 0
48 -612 0
-64 -48 612 0
22 -613 0
196 -613 0
-22 -196 613 0
-48 -614 0
50 -614 0
48 -50 614 0
299 -615 0
73 -615 0
-299 -73 615 0
-405 -616 0
378 -616 0
405 -378 616 0
279 -617 0
-460 -617 0
-279 460 617 0
6 -618 0
450 -618 0
-6 -450 618 0
-50 -619 0
213 -619 0
50 -213 619 0
-264 -620 0
405 -620 0
264 -405 620 0
304 -621 0
-332 -621 0
-304 332 621 0
402 -622 0
-30 -622 0
-402 30 622 0
366 -623 0
387 -623 0
-366 -387 623 0
285 -624 0
-76 -624 0
-285 76 624 0
294 -625 0
-228 -625 0
-294 228 625 0
136 -626 0
4 -626 0
-136 -4 626 0
16 -627 0
332 -627 0
-16 -332 627 0
325 -628 0
-85 -628 0
-325 85 628 0
-340 -629 0
219 -629 0
340 -219 629 0
125 -630 0
194 -630 0
-125 -194 630 0
479 -631 0
-391 -631 0
-479 391 631 0
484 -632 0
-342 -632 0
-484 342 632 0
-32 -633 0
78 -633 0
32 -78 633 0
455 -634 0
-125 -634 0
-455 125 634 0
23 -635 0
97 -635 0
-23 -97 635 0
263 -636 0
398 -636 0
-263 -398 636 0
336 -637 0
-394 -637 0
-336 394 637 0
299 -638 0
-373 -638 0
-299 373 638 0
477 -639 0
154 -639 0
-477 -154 639 0
-304 -640 0
80 -640 0
304 -80 640 0
447 -641 0
385 -641 0
-447 -385 641 0
168 -642 0
-346 -642 0
-168 346 642 0
32 -643 0
-221 -643 0
-32 221 643 0
355 -644 0
-414 -644 0
-355 414 644 0
34 -645 0
-383 -645 0
-34 383 645 0
215 -646 0
418 -646 0
-215 -418 646 0
-435 -647 0
149 -647 0
435 -149 647 0
48 -648 0
-92 -648 0
-48 92 648 0
55 -649 0
-270 -649 0
-55 270 649 0
326 -650 0
226 -650 0
-326 -226 650 0
-100 -651 0
132 -651 0
100 -132 651 0
414 -652 0
429 -652 0
-414 -429 652 0
190 -653 0
282 -653 0
-190 -282 653 0
-152 -654 0
116 -654 0
152 -116 654 0
-217 -655 0
473 -655 0
217 -473 655 0
431 -656 0
103 -656 0
-431 -103 656 0
365 -657 0
-444 -657 0
-365 444 657 0
198 -658 0
461 -658 0
-198 -461 658 0
388 -659 0
444 -659 0
-388 -444 659 0
70 -660 0
462 -660 0
-70 -462 660 0
416 -661 0
486 -661 0
-416 -486 661 0
221 -662 0
306 -662 0
-221 -306 662 0
80 -663 0
-109 -663 0
-80 109 663 0
326 -664 0
365 -664 0
-326 -365 664 0
167 -665 0
-51 -665 0
-167 51 665 0
32 -666 0
432 -666 0
-32 -432 666 0
117 -667 0
364 -667 0
-117 -364 667 0
278 -668 0
-356 -668 0
-278 356 668 0
-19 -669 0
225 -669 0
19 -225 669 0
247 -670 0
-277 -670 0
-247 277 670 0
398 -671 0
372 -671 0
-398 -372 671 0
356 -672 0
81 -672 0
-356 -81 672 0
10 -673 0
345 -673 0
-10 -345 673 0
284 -674 0
-86 -674 0
-284 86 674 0
-309 -675 0
403 -675 0
309 -403 675 0
499 -676 0
-45 -676 0
-499 45 676 0
108 -677 0
-438 -677 0
-108 438 677 0
-201 -678 0
314 -678 0
201 -314 678 0
310 -679 0
379 -679 0
-310 -379 679 0
-300 -680 0
178 -680 0
300 -178 680 0
-485 -681 0
26 -681 0
485 -26 681 0
-61 -682 0
490 -682 0
61 -490 682 0
-402 -683 0
138 -683 0
402 -138 683 0
181 -684 0
-310 -684 0
-181 310 684 0
-142 -685 0
169 -685 0
142 -169 685 0
256 -686 0
478 -686 0
-256 -478 686 0
125 -687 0
10 -687 0
-125 -10 687 0
-328 -688 0
135 -688 0
328 -135 688 0
399 -689 0
177 -689 0
-399 -177 689 0
447 -690 0
387 -690 0
-447 -387 690 0
-320 -691 0
363 -691 0
320 -363 691 0
264 -692 0
-337 -692 0
-264 337 692 0
359 -693 0
83 -693 0
-359 -83 693 0
280 -694 0
120 -694 0
-280 -120 694 0
191 -695 0
262 -695 0
-191 -262 695 0
-92 -696 0
250 -696 0
92 -250 696 0
-32 -697 0
351 -697 0
32 -351 697 0
144 -698 0
281 -698 0
-144 -281 698 0
135 -699 0
371 -699 0
-135 -371 699 0
-1 -700 0
345 -700 0
1 -345 700 0
240 -701 0
303 -701 0
-240 -303 701 0
-208 -702 0
307 -702 0
208 -307 702 0
151 -703 0
438 -703 0
-151 -438 703 0
-231 -704 0
113 -704 0
231 -113 704 0
-299 -705 0
85 -705 0
299 -85 705 0
32 -706 0
79 -706 0
-32 -79 706 0
-91 -707 0
29 -707 0
91 -29 707 0
413 -708 0
-364 -708 0
-413 364 708 0
-473 -709 0
305 -709 0
473 -305 709 0
239 -710 0
20 -710 0
-239 -20 710 0
264 -711 0
-418 -711 0
-264 418 711 0
295 -712 0
285 -712 0
-295 -285 712 0
392 -713 0
82 -713 0
-392 -82 713 0
328 -714 0
473 -714 0
-328 -473 714 0
392 -715 0
412 -715 0
-392 -412 715 0
350 -716 0
114 -716 0
-350 -114 716 0
-73 -717 0
182 -717 0
73 -182 717 0
413 -718 0
-348 -718 0
-413 348 718 0
-233 -719 0
276 -719 0
233 -276 719 0
-324 -720 0
402 -720 0
324 -402 720 0
-434 -721 0
244 -721 0
434 -244 721 0
-500 -722 0
243 -722 0
500 -243 722 0
494 -723 0
-15 -723 0
-494 15 723 0
-348 -724 0
201 -724 0
348 -201 724 0
120 -725 0
-289 -725 0
-120 289 725 0
340 -726 0
-37 -726 0
-340 37 726 0
-273 -727 0
108 -727 0
273 -108 727 0
359 -728 0
292 -728 0
-359 -292 728 0
205 -729 0
333 -729 0
-205 -333 729 0
-304 -730 0
452 -730 0
304 -452 730 0
-1 -731 0
453 -731 0
1 -453 731 0
-498 -732 0
57 -732 0
498 -57 732 0
-226 -733 0
35 -733 0
226 -35 733 0
124 -734 0
-188 -734 0
-124 188 734 0
403 -735 0
153 -735 0
-403 -153 735 0
113 -736 0
-23 -736 0
-113 23 736 0
-356 -737 0
236 -737 0
356 -236 737 0
-91 -738 0
397 -738 0
91 -397 738 0
376 -739 0
-103 -739 0
-376 103 739 0
395 -740 0
305 -740 0
-395 -305 740 0
104 -741 0
-84 -741 0
-104 84 741 0
254 -742 0
108 -742 0
-254 -108 742 0
-368 -743 0
42 -743 0
368 -42 743 0
293 -744 0
-14 -744 0
-293 14 744 0
22 -745 0
-119 -745 0
-22 119 745 0
-64 -746 0
97 -746 0
64 -97 746 0
393 -747 0
-71 -747 0
-393 71 747 0
301 -748 0
316 -748 0
-301 -316 748 0
-57 -749 0
101 -749 0
57 -101 749 0
-453 -750 0
241 -750 0
453 -241 750 0
79 -751 0
-58 -751 0
-79 58 751 0
346 -752 0
-471 -752 0
-346 471 752 0
102 -753 0
-235 -753 0
-102 235 753 0
142 -754 0
-380 -754 0
-142 380 754 0
-396 -755 0
259 -755 0
396 -259 755 0
403 -756 0
-173 -756 0
-403 173 756 0
214 -757 0
-117 -757 0
-214 117 757 0
434 -758 0
2 -758 0
-434 -2 758 0
165 -759 0
297 -759 0
-165 -297 759 0
160 -760 0
343 -760 0
-160 -343 760 0
167 -761 0
-313 -761 0
-167 313 761 0
-60 -762 0
219 -762 0
60 -219 762 0
-195 -763 0
85 -763 0
195 -85 763 0
8 -764 0
-389 -764 0
-8 389 764 0
172 -765 0
-445 -765 0
-172 445 765 0
400 -766 0
457 -766 0
-400 -457 766 0
133 -767 0
309 -767 0
-133 -309 767 0
-96 -768 0
437 -768 0
96 -437 768 0
-395 -769 0
242 -769 0
395 -242 769 0
221 -770 0
-187 -770 0
-221 187 770 0
412 -771 0
65 -771 0
-412 -65 771 0
-393 -772 0
102 -772 0
393 -102 772 0
47 -773 0
-182 -773 0
-47 182 773 0
452 -774 0
451 -774 0
-452 -451 774 0
-425 -775 0
58 -775 0
425 -58 775 0
338 -776 0
-79 -776 0
-338 79 776 0
-169 -777 0
478 -777 0
169 -478 777 0
64 -778 0
-495 -778 0
-64 495 778 0
62 -779 0
-266 -779 0
-62 266 779 0
267 -780 0
115 -780 0
-267 -115 780 0
271 -781 0
211 -781 0
-271 -211 781 0
48 -782 0
305 -782 0
-48 -305 782 0
100 -783 0
396 -783 0
-100 -396 783 0
287 -784 0
-268 -784 0
-287 268 784 0
-436 -785 0
122 -785 0
436 -122 785 0
431 -786 0
268 -786 0
-431 -268 786 0
287 -787 0
-381 -787 0
-287 381 787 0
78 -788 0
-83 -788 0
-78 83 788 0
-132 -789 0
164 -789 0
132 -164 789 0
109 -790 0
413 -790 0
-109 -413 790 0
455 -791 0
-434 -791 0
-455 434 791 0
-197 -792 0
169 -792 0
197 -169 792 0
78 -793 0
-173 -793 0
-78 173 793 0
-330 -794 0
489 -794 0
330 -489 794 0
-427 -795 0
266 -795 0
427 -266 795 0
359 -796 0
36 -796 0
-359 -36 796 0
-387 -797 0
196 -797 0
387 -196 797 0
414 -798 0
418 -798 0
-414 -418 798 0
52 -799 0
-397 -799 0
-52 397 799 0
149 -800 0
-63 -800 0
-149 63 800 0
-234 -801 0
489 -801 0
234 -489 801 0
433 -802 0
489 -802 0
-433 -489 802 0
-112 -803 0
82 -803 0
112 -82 803 0
232 -804 0
230 -804 0
-232 -230 804 0
32 -805 0
122 -805 0
-32 -122 805 0
71 -806 0
414 -806 0
-71 -414 806 0
236 -807 0
321 -807 0
-236 -321 807 0
440 -808 0
94 -808 0
-440 -94 808 0
-336 -809 0
423 -809 0
336 -423 809 0
-100 -810 0
458 -810 0
100 -458 810 0
-138 -811 0
201 -811 0
138 -201 811 0
488 -812 0
-89 -812 0
-488 89 812 0
427 -813 0
105 -813 0
-427 -105 813 0
71 -814 0
346 -814 0
-71 -346 814 0
184 -815 0
-358 -815 0
-184 358 815 0
-75 -816 0
21 -816 0
75 -21 816 0
-427 -817 0
404 -817 0
427 -404 817 0
165 -818 0
257 -818 0
-165 -257 818 0
415 -819 0
386 -819 0
-415 -386 819 0
79 -820 0
357 -820 0
-79 -357 820 0
269 -821 0
-397 -821 0
-269 397 821 0
203 -822 0
227 -822 0
-203 -227 822 0
302 -823 0
438 -823 0
-302 -438 823 0
234 -824 0
33 -824 0
-234 -33 824 0
-284 -825 0
426 -825 0
284 -426 825 0
88 -826 0
-137 -826 0
-88 137 826 0
-352 -827 0
459 -827 0
352 -459 827 0
191 -828 0
420 -828 0
-191 -420 828 0
83 -829 0
-350 -829 0
-83 350 829 0
39 -830 0
-436 -830 0
-39 436 830 0
430 -831 0
-230 -831 0
-430 230 831 0
8 -832 0
-67 -832 0
-8 67 832 0
187 -833 0
234 -833 0
-187 -234 833 0
447 -834 0
65 -834 0
-447 -65 834 0
431 -835 0
-212 -835 0
-431 212 835 0
243 -836 0
-413 -836 0
-243 413 836 0
370 -837 0
1 -837 0
-370 -1 837 0
197 -838 0
-47 -838 0
-197 47 838 0
164 -839 0
-398 -839 0
-164 398 839 0
101 -840 0
380 -840 0
-101 -380 840 0
-247 -841 0
17 -841 0
247 -17 841 0
-129 -842 0
338 -842 0
129 -338 842 0
118 -843 0
-451 -843 0
-118 451 843 0
-50 -844 0
274 -844 0
50 -274 844 0
351 -845 0
442 -845 0
-351 -442 845 0
-336 -846 0
251 -846 0
336 -251 846 0
448 -847 0
333 -847 0
-448 -333 847 0
206 -848 0
-362 -848 0
-206 362 848 0
-236 -849 0
473 -849 0
236 -473 849 0
390 -850 0
374 -850 0
-390 -374 850 0
167 -851 0
-244 -851 0
-167 244 851 0
78 -852 0
282 -852 0
-78 -282 852 0
246 -853 0
309 -853 0
-246 -309 853 0
331 -854 0
441 -854 0
-331 -441 854 0
6 -855 0
162 -855 0
-6 -162 855 0
479 -856 0
-141 -856 0
-479 141 856 0
-24 -857 0
162 -857 0
24 -162 857 0
192 -858 0
-323 -858 0
-192 323 858 0
263 -859 0
-428 -859 0
-263 428 859 0
-428 -860 0
340 -860 0
428 -340 860 0
135 -861 0
221 -861 0
-135 -221 861 0
-427 -862 0
393 -862 0
427 -393 862 0
184 -863 0
237 -863 0
-184 -237 863 0
-241 -864 0
345 -864 0
241 -345 864 0
458 -865 0
145 -865 0
-458 -145 865 0
469 -866 0
-22 -866 0
-469 22 866 0
276 -867 0
-247 -867 0
-276 247 867 0
-400 -868 0
103 -868 0
400 -103 868 0
312 -869 0
429 -869 0
-312 -429 869 0
-196 -870 0
492 -870 0
196 -492 870 0
152 -871 0
-198 -871 0
-152 198 871 0
63 -872 0
-150 -872 0
-63 150 872 0
267 -873 0
499 -873 0
-267 -499 873 0
144 -874 0
-439 -874 0
-144 439 874 0
399 -875 0
83 -875 0
-399 -83 875 0
326 -876 0
338 -876 0
-326 -338 876 0
-386 -877 0
202 -877 0
386 -202 877 0
-8 -878 0
234 -878 0
8 -234 878 0
336 -879 0
-141 -879 0
-336 141 879 0
478 -880 0
-19 -880 0
-478 19 880 0
-115 -881 0
17 -881 0
115 -17 881 0
284 -882 0
-222 -882 0
-284 222 882 0
-248 -883 0
273 -883 0
248 -273 883 0
-282 -884 0
289 -884 0
282 -289 884 0
382 -885 0
11 -885 0
-382 -11 885 0
264 -886 0
-78 -886 0
-264 78 886 0
269 -887 0
-429 -887 0
-269 429 887 0
243 -888 0
105 -888 0
-243 -105 888 0
424 -889 0
250 -889 0
-424 -250 889 0
301 -890 0
-69 -890 0
-301 69 890 0
246 -891 0
-10 -891 0
-246 10 891 0
-272 -892 0
173 -892 0
272 -173 892 0
427 -893 0
81 -893 0
-427 -81 893 0
384 -894 0
-279 -894 0
-384 279 894 0
135 -895 0
-164 -895 0
-135 164 895 0
269 -896 0
-430 -896 0
-269 430 896 0
-275 -897 0
36 -897 0
275 -36 897 0
470 -898 0
83 -898 0
-470 -83 898 0
213 -899 0
12 -899 0
-213 -12 899 0
-309 -900 0
233 -900 0
309 -233 900 0
406 -901 0
-181 -901 0
-406 181 901 0
384 -902 0
287 -902 0
-384 -287 902 0
472 -903 0
-450 -903 0
-472 450 903 0
16 -904 0
81 -904 0
-16 -81 904 0
54 -905 0
-38 -905 0
-54 38 905 0
109 -906 0
386 -906 0
-109 -386 906 0
127 -907 0
-499 -907 0
-127 499 907 0
403 -908 0
-405 -908 0
-403 405 908 0
330 -909 0
226 -909 0
-330 -226 909 0
-328 -910 0
191 -910 0
328 -191 910 0
-153 -911 0
123 -911 0
153 -123 911 0
-297 -912 0
188 -912 0
297 -188 912 0
342 -913 0
450 -913 0
-342 -450 913 0
-473 -914 0
2 -914 0
473 -2 914 0
291 -915 0
473 -915 0
-291 -473 915 0
395 -916 0
65 -916 0
-395 -65 916 0
-37 -917 0
91 -917 0
37 -91 917 0
197 -918 0
67 -918 0
-197 -67 918 0
123 -919 0
-278 -919 0
-123 278 919 0
318 -920 0
348 -920 0
-318 -348 920 0
-292 -921 0
411 -921 0
292 -411 921 0
62 -922 0
-7 -922 0
-62 7 922 0
-104 -923 0
187 -923 0
104 -187 923 0
416 -924 0
-73 -924 0
-416 73 924 0
-414 -925 0
313 -925 0
414 -313 925 0
-379 -926 0
201 -926 0
379 -201 926 0
-113 -927 0
229 -927 0
113 -229 927 0
-417 -928 0
337 -928 0
417 -337 928 0
444 -929 0
73 -929 0
-444 -73 929 0
-116 -930 0
259 -930 0
116 -259 930 0
-58 -931 0
27 -931 0
58 -27 931 0
204 -932 0
226 -932 0
-204 -226 932 0
367 -933 0
477 -933 0
-367 -477 933 0
21 -934 0
-172 -934 0
-21 172 934 0
366 -935 0
370 -935 0
-366 -370 935 0
101 -936 0
75 -936 0
-101 -75 936 0
147 -937 0
379 -937 0
-147 -379 937 0
293 -938 0
116 -938 0
-293 -116 938 0
239 -939 0
-131 -939 0
-239 131 939 0
-337 -940 0
260 -940 0
337 -260 940 0
-97 -941 0
429 -941 0
97 -429 941 0
340 -942 0
-437 -942 0
-340 437 942 0
-2 -943 0
18 -943 0
2 -18 943 0
-64 -944 0
481 -944 0
64 -481 944 0
286 -945 0
99 -945 0
-286 -99 945 0
479 -946 0
241 -946 0
-479 -241 946 0
-376 -947 0
193 -947 0
376 -193 947 0
495 -948 0
489 -948 0
-495 -489 948 0
386 -949 0
209 -949 0
-386 -209 949 0
-163 -950 0
211 -950 0
163 -211 950 0
400 -951 0
-221 -951 0
-400 221 951 0
-217 -952 0
434 -952 0
217 -434 952 0
42 -953 0
-143 -953 0
-42 143 953 0
383 -954 0
-358 -954 0
-383 358 954 0
-121 -955 0
390 -956 0
-277 -956 0
-390 277 956 0
-492 -957 0
28 -957 0
492 -28 957 0
-140 -958 0
82 -958 0
140 -82 958 0
252 -959 0
-134 -959 0
-252 134 959 0
304 -960 0
483 -960 0
-304 -483 960 0
-500 -961 0
218 -961 0
500 -218 961 0
136 -962 0
6 -962 0
-136 -6 962 0
279 -963 0
305 -963 0
-279 -305 963 0
-400 -964 0
115 -964 0
400 -115 964 0
-474 -965 0
499 -965 0
474 -499 965 0
-49 -966 0
196 -966 0
49 -196 966 0
144 -967 0
-354 -967 0
-144 354 967 0
-473 -968 0
363 -968 0
473 -363 968 0
-341 -969 0
443 -969 0
341 -443 969 0
-392 -970 0
81 -970 0
392 -81 970 0
-225 -971 0
430 -971 0
225 -430 971 0
175 -972 0
54 -972 0
-175 -54 972 0
-144 -973 0
141 -973 0
144 -141 973 0
264 -974 0
-111 -974 0
-264 111 974 0
-89 -975 0
241 -975 0
89 -241 975 0
176 -976 0
103 -976 0
-176 -103 976 0
344 -977 0
-355 -977 0
-344 355 977 0
-57 -978 0
50 -978 0
57 -50 978 0
157 -979 0
13 -979 0
-157 -13 979 0
54 -980 0
220 -980 0
-54 -220 980 0
-328 -981 0
211 -981 0
328 -211 981 0
324 -982 0
409 -982 0
-324 -409 982 0
-25 -983 0
111 -983 0
25 -111 983 0
351 -984 0
-454 -984 0
-351 454 984 0
-345 -985 0
123 -985 0
345 -123 985 0
196 -986 0
425 -986 0
-196 -425 986 0
-74 -987 0
28 -987 0
74 -28 987 0
-352 -988 0
466 -988 0
352 -466 988 0
475 -989 0
354 -989 0
-475 -354 989 0
276 -990 0
-87 -990 0
-276 87 990 0
320 -991 0
230 -991 0
-320 -230 991 0
159 -992 0
-250 -992 0
-159 250 992 0
91 -993 0
145 -993 0
-91 -145 993 0
-129 -994 0
54 -994 0
129 -54 994 0
478 -995 0
-93 -995 0
-478 93 995 0
104 -996 0
385 -996 0
-104 -385 996 0
-81 -997 0
199 -997 0
81 -199 997 0
168 -998 0
60 -998 0
-168 -60 998 0
-195 -999 0
193 -999 0
195 -193 999 0
365 -1000 0
-277 -1000 0
-365 277 1000 0
-434 -1001 0
251 -1001 0
434 -251 1001 0
216 -1002 0
367 -1002 0
-216 -367 1002 0
297 -1003 0
41 -1003 0
-297 -41 1003 0
312 -1004 0
87 -1004 0
-312 -87 1004 0
220 -1005 0
-191 -1005 0
-220 191 1005 0
206 -1006 0
-389 -1006 0
-206 389 1006 0
288 -1007 0
-101 -1007 0
-288 101 1007 0
-323 -1008 0
117 -1008 0
323 -117 1008 0
453 -1009 0
468 -1009 0
-453 -468 1009 0
380 -1010 0
155 -1010 0
-380 -155 1010 0
471 -1011 0
303 -1011 0
-471 -303 1011 0
424 -1012 0
15 -1012 0
-424 -15 1012 0
216 -1013 0
-300 -1013 0
-216 300 1013 0
191 -1014 0
311 -1014 0
-191 -311 1014 0
-298 -1015 0
273 -1015 0
298 -273 1015 0
-282 -1016 0
389 -1016 0
282 -389 1016 0
-416 -1017 0
215 -1017 0
416 -215 1017 0
109 -1018 0
92 -1018 0
-109 -92 1018 0
206 -1019 0
-34 -1019 0
-206 34 1019 0
-38 -1020 0
385 -1020 0
38 -385 1020 0
24 -1021 0
418 -1021 0
-24 -418 1021 0
-377 -1022 0
115 -1022 0
377 -115 1022 0
279 -1023 0
-354 -1023 0
-279 354 1023 0
-401 -1024 0
229 -1024 0
401 -229 1024 0
72 -1025 0
-351 -1025 0
-72 351 1025 0
-120 -1026 0
290 -1026 0
120 -290 1026 0
-174 -1027 0
226 -1027 0
174 -226 1027 0
-250 -1028 0
331 -1028 0
250 -331 1028 0
-65 -1029 0
2 -1029 0
65 -2 1029 0
479 -1030 0
-478 -1030 0
-479 478 1030 0
332 -1031 0
481 -1031 0
-332 -481 1031 0
-202 -1032 0
342 -1032 0
202 -342 1032 0
-405 -1033 0
201 -1033 0
405 -201 1033 0
23 -1034 0
-215 -1034 0
-23 215 1034 0
496 -1035 0
-315 -1035 0
-496 315 1035 0
200 -1036 0
19 -1036 0
-200 -19 1036 0
71 -1037 0
-132 -1037 0
-71 132 1037 0
124 -1038 0
36 -1038 0
-124 -36 1038 0
126 -1039 0
409 -1039 0
-126 -409 1039 0
116 -1040 0
41 -1040 0
-116 -41 1040 0
-41 -1041 0
146 -1041 0
41 -146 1041 0
-213 -1042 0
386 -1042 0
213 -386 1042 0
85 -1043 0
-238 -1043 0
-85 238 1043 0
227 -1044 0
-222 -1044 0
-227 222 1044 0
472 -1045 0
460 -1045 0
-472 -460 1045 0
442 -1046 0
282 -1046 0
-442 -282 1046 0
222 -1047 0
-67 -1047 0
-222 67 1047 0
-197 -1048 0
50 -1048 0
197 -50 1048 0
239 -1049 0
269 -1049 0
-239 -269 1049 0
-44 -1050 0
497 -1050 0
44 -497 1050 0
84 -1051 0
-341 -1051 0
-84 341 1051 0
23 -1052 0
465 -1052 0
-23 -465 1052 0
63 -1053 0
202 -1053 0
-63 -202 1053 0
418 -1054 0
146 -1054 0
-418 -146 1054 0
376 -1055 0
-384 -1055 0
-376 384 1055 0
90 -1056 0
-103 -1056 0
-90 103 1056 0
-392 -1057 0
139 -1057 0
392 -139 1057 0
187 -1058 0
298 -1058 0
-187 -298 1058 0
47 -1059 0
109 -1059 0
-47 -109 1059 0
318 -1060 0
-468 -1060 0
-318 468 1060 0
-475 -1061 0
65 -1061 0
475 -65 1061 0
240 -1062 0
445 -1062 0
-240 -445 1062 0
-459 -1063 0
425 -1063 0
459 -425 1063 0
446 -1064 0
186 -1064 0
-446 -186 1064 0
-258 -1065 0
253 -1065 0
258 -253 1065 0
-322 -1066 0
313 -1066 0
322 -313 1066 0
270 -1067 0
-381 -1067 0
-270 381 1067 0
453 -1068 0
357 -1068 0
-453 -357 1068 0
286 -1069 0
51 -1069 0
-286 -51 1069 0
-376 -1070 0
451 -1070 0
376 -451 1070 0
392 -1071 0
-434 -1071 0
-392 434 1071 0
23 -1072 0
-462 -1072 0
-23 462 1072 0
154 -1073 0
-294 -1073 0
-154 294 1073 0
133 -1074 0
-383 -1074 0
-133 383 1074 0
167 -1075 0
-322 -1075 0
-167 322 1075 0
-312 -1076 0
395 -1076 0
312 -395 1076 0
411 -1077 0
-374 -1077 0
-411 374 1077 0
64 -1078 0
-63 -1078 0
-64 63 1078 0
344 -1079 0
149 -1079 0
-344 -149 1079 0
166 -1080 0
-149 -1080 0
-166 149 1080 0
-163 -1081 0
195 -1081 0
163 -195 1081 0
-337 -1082 0
477 -1082 0
337 -477 1082 0
190 -1083 0
-347 -1083 0
-190 347 1083 0
87 -1084 0
-468 -1084 0
-87 468 1084 0
469 -1085 0
-252 -1085 0
-469 252 1085 0
-185 -1086 0
142 -1086 0
185 -142 1086 0
-497 -1087 0
251 -1087 0
497 -251 1087 0
464 -1088 0
-379 -1088 0
-464 379 1088 0
477 -1089 0
41 -1089 0
-477 -41 1089 0
42 -1090 0
-438 -1090 0
-42 438 1090 0
31 -1091 0
100 -1091 0
-31 -100 1091 0
88 -1092 0
299 -1092 0
-88 -299 1092 0
-465 -1093 0
293 -1093 0
465 -293 1093 0
247 -1094 0
-359 -1094 0
-247 359 1094 0
487 -1095 0
403 -1095 0
-487 -403 1095 0
445 -1096 0
-437 -1096 0
-445 437 1096 0
328 -1097 0
244 -1097 0
-328 -244 1097 0
69 -1098 0
-311 -1098 0
-69 311 1098 0
411 -1099 0
74 -1099 0
-411 -74 1099 0
171 -1100 0
50 -1100 0
-171 -50 1100 0
220 -1101 0
219 -1101 0
-220 -219 1101 0
432 -1102 0
-232 -1102 0
-432 232 1102 0
136 -1103 0
-132 -1103 0
-136 132 1103 0
323 -1104 0
274 -1104 0
-323 -274 1104 0
-97 -1105 0
290 -1105 0
97 -290 1105 0
-364 -1106 0
395 -1106 0
364 -395 1106 0
135 -1107 0
445 -1107 0
-135 -445 1107 0
-89 -1108 0
138 -1108 0
89 -138 1108 0
243 -1109 0
-63 -1109 0
-243 63 1109 0
143 -1110 0
125 -1110 0
-143 -125 1110 0
259 -1111 0
24 -1112 0
-1 -1112 0
-24 1 1112 0
250 -1113 0
-270 -1113 0
-250 270 1113 0
-451 -1114 0
388 -1114 0
451 -388 1114 0
288 -1115 0
-340 -1115 0
-288 340 1115 0
175 -1116 0
-75 -1116 0
-175 75 1116 0
-338 -1117 0
139 -1117 0
338 -139 1117 0
472 -1118 0
-439 -1118 0
-472 439 1118 0
78 -1119 0
-364 -1119 0
-78 364 1119 0
144 -1120 0
-335 -1120 0
-144 335 1120 0
278 -1121 0
332 -1121 0
-278 -332 1121 0
-297 -1122 0
201 -1122 0
297 -201 1122 0
418 -1123 0
-87 -1123 0
-418 87 1123 0
360 -1124 0
60 -1124 0
-360 -60 1124 0
-99 -1125 0
283 -1125 0
99 -283 1125 0
487 -1126 0
225 -1126 0
-487 -225 1126 0
440 -1127 0
-446 -1127 0
-440 446 1127 0
190 -1128 0
-483 -1128 0
-190 483 1128 0
474 -1129 0
-31 -1129 0
-474 31 1129 0
406 -1130 0
-107 -1130 0
-406 107 1130 0
416 -1131 0
317 -1131 0
-416 -317 1131 0
10 -1132 0
498 -1132 0
-10 -498 1132 0
-26 -1133 0
61 -1133 0
26 -61 1133 0
453 -1134 0
-341 -1134 0
-453 341 1134 0
455 -1135 0
233 -1135 0
-455 -233 1135 0
470 -1136 0
-332 -1136 0
-470 332 1136 0
232 -1137 0
307 -1137 0
-232 -307 1137 0
-220 -1138 0
379 -1138 0
220 -379 1138 0
269 -1139 0
-181 -1139 0
-269 181 1139 0
238 -1140 0
-87 -1140 0
-238 87 1140 0
204 -1141 0
466 -1141 0
-204 -466 1141 0
8 -1142 0
-132 -1142 0
-8 132 1142 0
167 -1143 0
163 -1143 0
-167 -163 1143 0
47 -1144 0
385 -1144 0
-47 -385 1144 0
315 -1145 0
387 -1145 0
-315 -387 1145 0
295 -1146 0
-47 -1146 0
-295 47 1146 0
383 -1147 0
52 -1147 0
-383 -52 1147 0
291 -1148 0
161 -1148 0
-291 -161 1148 0
13 -1149 0
9 -1149 0
-13 -9 1149 0
269 -1150 0
481 -1150 0
-269 -481 1150 0
146 -1151 0
-423 -1151 0
-146 423 1151 0
222 -1152 0
290 -1152 0
-222 -290 1152 0
-392 -1153 0
342 -1153 0
392 -342 1153 0
7 -1154 0
435 -1154 0
-7 -435 1154 0
165 -1155 0
219 -1155 0
-165 -219 1155 0
356 -1156 0
-76 -1156 0
-356 76 1156 0
-119 -1157 0
465 -1157 0
119 -465 1157 0
-401 -1158 0
155 -1158 0
401 -155 1158 0
-456 -1159 0
224 -1159 0
456 -224 1159 0
173 -1160 0
259 -1160 0
-173 -259 1160 0
-296 -1161 0
338 -1161 0
296 -338 1161 0
328 -1162 0
108 -1162 0
-328 -108 1162 0
166 -1163 0
-30 -1163 0
-166 30 1163 0
413 -1164 0
-437 -1164 0
-413 437 1164 0
22 -1165 0
20 -1165 0
-22 -20 1165 0
-336 -1166 0
299 -1166 0
336 -299 1166 0
342 -1167 0
114 -1167 0
-342 -114 1167 0
-444 -1168 0
449 -1168 0
444 -449 1168 0
25 -1169 0
-31 -1169 0
-25 31 1169 0
218 -1170 0
-303 -1170 0
-218 303 1170 0
24 -1171 0
-210 -1171 0
-24 210 1171 0
372 -1172 0
219 -1172 0
-372 -219 1172 0
-202 -1173 0
410 -1173 0
202 -410 1173 0
-307 -1174 0
148 -1174 0
307 -148 1174 0
259 -1175 0
385 -1175 0
-259 -385 1175 0
487 -1176 0
-447 -1176 0
-487 447 1176 0
111 -1177 0
186 -1177 0
-111 -186 1177 0
496 -1178 0
473 -1178 0
-496 -473 1178 0
16 -1179 0
-53 -1179 0
-16 53 1179 0
7 -1180 0
-115 -1180 0
-7 115 1180 0
223 -1181 0
113 -1181 0
-223 -113 1181 0
291 -1182 0
370 -1182 0
-291 -370 1182 0
200 -1183 0
136 -1183 0
-200 -136 1183 0
200 -1184 0
23 -1184 0
-200 -23 1184 0
66 -1185 0
-87 -1185 0
-66 87 1185 0
32 -1186 0
207 -1186 0
-32 -207 1186 0
456 -1187 0
80 -1187 0
-456 -80 1187 0
-73 -1188 0
57 -1188 0
73 -57 1188 0
40 -1189 0
-329 -1189 0
-40 329 1189 0
-312 -1190 0
350 -1190 0
312 -350 1190 0
151 -1191 0
35 -1191 0
-151 -35 1191 0
-316 -1192 0
313 -1192 0
316 -313 1192 0
323 -1193 0
202 -1193 0
-323 -202 1193 0
117 -1194 0
36 -1194 0
-117 -36 1194 0
350 -1195 0
-68 -1195 0
-350 68 1195 0
-345 -1196 0
327 -1196 0
345 -327 1196 0
170 -1197 0
210 -1197 0
-170 -210 1197 0
-201 -1198 0
348 -1198 0
201 -348 1198 0
-465 -1199 0
78 -1199 0
465 -78 1199 0
171 -1200 0
106 -1200 0
-171 -106 1200 0
-432 -1201 0
218 -1201 0
432 -218 1201 0
148 -1202 0
-493 -1202 0
-148 493 1202 0
-307 -1203 0
273 -1203 0
307 -273 1203 0
-499 -1204 0
82 -1204 0
499 -82 1204 0
76 -1205 0
-357 -1205 0
-76 357 1205 0
271 -1206 0
79 -1206 0
-271 -79 1206 0
-9 -1207 0
365 -1207 0
9 -365 1207 0
231 -1208 0
-85 -1208 0
-231 85 1208 0
-24 -1209 0
251 -1209 0
24 -251 1209 0
288 -1210 0
-79 -1210 0
-288 79 1210 0
240 -1211 0
-88 -1211 0
-240 88 1211 0
213 -1212 0
373 -1212 0
-213 -373 1212 0
144 -1213 0
-181 -1213 0
-144 181 1213 0
-425 -1214 0
115 -1214 0
425 -115 1214 0
-288 -1215 0
446 -1215 0
288 -446 1215 0
4 -1216 0
-341 -1216 0
-4 341 1216 0
-272 -1217 0
169 -1217 0
272 -169 1217 0
422 -1218 0
36 -1218 0
-422 -36 1218 0
192 -1219 0
-87 -1219 0
-192 87 1219 0
158 -1220 0
-460 -1220 0
-158 460 1220 0
478 -1221 0
-326 -1221 0
-478 326 1221 0
-488 -1222 0
323 -1222 0
488 -323 1222 0
63 -1223 0
490 -1223 0
-63 -490 1223 0
-354 -1224 0
450 -1224 0
354 -450 1224 0
175 -1225 0
-291 -1225 0
-175 291 1225 0
-163 -1226 0
45 -1226 0
163 -45 1226 0
158 -1227 0
226 -1227 0
-158 -226 1227 0
388 -1228 0
67 -1228 0
-388 -67 1228 0
454 -1229 0
-187 -1229 0
-454 187 1229 0
375 -1230 0
346 -1230 0
-375 -346 1230 0
243 -1231 0
186 -1231 0
-243 -186 1231 0
-18 -1232 0
21 -1232 0
18 -21 1232 0
29 -1233 0
35 -1233 0
-29 -35 1233 0
438 -1234 0
362 -1234 0
-438 -362 1234 0
476 -1235 0
-333 -1235 0
-476 333 1235 0
385 -1236 0
177 -1236 0
-385 -177 1236 0
466 -1237 0
-22 -1237 0
-466 22 1237 0
-377 -1238 0
139 -1238 0
377 -139 1238 0
-480 -1239 0
232 -1239 0
480 -232 1239 0
-273 -1240 0
143 -1240 0
273 -143 1240 0
-4 -1241 0
418 -1241 0
4 -418 1241 0
-49 -1242 0
369 -1242 0
49 -369 1242 0
165 -1243 0
-391 -1243 0
-165 391 1243 0
-240 -1244 0
356 -1244 0
240 -356 1244 0
20 -1245 0
-278 -1245 0
-20 278 1245 0
-1 -1246 0
202 -1246 0
1 -202 1246 0
438 -1247 0
61 -1247 0
-438 -61 1247 0
329 -1248 0
-375 -1248 0
-329 375 1248 0
438 -1249 0
446 -1249 0
-438 -446 1249 0
303 -1250 0
-246 -1250 0
-303 246 1250 0
-315 -1251 0
225 -1251 0
315 -225 1251 0
326 -1252 0
-442 -1252 0
-326 442 1252 0
-106 -1253 0
430 -1253 0
106 -430 1253 0
439 -1254 0
237 -1254 0
-439 -237 1254 0
151 -1255 0
463 -1255 0
-151 -463 1255 0
-42 -1256 0
28 -1256 0
42 -28 1256 0
204 -1257 0
18 -1257 0
-204 -18 1257 0
294 -1258 0
73 -1258 0
-294 -73 1258 0
-361 -1259 0
13 -1259 0
361 -13 1259 0
331 -1260 0
82 -1260 0
-331 -82 1260 0
477 -1261 0
-318 -1261 0
-477 318 1261 0
