p cnf 1000 31258
608 -437 0
-2 0
-980 0
-879 20 0
-267 0
83 -994 0
-781 0
921 -454 0
-341 -34 0
-480 0
-725 0
-636 0
-440 949 0
-743 -517 0
-735 506 0
-785 -897 0
466 -115 0
-695 -819 0
202 -764 0
-815 0
-658 198 0
-256 0
-152 0
744 -982 0
943 -401 0
-989 0
-667 0
-352 -520 0
126 -937 0
-827 455 0
-323 0
-128 -205 0
-967 0
-8 -763 0
-8 0
465 -644 0
-207 930 0
-68 -676 0
-493 156 0
-413 781 0
-392 -409 0
-318 0
-941 0
-808 836 0
-54 -580 0
-728 -950 0
-896 -220 0
-364 -545 0
657 -475 0
-513 0
-193 0
64 -586 0
-924 756 0
-198 494 0
-744 -257 0
315 -691 0
-141 420 0
-729 0
516 -722 0
-44 0
648 -16 0
-370 0
-619 0
-118 -540 0
-363 -753 0
-460 0
-811 0
-410 -705 0
609 -963 0
-710 -5 0
-1000 927 0
-50 55 0
-834 870 0
-109 -837 0
-487 163 0
-288 0
-552 0
987 -788 0
-960 0
-776 358 0
-959 33 0
579 -195 0
348 -42 0
-639 625 0
-541 0
-283 751 0
-143 -10 0
-556 398 0
-79 660 0
-670 0
-807 438 0
-741 0
-827 0
912 -234 0
-71 826 0
499 -411 0
-550 620 0
522 -642 0
-976 -459 0
805 -257 0
-982 238 0
-938 0
171 -882 0
-805 0
-784 -925 0
889 -942 0
-39 0
-332 -834 0
952 -778 0
-763 0
162 -218 0
-635 694 0
-800 -705 0
-503 0
-160 126 0
-294 550 0
-509 -370 0
-530 687 0
-84 583 0
-429 -229 0
-289 -73 0
-359 710 0
598 -282 0
410 -773 0
-743 354 0
-266 0
-451 0
-822 330 0
-365 -868 0
-452 516 0
-693 0
-598 0
528 -274 0
-62 -913 0
-643 535 0
-667 885 0
-653 422 0
-841 0
-824 0
-73 0
-48 -474 0
-315 0
-342 -109 0
-643 0
-700 238 0
-669 0
-332 0
-624 204 0
676 -707 0
-448 -354 0
-676 694 0
-744 0
-979 0
-630 -510 0
-70 0
-768 -981 0
-352 -43 0
-537 0
598 -562 0
-128 -429 0
226 -148 0
-456 0
-679 -538 0
825 -566 0
-283 429 0
866 -654 0
801 -68 0
-884 0
795 -332 0
-432 -457 0
-664 0
459 -772 0
329 -538 0
-699 0
-500 -994 0
882 -980 0
-231 0
-778 0
-62 0
-780 173 0
-28 0
-481 0
-971 0
-47 -972 0
-118 483 0
-312 -735 0
864 -808 0
616 -957 0
-563 0
-676 0
-486 0
-367 -438 0
-371 0
264 -776 0
-203 -938 0
513 -498 0
902 -145 0
-593 0
388 -691 0
994 -876 0
-527 0
-918 0
448 -801 0
-983 0
-148 -299 0
-115 0
-456 0
-359 855 0
-671 638 0
-406 0
-539 0
-516 0
-834 0
-584 0
-196 0
-684 0
-871 418 0
-664 0
-978 0
-575 0
-327 0
-152 -469 0
-557 0
-708 101 0
-219 -249 0
-628 0
-176 -30 0
-373 0
-857 0
-104 -330 0
126 -545 0
337 -682 0
872 -374 0
-935 0
-925 382 0
806 -761 0
-374 0
-178 0
-15 -406 0
-855 0
-838 427 0
-936 0
-805 0
-105 0
-835 0
-983 741 0
-692 -58 0
-919 0
-633 0
-726 0
11 -317 0
797 -179 0
-342 -764 0
-599 702 0
-1000 107 0
-888 426 0
779 -908 0
-66 0
-854 0
-832 -443 0
-680 -399 0
-427 0
729 -730 0
-295 732 0
-325 -850 0
521 -598 0
-15 807 0
-362 0
-958 -994 0
-453 0
821 -57 0
-257 0
-952 488 0
-262 0
-103 -109 0
-224 0
-440 0
-564 0
-855 724 0
-789 0
-535 -20 0
-937 0
-589 0
-644 0
-915 0
-964 0
-875 270 0
-430 468 0
-294 0
-729 0
-935 0
-641 0
-211 0
328 -982 0
-479 -404 0
-463 0
617 -921 0
552 -964 0
-269 -233 0
-864 -994 0
-928 564 0
-38 0
-266 0
-693 0
-430 660 0
-114 -930 0
-884 -523 0
522 -843 0
-946 0
-247 0
512 -219 0
-761 0
528 -531 0
-779 0
321 -779 0
-497 0
-877 902 0
-2 -945 0
-672 -359 0
58 -76 0
131 -524 0
-804 0
-185 -281 0
-951 479 0
-567 0
-84 911 0
170 -755 0
-759 -817 0
-822 -897 0
-791 -446 0
-836 0
392 -948 0
-589 110 0
-688 -425 0
-511 526 0
-290 0
-641 0
-133 0
-228 462 0
500 -170 0
-916 -281 0
-401 311 0
-98 0
761 -131 0
-616 237 0
-174 415 0
-792 -884 0
-661 0
-783 0
-683 0
420 -858 0
-331 -417 0
-404 -28 0
-117 230 0
-491 334 0
-816 421 0
-876 421 0
-428 -89 0
-544 -499 0
-783 0
-312 0
-204 0
-894 -164 0
-552 -521 0
426 -258 0
-503 0
-850 0
-592 -895 0
-684 359 0
-871 -173 0
-155 -35 0
-679 690 0
-691 0
-334 -29 0
586 -514 0
-624 639 0
-836 -539 0
605 -835 0
-710 -242 0
-3 -929 0
-541 0
-811 0
-732 286 0
-244 0
-154 510 0
-715 0
-134 0
-606 550 0
-355 414 0
-708 0
-340 0
-12 0
-534 -713 0
-547 861 0
-951 63 0
-789 0
-154 0
-527 -258 0
-176 910 0
-880 40 0
878 -538 0
-607 695 0
-349 0
-994 0
129 -977 0
-889 0
-363 0
-830 -334 0
864 -310 0
-694 364 0
-518 0
-295 103 0
-244 -755 0
-213 0
-362 879 0
-640 696 0
75 -682 0
-140 0
-944 0
-489 0
-797 0
-175 0
-487 242 0
-178 0
917 -282 0
-806 0
-686 0
-355 0
-975 0
-227 0
-87 0
24 -557 0
-815 -930 0
-821 116 0
-816 0
-857 -609 0
423 -777 0
-336 726 0
804 -418 0
169 -675 0
-762 0
-917 0
-664 35 0
-234 0
-362 -305 0
-535 -245 0
-578 0
-749 453 0
-365 831 0
98 -276 0
-189 -211 0
-696 538 0
-736 0
-62 -114 0
-174 0
-196 0
-151 860 0
616 -178 0
-294 -452 0
56 -775 0
-11 0
-663 0
-114 -33 0
-240 308 0
-779 0
-144 69 0
-112 -989 0
-754 495 0
-543 -212 0
-694 -737 0
-62 75 0
-232 63 0
-300 0
698 -458 0
-488 -733 0
-560 0
-123 -986 0
3 -986 0
-562 0
-168 440 0
-649 0
-493 -53 0
-818 0
-831 0
444 -372 0
-331 590 0
-827 519 0
315 -365 0
584 -432 0
-93 -369 0
-50 0
221 -697 0
-701 0
-400 0
-334 0
-500 0
-851 0
-678 55 0
554 -149 0
-175 941 0
182 -338 0
739 -777 0
-205 0
-281 0
-391 799 0
-545 0
-979 0
-494 -564 0
137 -571 0
-359 -324 0
-366 -963 0
-452 0
-989 325 0
-853 0
-713 0
-663 -239 0
-845 0
-104 12 0
-774 -587 0
-496 218 0
-132 949 0
361 -243 0
-743 983 0
-547 -10 0
-950 0
-596 286 0
-930 -617 0
-600 314 0
-684 0
905 -692 0
-167 0
-699 0
-44 0
768 -413 0
-479 -673 0
310 -865 0
-144 127 0
676 -826 0
-624 -446 0
-640 0
-964 742 0
-900 -827 0
-990 0
-847 -817 0
729 -213 0
-685 0
-972 0
-86 0
196 -441 0
-233 447 0
-931 0
-152 600 0
662 -690 0
-84 0
-659 0
-323 0
187 -931 0
-656 0
-928 -284 0
-55 0
-619 -713 0
-799 444 0
984 -910 0
871 -633 0
-620 0
-520 0
-707 294 0
-712 526 0
-462 470 0
-116 0
-388 0
-146 0
-748 446 0
-238 -518 0
501 -939 0
-825 0
-182 -739 0
-270 116 0
939 -929 0
-373 0
298 -73 0
-584 -141 0
-203 -762 0
712 -387 0
-254 123 0
-228 0
11 -660 0
916 -457 0
585 -654 0
568 -388 0
353 -69 0
-495 -602 0
-729 0
-680 -490 0
-607 -883 0
-40 781 0
-117 139 0
-554 0
-238 0
-806 0
-144 233 0
-140 0
-209 695 0
-576 420 0
-664 967 0
-784 0
942 -769 0
-779 0
-856 -753 0
-647 0
972 -898 0
932 -394 0
-182 0
-458 0
-316 -411 0
-176 -43 0
-758 0
-722 0
-462 0
-510 0
-207 931 0
573 -657 0
906 -245 0
-140 0
-242 0
280 -267 0
-360 -475 0
-832 882 0
-263 0
-24 -449 0
651 -866 0
-574 604 0
-846 -137 0
-495 -914 0
-635 0
-487 0
591 -33 0
-436 0
-891 0
-261 695 0
-976 0
-499 -218 0
-614 0
-883 0
-71 999 0
-742 677 0
-637 0
-646 828 0
-736 -588 0
-238 4 0
-554 0
-570 0
-675 0
97 -471 0
-694 843 0
-66 0
-495 514 0
-478 0
602 -202 0
-743 278 0
-431 0
-678 182 0
-236 0
-853 -233 0
-59 701 0
-714 0
188 -164 0
-712 -58 0
-670 -891 0
-933 -52 0
80 -947 0
58 -709 0
753 -991 0
339 -954 0
-626 727 0
585 -329 0
-936 0
-912 862 0
-924 0
-696 243 0
-48 367 0
-475 -498 0
-578 0
-320 545 0
-914 -530 0
-91 0
-984 762 0
-44 487 0
912 -420 0
85 -449 0
-176 0
-662 0
-366 -545 0
-842 0
-602 0
-868 0
-366 -52 0
-944 0
-388 0
-260 0
-270 0
-338 0
692 -241 0
-420 0
-281 0
-606 746 0
-66 0
-424 0
-943 239 0
-456 0
-46 327 0
-936 0
-62 0
-870 -876 0
-968 0
565 -315 0
-453 0
-460 0
897 -905 0
-294 -826 0
-245 0
-405 0
-358 373 0
-303 13 0
569 -662 0
-284 557 0
-238 0
-247 0
122 -685 0
-687 805 0
-699 0
-817 0
-984 455 0
858 -553 0
-39 -926 0
-453 -258 0
385 -295 0
920 -770 0
-662 -476 0
-245 349 0
-909 468 0
-990 -484 0
-168 -179 0
-859 -626 0
-641 0
-327 0
640 -345 0
-315 701 0
-216 0
-511 341 0
-986 0
-280 0
-194 0
-536 0
571 -68 0
-454 -745 0
-85 0
-342 0
-660 0
-26 0
-387 0
-570 0
-847 0
-389 0
-10 0
760 -393 0
-421 -490 0
-358 0
832 -281 0
979 -122 0
329 -726 0
-109 -428 0
-264 165 0
-648 0
-330 0
515 -413 0
232 -853 0
275 -523 0
409 -673 0
-907 431 0
-575 -446 0
-442 0
-352 -762 0
-111 0
-884 0
-342 933 0
-464 -156 0
-583 -3 0
-264 0
-775 158 0
-807 0
-118 0
-921 0
-605 990 0
-701 -121 0
736 -14 0
-867 0
118 -666 0
537 -574 0
-144 -376 0
-678 495 0
-289 0
-743 -474 0
-597 0
-902 0
-572 -604 0
-205 0
877 -891 0
-392 0
-676 0
-954 0
89 -49 0
-634 495 0
-614 0
-191 0
-335 -622 0
-976 -833 0
-109 -530 0
-552 -86 0
-140 702 0
-181 0
580 -474 0
-111 124 0
-348 0
-579 0
-445 605 0
-70 -722 0
-768 -341 0
-783 431 0
651 -987 0
-856 0
485 -2 0
-964 0
-531 0
-908 -915 0
-653 -537 0
-466 0
-172 0
473 -69 0
-389 0
731 -618 0
-670 0
-694 0
-167 0
460 -841 0
-541 0
290 -531 0
-269 -153 0
-802 0
-408 0
-696 -287 0
-48 831 0
92 -619 0
529 -670 0
922 -314 0
-392 175 0
-187 0
-646 0
-630 666 0
408 -265 0
-597 0
-239 0
-555 0
-648 -842 0
-7 289 0
-745 0
-621 0
369 -765 0
-539 0
-239 789 0
-673 -313 0
-791 4 0
-17 0
58 -769 0
-580 0
-274 0
-181 -269 0
-17 0
-904 -557 0
-214 477 0
620 -210 0
-403 -41 0
-467 -202 0
-534 0
-46 318 0
-39 -555 0
888 -330 0
-736 346 0
-332 0
-22 46 0
-729 0
-144 0
-933 -549 0
-165 0
-901 -970 0
-739 -569 0
-596 0
-526 527 0
-327 657 0
-57 335 0
-216 756 0
-969 0
-861 0
-503 281 0
-215 -798 0
-766 0
-961 0
-39 -533 0
-548 -402 0
-444 0
-806 0
-282 0
-141 0
-771 -875 0
-842 0
-223 0
-510 -805 0
-303 0
-96 -537 0
-847 0
170 -861 0
-688 639 0
-144 0
-497 0
-697 0
574 -705 0
-872 581 0
-556 0
-496 -786 0
-775 249 0
-277 0
-286 626 0
58 -614 0
-543 -991 0
-709 -795 0
-480 0
-438 0
585 -665 0
-724 604 0
170 -811 0
-933 -89 0
762 -723 0
-608 -553 0
34 -61 0
-98 0
-488 -725 0
-353 0
-330 0
-759 353 0
553 -812 0
201 -843 0
-430 0
-991 214 0
-942 0
-421 110 0
-363 703 0
-476 -194 0
-152 0
-143 332 0
-28 -355 0
144 -685 0
-821 119 0
657 -196 0
-708 0
32 -626 0
-973 -554 0
-505 0
-402 0
-290 0
-439 -941 0
-761 -329 0
-806 0
-950 0
680 -218 0
-507 0
748 -268 0
-851 447 0
387 -259 0
-504 852 0
-918 838 0
-631 -323 0
-845 790 0
-320 708 0
-128 0
-654 639 0
-862 0
312 -834 0
-440 349 0
-100 -161 0
586 -787 0
414 -970 0
-791 0
-440 0
-583 -493 0
-442 -265 0
-734 -387 0
-519 -274 0
-144 -24 0
-959 -282 0
-960 0
-342 -958 0
-588 -299 0
-894 -555 0
-528 0
-387 0
-688 364 0
-927 0
-966 -490 0
-448 0
-568 0
-777 0
-968 846 0
725 -938 0
187 -36 0
-486 0
-184 269 0
-122 -650 0
-32 0
-71 0
587 -717 0
385 -813 0
-951 0
-320 0
-185 0
-773 -763 0
283 -817 0
-892 0
-843 878 0
-142 0
314 -291 0
146 -833 0
-104 599 0
-170 0
-968 480 0
549 -98 0
-676 0
-429 -786 0
-214 -595 0
893 -337 0
-561 0
-117 413 0
626 -418 0
837 -617 0
-262 567 0
-423 0
-732 0
-480 -246 0
-269 0
-295 517 0
-139 0
427 -947 0
-258 0
16 -190 0
-15 411 0
724 -228 0
-355 0
-240 0
-592 0
-408 -687 0
-988 134 0
-11 230 0
-333 0
-567 383 0
978 -924 0
-442 0
-64 -859 0
-935 -820 0
-697 0
-222 0
-699 0
-585 -753 0
-407 -748 0
-767 -505 0
-140 0
-872 -254 0
-696 -872 0
-794 0
-797 -825 0
501 -891 0
-380 -739 0
-751 -780 0
-767 218 0
801 -779 0
-608 418 0
-897 0
-472 -647 0
-53 0
-72 -825 0
-655 0
881 -787 0
-320 -169 0
-389 0
468 -508 0
-911 0
889 -743 0
-636 0
-360 124 0
-510 -667 0
-776 0
-261 -124 0
-929 -617 0
-675 477 0
-44 0
-235 -345 0
802 -242 0
-328 0
537 -369 0
-44 0
-21 0
379 -426 0
-103 499 0
-934 395 0
-711 662 0
984 -58 0
-991 -818 0
498 -748 0
-76 727 0
-290 0
140 -425 0
-25 0
-379 0
-692 0
562 -851 0
-239 -894 0
-375 0
108 -531 0
-788 254 0
-846 0
-376 0
-353 0
-838 658 0
58 -774 0
105 -377 0
728 -942 0
994 -934 0
-165 0
721 -555 0
-679 0
-44 -316 0
954 -924 0
-838 -427 0
-798 -354 0
-639 -332 0
665 -715 0
-80 -151 0
-233 0
-588 0
-214 0
-466 -218 0
-407 598 0
576 -479 0
938 -798 0
826 -189 0
-271 0
912 -328 0
-937 0
-480 0
-698 687 0
235 -332 0
-852 -795 0
136 -801 0
-887 628 0
-223 -658 0
-180 0
-882 0
618 -778 0
-896 -868 0
-983 0
-271 102 0
-446 21 0
-430 0
-989 951 0
-466 0
-492 -594 0
-902 -906 0
-226 0
-13 0
744 -747 0
23 -265 0
-440 0
208 -302 0
-375 -491 0
-173 0
-671 0
-832 0
203 -492 0
-463 102 0
728 -76 0
-26 0
-607 -630 0
-628 0
-407 409 0
-551 675 0
531 -242 0
-24 915 0
-950 0
217 -287 0
721 -292 0
-787 0
-897 -281 0
584 -698 0
995 -275 0
-573 254 0
-752 -808 0
-919 0
-608 -554 0
-976 138 0
784 -508 0
-838 -717 0
-555 997 0
179 -27 0
-103 0
-505 0
-568 -67 0
-350 -963 0
-773 421 0
-132 735 0
-933 0
-228 0
-135 159 0
-551 862 0
-957 0
-950 0
-439 525 0
-606 -194 0
-245 0
-983 -810 0
-904 -35 0
-100 0
-999 -404 0
-2 0
260 -257 0
412 -793 0
99 -745 0
-989 0
-755 0
-20 0
-330 0
-740 78 0
-747 47 0
-253 0
-956 -331 0
-921 0
-411 -297 0
-51 0
-180 303 0
-860 519 0
-679 -538 0
-177 0
-847 -886 0
828 -716 0
-159 0
721 -788 0
-569 0
-426 0
-770 0
-490 0
697 -659 0
-502 348 0
-494 -259 0
-934 798 0
-558 797 0
-911 -996 0
-430 0
-376 0
-805 0
-760 -625 0
-721 0
-435 0
-680 -175 0
-207 -571 0
-812 0
-169 0
-916 -404 0
-375 941 0
-352 503 0
-497 0
932 -322 0
-576 -278 0
-765 0
-403 0
-444 0
-901 0
-703 0
921 -409 0
-859 0
-256 -762 0
986 -212 0
-190 0
-151 0
-269 383 0
-413 0
97 -227 0
-259 -987 0
289 -605 0
85 -107 0
-912 0
-501 -449 0
-353 0
-624 0
-821 0
497 -413 0
-338 0
-979 0
370 -214 0
-983 780 0
-823 -396 0
-919 -292 0
-768 0
176 -515 0
18 -116 0
-456 804 0
265 -89 0
-45 0
680 -215 0
-117 -601 0
-371 0
-966 0
-646 242 0
-709 686 0
-719 -476 0
-520 0
590 -801 0
728 -844 0
134 -946 0
-624 0
-597 0
288 -64 0
668 -700 0
-338 0
-719 0
-660 -491 0
178 -985 0
-468 0
-414 0
-911 351 0
-256 919 0
-669 718 0
-158 0
890 -654 0
-388 -52 0
-22 322 0
-152 793 0
-300 509 0
25 -404 0
-423 0
-532 567 0
-24 986 0
-775 0
-301 117 0
-943 746 0
-178 0
-159 -385 0
-731 -17 0
601 -171 0
-928 0
-357 0
-24 991 0
-96 826 0
-82 623 0
-784 0
-796 661 0
-127 228 0
-429 0
-956 12 0
-303 -635 0
826 -26 0
-614 0
-515 0
-335 0
-470 837 0
-99 -353 0
-785 0
-554 0
-392 -734 0
-587 0
-982 0
-45 -61 0
-616 0
-280 -882 0
-882 0
-436 -9 0
-750 -945 0
672 -385 0
-342 0
-528 954 0
-169 -289 0
-664 0
532 -746 0
-835 0
-143 0
929 -178 0
804 -220 0
-402 0
-389 -723 0
-853 173 0
-712 635 0
328 -772 0
-596 0
161 -978 0
-454 957 0
60 -444 0
-185 0
354 -659 0
-96 901 0
-934 0
-43 -161 0
-648 406 0
160 -391 0
-720 0
-782 291 0
225 -274 0
-853 -188 0
-399 788 0
-373 0
90 -427 0
-970 0
-593 0
-370 927 0
-404 -457 0
-336 42 0
-383 0
-15 421 0
-655 341 0
-8 -931 0
-296 0
-142 0
-118 -669 0
-971 -281 0
-658 -18 0
-341 0
-365 0
-68 -91 0
776 -259 0
-495 0
524 -313 0
-125 0
-174 -221 0
-652 0
-438 0
-776 99 0
-148 0
-104 0
-917 0
-578 -345 0
-832 -399 0
-421 0
-308 -180 0
-357 0
-868 0
689 -557 0
581 -131 0
979 -370 0
-627 0
-515 0
-32 0
-250 0
-400 -726 0
-588 -761 0
-606 0
856 -316 0
612 -954 0
966 -609 0
-743 537 0
-434 0
-807 0
-358 995 0
-744 0
-791 -578 0
-639 -965 0
-68 0
609 -849 0
-366 191 0
-712 0
-782 -227 0
-997 -834 0
-106 0
-491 414 0
-862 -698 0
-75 0
-30 -834 0
-931 0
-157 0
-636 509 0
-312 583 0
-564 695 0
-754 0
-431 -764 0
-319 -729 0
-311 -363 0
-856 -357 0
851 -58 0
570 -100 0
-152 0
-935 -186 0
-924 0
-2 0
-249 0
-997 -909 0
-809 0
-80 304 0
-629 -715 0
-486 0
-117 0
-989 422 0
-583 0
-358 0
-63 -307 0
392 -18 0
-773 692 0
-52 165 0
-528 14 0
-939 -993 0
840 -444 0
-238 0
-653 0
-966 -785 0
-644 0
-352 627 0
-376 499 0
-100 0
-979 535 0
-181 0
-792 34 0
-133 541 0
-83 0
-285 0
-328 467 0
-927 -667 0
-431 0
585 -746 0
553 -194 0
-244 0
-855 -221 0
-983 764 0
976 -269 0
-574 0
-622 231 0
-927 501 0
120 -591 0
749 -994 0
-340 0
-176 0
-188 230 0
545 -657 0
-652 -553 0
-294 -201 0
989 -419 0
-135 0
-132 0
-680 -188 0
-166 -85 0
-806 84 0
-287 -236 0
-752 0
-768 0
-935 0
290 -141 0
-829 0
299 -417 0
-453 0
-648 -347 0
-733 782 0
-931 0
-136 -265 0
-781 0
395 -642 0
998 -273 0
-267 0
-344 -430 0
-624 826 0
-647 -105 0
-760 -688 0
-141 -474 0
104 -369 0
-686 0
-744 998 0
-183 -601 0
680 -982 0
-22 362 0
281 -358 0
-324 0
-453 0
-520 579 0
-107 -218 0
-515 -763 0
456 -432 0
-116 0
-733 -997 0
-725 0
-288 -64 0
-440 883 0
-440 782 0
-441 0
-919 -212 0
-942 557 0
-216 482 0
-243 0
-287 0
-563 -98 0
-303 778 0
-989 420 0
-15 311 0
-184 0
-919 0
-866 0
-948 0
-872 0
406 -121 0
897 -934 0
-559 0
-170 270 0
-740 0
-855 -627 0
-294 631 0
980 -875 0
-238 354 0
-551 -100 0
-828 885 0
-896 -102 0
769 -105 0
-735 -35 0
-418 559 0
-720 0
-560 354 0
-984 0
-399 0
-906 -778 0
-438 643 0
143 -465 0
984 -107 0
-668 0
-224 380 0
-158 0
-603 0
-672 -810 0
-82 119 0
-328 0
-92 214 0
-23 -833 0
-6 0
962 -726 0
682 -484 0
-689 0
-371 806 0
-762 0
-76 78 0
-535 481 0
-739 0
-150 437 0
-815 0
-515 7 0
-764 0
-704 509 0
-630 0
-887 447 0
-224 835 0
-423 0
-660 -770 0
-847 0
-777 0
456 -551 0
-656 661 0
-905 0
-569 -849 0
365 -91 0
-734 203 0
-830 613 0
-797 653 0
-783 -1 0
-249 0
-359 287 0
571 -690 0
-590 827 0
-553 0
-680 0
-584 -392 0
-10 0
-601 0
-22 0
-469 -371 0
-422 -293 0
-702 716 0
-480 -572 0
-729 -817 0
-635 0
-958 0
-340 -939 0
-53 0
-806 147 0
-343 -781 0
-31 643 0
416 -562 0
-677 30 0
-497 0
-884 0
-368 554 0
-294 908 0
985 -126 0
-855 -365 0
-201 0
-200 -926 0
-965 0
587 -681 0
-660 950 0
-831 771 0
-63 0
-328 0
-970 -346 0
-363 150 0
504 -950 0
-184 0
635 -331 0
-917 0
-575 -518 0
-927 -100 0
345 -353 0
561 -66 0
-228 263 0
-783 -626 0
324 -995 0
-424 -490 0
965 -162 0
-952 0
-392 0
-354 0
684 -657 0
-991 527 0
-919 803 0
334 -841 0
-471 0
-399 -999 0
-877 630 0
-567 -388 0
-92 0
-455 0
-109 0
-96 836 0
-918 -553 0
-567 0
657 -252 0
320 -46 0
-824 -794 0
772 -994 0
-362 0
-294 0
-405 -34 0
961 -954 0
483 -315 0
780 -369 0
-496 0
-19 -394 0
-734 -395 0
-85 301 0
-615 66 0
-624 0
818 -163 0
-799 0
-172 -505 0
-36 0
792 -359 0
-228 0
-557 0
-704 748 0
-149 0
-775 0
-57 0
-817 0
985 -353 0
-816 258 0
-576 -601 0
-22 -13 0
-904 0
869 -849 0
267 -362 0
-123 0
921 -727 0
-124 -346 0
-143 754 0
-463 -223 0
-402 0
-454 -978 0
624 -432 0
-1 0
-466 0
-542 670 0
-227 0
-491 0
-996 0
-173 0
-476 927 0
-464 -559 0
-700 0
-719 0
-71 -300 0
-449 0
-456 135 0
-384 -177 0
101 -834 0
-694 -685 0
273 -803 0
-542 0
-698 679 0
634 -666 0
-350 0
-439 -826 0
-536 524 0
-172 0
-679 -254 0
-556 0
-198 -402 0
-308 0
-861 717 0
-832 -317 0
-461 -505 0
17 -901 0
-352 0
129 -397 0
-200 0
833 -462 0
-891 0
-267 910 0
-608 0
-231 869 0
266 -121 0
-787 -363 0
-176 -251 0
-582 0
-606 -741 0
-545 0
-188 0
48 -87 0
842 -682 0
-695 0
-765 -388 0
785 -186 0
362 -889 0
-8 124 0
-876 -348 0
58 -476 0
-390 0
668 -266 0
609 -267 0
-546 -177 0
-18 0
665 -900 0
-662 -237 0
842 -61 0
880 -916 0
-860 -756 0
-127 -628 0
-932 -683 0
-460 0
979 -554 0
236 -82 0
-534 51 0
-442 0
-774 0
208 -47 0
-432 0
-80 77 0
-104 284 0
-490 0
-559 -903 0
-328 482 0
-129 0
-342 724 0
-608 35 0
-223 290 0
739 -285 0
-62 149 0
-943 0
-179 0
940 -123 0
-68 -225 0
-379 0
-658 0
-719 -702 0
-49 0
-274 959 0
583 -961 0
635 -241 0
-744 -726 0
-136 811 0
-15 300 0
-740 0
860 -201 0
-734 -556 0
273 -467 0
841 -700 0
-415 540 0
147 -857 0
648 -722 0
-150 0
858 -293 0
-739 382 0
-856 -390 0
-668 -386 0
489 -93 0
-318 -323 0
-569 0
-219 0
-989 0
-808 -421 0
126 -978 0
-676 382 0
576 -143 0
628 -753 0
-613 0
-497 0
904 -956 0
-798 0
-188 0
-560 -272 0
-144 0
-466 559 0
819 -225 0
-25 0
-695 771 0
109 -770 0
-643 0
-991 -306 0
796 -130 0
-548 0
-166 -373 0
-948 0
-191 254 0
-270 0
-914 0
414 -546 0
-896 -443 0
-59 0
-763 0
-779 -393 0
-101 247 0
288 -868 0
-937 0
-971 0
-104 -291 0
-190 846 0
-112 -130 0
-45 37 0
-80 0
-917 0
-208 -651 0
507 -562 0
-695 -249 0
-822 891 0
-977 0
-997 350 0
-322 0
-190 917 0
-589 0
-336 462 0
-569 0
-514 0
-20 223 0
-458 0
-66 510 0
-79 0
970 -996 0
-341 0
416 -860 0
707 -260 0
-576 234 0
-391 331 0
-132 -593 0
-692 0
-718 -259 0
-964 0
-102 0
-855 -645 0
-946 711 0
-706 0
-870 0
-44 0
-188 0
-563 0
749 -595 0
-759 -511 0
130 -786 0
-850 695 0
128 -929 0
-815 852 0
665 -909 0
-317 0
-808 0
-949 0
-759 0
-373 -651 0
-344 0
-407 0
-902 -890 0
-69 243 0
-325 183 0
321 -54 0
-719 0
248 -219 0
-900 0
242 -853 0
-718 -795 0
-510 -925 0
-414 0
-764 0
-214 -457 0
-570 -729 0
-64 -10 0
-30 -316 0
-632 0
-571 989 0
-253 -133 0
-372 -284 0
-362 0
-610 -250 0
-407 -116 0
976 -718 0
-93 502 0
-794 623 0
-918 319 0
876 -354 0
-288 0
-47 510 0
-714 0
-144 0
-766 0
-691 -371 0
-134 0
-256 0
-90 -354 0
-793 0
-863 252 0
386 -531 0
-908 477 0
-726 0
-884 -114 0
-308 0
-543 0
-888 650 0
-855 814 0
290 -540 0
740 -889 0
-930 0
-69 572 0
-791 0
-573 391 0
-507 0
796 -585 0
795 -433 0
-312 0
-653 0
-58 0
-229 0
-373 0
996 -163 0
-70 0
-581 -268 0
-562 0
686 -777 0
843 -301 0
557 -337 0
-949 0
-221 -179 0
-776 930 0
-341 0
788 -579 0
-914 0
-636 0
-75 486 0
-447 -166 0
-500 0
-507 -2 0
-190 -43 0
-647 -122 0
-1000 116 0
570 -449 0
-136 -340 0
-536 173 0
-224 0
-825 0
-806 -809 0
867 -67 0
-689 0
-968 434 0
-439 0
-130 0
90 -646 0
-488 -399 0
-203 0
-270 -923 0
-808 724 0
-499 -730 0
-767 -886 0
-326 0
410 -603 0
-736 0
-364 0
-367 -654 0
-165 0
-182 0
664 -29 0
-726 -220 0
474 -36 0
-985 0
-656 -646 0
187 -89 0
-401 0
-774 869 0
475 -19 0
-505 0
-441 0
400 -210 0
-208 -564 0
-316 0
-280 582 0
-464 -692 0
-767 -786 0
-389 709 0
-48 0
-65 367 0
-766 0
-864 0
-307 0
-592 -85 0
-624 63 0
-376 -859 0
-765 845 0
-61 460 0
978 -876 0
-286 0
-103 -172 0
-551 0
-790 0
-876 0
-156 431 0
-576 0
969 -59 0
-105 0
848 -187 0
668 -689 0
-772 -81 0
-446 -809 0
-146 0
64 -195 0
-799 0
-191 437 0
-623 894 0
-272 0
168 -631 0
104 -900 0
-984 -939 0
-530 0
-663 -342 0
-380 278 0
-799 923 0
-952 448 0
-768 226 0
-366 -124 0
-58 0
-361 0
-839 0
-439 0
-6 -58 0
-943 0
-942 565 0
548 -466 0
-36 0
-103 -665 0
880 -465 0
-271 -730 0
-996 709 0
-458 -265 0
-227 -609 0
633 -241 0
-273 0
-161 0
105 -657 0
-354 0
-143 0
-312 72 0
276 -770 0
726 -954 0
-959 -117 0
616 -946 0
-212 0
-272 0
-653 0
-781 -108 0
130 -341 0
388 -794 0
-9 0
640 -486 0
-408 0
-76 0
-274 0
73 -713 0
-535 0
528 -358 0
-791 0
-223 -234 0
-287 0
-488 0
-137 0
-756 -403 0
-168 0
-627 822 0
364 -305 0
-211 381 0
755 -674 0
-498 0
-61 -275 0
-615 147 0
706 -454 0
-720 0
-632 0
-756 0
-608 -778 0
-789 0
-928 0
-215 397 0
-112 406 0
-571 0
-213 -977 0
-951 -180 0
-131 0
-15 0
-424 -10 0
-884 -322 0
291 -58 0
393 -361 0
-999 0
554 -65 0
-370 0
-97 0
205 -835 0
136 -544 0
-858 0
-814 -836 0
-224 889 0
-124 0
-29 -35 0
-840 954 0
-494 557 0
-658 -961 0
-592 -300 0
-567 0
-195 543 0
-446 711 0
-308 0
683 -473 0
-385 399 0
-644 86 0
563 -657 0
-379 -706 0
-545 0
-607 726 0
-641 0
-268 -899 0
821 -849 0
-567 780 0
-132 0
-558 0
-959 505 0
-650 0
881 -50 0
-756 806 0
-173 -356 0
-973 110 0
-48 -299 0
-728 -227 0
693 -282 0
-814 -569 0
-13 -533 0
242 -731 0
-268 0
-38 -390 0
-900 0
-626 -977 0
-623 0
-14 -428 0
-665 0
-125 0
-878 627 0
680 -23 0
-944 -17 0
-82 0
-242 0
-653 0
-573 0
170 -893 0
-892 0
-471 0
-152 -501 0
-212 0
-703 0
-325 -625 0
-255 0
-880 210 0
-560 0
-486 743 0
-485 -645 0
-271 -655 0
432 -728 0
-651 0
-914 0
845 -689 0
-656 -193 0
-188 0
-120 0
611 -523 0
-931 -419 0
-688 74 0
-342 0
-447 316 0
-856 -631 0
-231 -993 0
-238 852 0
-174 525 0
-455 -281 0
-200 355 0
-337 0
-943 271 0
-57 0
-324 556 0
884 -115 0
536 -928 0
-878 -508 0
727 -657 0
-378 0
-55 -217 0
-339 46 0
-90 0
-133 -706 0
-21 759 0
-350 275 0
977 -690 0
-259 0
529 -518 0
-913 0
-582 -214 0
-417 0
496 -405 0
-811 0
-436 0
-880 0
-631 0
-93 0
-148 0
-260 0
682 -142 0
449 -302 0
440 -212 0
-388 -506 0
534 -625 0
-204 0
-695 899 0
-813 0
-705 0
-447 -983 0
-747 0
-582 -563 0
-911 -217 0
-86 0
-998 0
696 -457 0
-759 -342 0
-503 0
-128 0
-208 0
-207 0
-937 0
-88 -124 0
-434 0
-1000 -406 0
-655 116 0
-959 0
-230 0
-737 0
-520 977 0
-960 985 0
20 -867 0
-717 0
769 -373 0
-429 0
593 -145 0
835 -301 0
154 -995 0
-78 0
-419 -730 0
-904 0
-522 0
-581 829 0
514 -60 0
-123 0
299 -333 0
-77 0
-27 0
404 -492 0
-110 -820 0
-860 -698 0
-835 0
-947 0
-883 0
-227 0
-909 -893 0
704 -640 0
572 -540 0
-601 0
-522 0
-792 830 0
-559 0
-182 -906 0
-976 568 0
-502 -938 0
704 -701 0
516 -322 0
532 -740 0
-954 0
-40 0
-903 -337 0
-595 -657 0
544 -228 0
-234 0
-596 -313 0
-91 999 0
-279 -982 0
-72 947 0
729 -311 0
-784 0
-478 0
-224 0
545 -475 0
-474 0
-534 -529 0
-912 441 0
-82 0
-932 0
585 -750 0
-545 0
-129 0
322 -971 0
-965 0
26 -708 0
-335 0
-311 761 0
-872 294 0
-434 -594 0
-989 0
-853 549 0
-785 0
944 -392 0
-311 916 0
330 -998 0
845 -961 0
-176 301 0
-882 0
-885 0
-535 956 0
-813 -594 0
-620 0
-605 -83 0
-94 0
-195 0
-909 0
-535 -692 0
-783 0
-970 15 0
-60 -474 0
27 -291 0
-808 628 0
-858 -953 0
-496 -314 0
-157 -812 0
-509 -146 0
-102 966 0
889 -137 0
-345 0
-999 -297 0
344 -602 0
-242 -785 0
-265 0
-756 0
643 -553 0
-499 173 0
-347 0
-764 0
-917 0
-541 0
-575 0
432 -384 0
203 -881 0
536 -557 0
417 -69 0
-648 -874 0
648 -132 0
723 -419 0
-861 0
-201 0
600 -74 0
-938 -562 0
-799 390 0
-507 0
-216 135 0
194 -787 0
-70 -541 0
-880 -260 0
-355 -642 0
-334 -14 0
-957 -485 0
-582 -334 0
-700 455 0
-139 0
-429 -820 0
-849 0
-182 -179 0
-326 708 0
-54 626 0
-18 0
-86 -14 0
-678 0
-664 -305 0
-136 0
665 -635 0
-553 0
-718 754 0
277 -49 0
-725 0
-212 0
-737 0
-358 339 0
-18 -665 0
-981 0
235 -299 0
-261 0
801 -422 0
-443 0
-808 300 0
-803 0
-711 -588 0
-888 315 0
-237 493 0
-229 -595 0
621 -67 0
-768 0
-904 0
-812 -218 0
137 -979 0
401 -570 0
-567 -36 0
-543 0
633 -308 0
-807 -417 0
-344 -435 0
-415 175 0
-507 0
-724 751 0
-157 0
-499 0
-804 5 0
485 -131 0
-546 0
-17 0
-725 151 0
-940 -754 0
-358 0
-952 0
616 -292 0
-431 0
-592 -59 0
274 -83 0
-298 639 0
-339 -10 0
-877 0
713 -458 0
-567 -277 0
-161 495 0
-386 0
-705 55 0
-34 -1 0
-308 654 0
-464 0
-696 7 0
-23 0
-88 -707 0
-38 0
-76 -75 0
-664 -686 0
-92 0
-583 292 0
-234 0
-861 0
564 -850 0
-944 -894 0
-167 0
-980 0
-527 773 0
-976 0
-454 923 0
-433 0
481 -860 0
-524 596 0
-478 108 0
-519 0
-601 0
-907 -897 0
-451 0
-961 0
-362 0
-25 0
-454 -437 0
-457 0
-211 0
-583 -259 0
-350 918 0
-273 0
-168 -850 0
904 -897 0
8 -492 0
-376 -111 0
-615 0
-156 790 0
-338 0
-359 -860 0
-414 0
-379 -619 0
-559 0
-509 774 0
-616 -247 0
-7 0
672 -819 0
-582 722 0
-480 0
-219 0
-70 446 0
-448 15 0
801 -859 0
-155 0
481 -524 0
-770 0
-518 0
-407 0
-942 923 0
-659 0
44 -947 0
-409 0
-248 670 0
882 -518 0
-754 0
-983 0
-161 0
-878 -410 0
-315 909 0
-49 0
-866 998 0
-799 0
-964 0
-423 251 0
-144 0
-367 0
720 -638 0
-521 0
-910 0
-581 0
-183 325 0
-54 0
-175 0
-247 -575 0
-656 636 0
-944 897 0
-77 -884 0
-135 0
-740 0
-226 0
-693 0
-899 543 0
-214 -618 0
-431 -195 0
-224 -84 0
-221 429 0
-671 -37 0
-506 0
-535 0
161 -139 0
-848 790 0
-867 0
-839 0
362 -813 0
752 -941 0
897 -225 0
-415 755 0
-464 -155 0
-937 0
-399 489 0
-837 0
125 -114 0
-47 53 0
113 -833 0
-239 -1 0
-872 0
-446 0
-359 -777 0
-746 0
-856 680 0
-911 0
155 -140 0
-787 0
-894 -269 0
-839 -226 0
-608 -486 0
-710 -21 0
-567 -491 0
705 -419 0
-588 -913 0
-636 0
-131 0
-225 0
-382 0
-479 423 0
-869 0
-21 431 0
-527 0
-719 0
-264 992 0
144 -42 0
-340 0
-193 0
-730 0
-907 0
-15 554 0
-102 -75 0
-783 0
-128 -182 0
-451 -627 0
-191 0
-467 0
-936 0
808 -812 0
-999 -617 0
-270 366 0
-39 -662 0
-408 0
-906 0
-732 0
513 -347 0
-516 0
-727 0
-956 0
-252 0
371 -52 0
402 -852 0
-744 -933 0
-421 303 0
-419 647 0
-872 949 0
-687 374 0
-959 707 0
-573 -292 0
684 -899 0
-787 -937 0
-251 0
-893 204 0
-432 747 0
-913 0
-243 -859 0
-512 0
-344 0
-515 685 0
-33 0
-102 -793 0
-504 0
377 -590 0
-567 518 0
683 -460 0
-456 73 0
-927 203 0
-122 0
-54 829 0
-48 0
-2 0
-206 -178 0
-370 0
-390 0
546 -849 0
812 -995 0
97 -684 0
-334 644 0
744 -315 0
-282 807 0
-535 717 0
485 -249 0
-926 0
-461 0
-775 513 0
-677 -426 0
-791 84 0
-74 0
-869 0
-359 0
-641 -41 0
-459 0
-666 0
-489 0
-975 -859 0
-273 0
-141 0
-400 0
-907 0
642 -998 0
-456 367 0
-240 0
-933 446 0
-967 -849 0
-22 0
-62 -526 0
-72 -544 0
-317 -25 0
-56 415 0
-544 -410 0
-993 0
-870 -388 0
-959 -590 0
370 -890 0
-258 0
178 -835 0
-432 -987 0
-728 0
-328 79 0
-197 0
-513 0
-718 157 0
-523 0
-408 727 0
451 -226 0
-104 -960 0
-143 -446 0
562 -754 0
-309 0
-259 0
758 -401 0
-295 0
-300 839 0
-7 -151 0
-116 431 0
-754 0
-928 109 0
-789 518 0
85 -457 0
-50 0
-112 -42 0
-28 0
-235 0
-535 -9 0
-309 -210 0
821 -465 0
-114 0
672 -580 0
-594 0
-132 0
885 -409 0
-174 0
-269 20 0
-972 0
-199 -364 0
817 -681 0
-693 0
-984 799 0
-353 0
-279 -70 0
-802 0
-429 470 0
-197 0
-667 0
-79 0
-700 -842 0
-746 0
-162 0
-701 0
861 -417 0
-920 0
-455 0
-870 0
320 -894 0
-87 0
-891 0
-112 0
-862 -396 0
-125 492 0
-600 0
-644 415 0
865 -50 0
-976 0
699 -809 0
-208 0
-112 0
700 -81 0
-544 0
855 -577 0
-761 0
204 -652 0
-379 846 0
-526 0
-13 0
-791 0
-966 -578 0
-262 77 0
-227 0
-741 343 0
-826 0
-912 -578 0
-672 -245 0
333 -121 0
-503 -234 0
832 -682 0
-121 0
509 -499 0
-20 -259 0
-670 -478 0
-825 0
-856 265 0
50 -690 0
-183 149 0
433 -193 0
-776 -364 0
-745 0
-390 0
554 -180 0
73 -572 0
-774 386 0
864 -234 0
-535 482 0
-852 670 0
539 -181 0
970 -630 0
-362 406 0
-135 0
-617 0
-754 0
-868 0
-478 0
890 -820 0
851 -452 0
-374 0
-38 0
-782 0
-749 -450 0
-629 701 0
914 -555 0
-7 -828 0
-304 0
664 -317 0
-560 -708 0
715 -233 0
-672 635 0
-516 0
-550 908 0
-912 -731 0
-813 820 0
-135 0
-379 -322 0
260 -219 0
-960 834 0
161 -401 0
-655 -766 0
-349 -939 0
45 -593 0
-870 478 0
-337 0
-890 0
-494 -625 0
-87 0
565 -67 0
-164 0
665 -921 0
-951 -787 0
-606 0
-101 0
-228 0
-397 0
-652 0
-805 0
-787 0
-470 917 0
-852 0
-836 -68 0
-176 105 0
-85 0
-124 0
-447 0
-396 0
-369 0
-958 -460 0
-757 0
-277 -921 0
-258 495 0
-783 -705 0
-972 548 0
-488 0
-750 671 0
-197 0
178 -329 0
-69 477 0
698 -730 0
-47 214 0
-44 0
35 -773 0
-235 0
-725 0
-956 0
-385 0
-864 852 0
-522 0
-356 0
-361 0
-295 -75 0
-135 820 0
-513 919 0
-648 662 0
-75 503 0
80 -995 0
-586 0
-387 -977 0
32 -714 0
968 -457 0
-750 0
-904 0
-960 0
-430 -267 0
-817 0
-191 0
993 -530 0
-83 0
424 -377 0
-895 0
-466 0
-849 383 0
-977 0
432 -595 0
-174 0
-830 799 0
-439 0
-490 0
-800 913 0
-853 222 0
-702 63 0
-846 738 0
-850 0
-833 0
-214 -450 0
-592 -35 0
-214 0
-3 941 0
452 -59 0
361 -918 0
-648 0
-887 0
-303 788 0
-831 0
-519 0
-438 -282 0
-983 0
-687 0
404 -857 0
-800 192 0
-885 0
33 -82 0
-230 -853 0
-839 0
-668 175 0
-952 -342 0
-1 0
-405 0
-892 0
-7 -335 0
778 -837 0
105 -590 0
-460 797 0
-464 -603 0
-833 399 0
-752 -759 0
-272 0
-295 0
-808 0
-756 0
-604 797 0
-270 -609 0
-537 -209 0
384 -258 0
-816 -1000 0
-280 105 0
-552 -357 0
-193 0
-304 998 0
-717 0
-89 0
929 -866 0
-960 -428 0
465 -406 0
610 -657 0
-710 0
-261 0
41 -755 0
-356 229 0
-454 -629 0
-799 0
-30 998 0
937 -525 0
131 -313 0
-789 0
-716 0
-816 751 0
-812 0
-358 103 0
712 -972 0
-581 0
-347 -242 0
114 -645 0
-685 0
-609 0
889 -977 0
-59 0
-672 0
-408 -901 0
-948 0
-454 0
-331 262 0
-704 0
-149 0
-550 0
540 -731 0
-1 0
-879 814 0
122 -469 0
-201 0
-830 0
-494 70 0
-576 0
-29 0
-338 0
-862 -745 0
-296 514 0
-206 131 0
-138 0
-424 0
-38 -923 0
321 -413 0
-336 866 0
-237 0
-772 0
-997 0
-405 -97 0
797 -98 0
-333 0
333 -155 0
-71 0
-28 -537 0
210 -963 0
836 -426 0
-212 0
-787 0
-918 -669 0
-477 0
-872 499 0
-536 22 0
-756 773 0
522 -595 0
-50 0
197 -865 0
-976 698 0
-170 -265 0
-575 948 0
-310 838 0
-77 814 0
-29 46 0
-376 0
-54 -222 0
-814 -186 0
-209 0
-972 -305 0
-79 0
-52 -601 0
-943 893 0
-621 -99 0
-908 0
-972 -522 0
-723 0
-893 0
-598 0
-951 786 0
-285 380 0
-560 0
-925 0
-101 -643 0
-279 731 0
-582 -942 0
-432 629 0
-230 259 0
729 -683 0
-541 990 0
-272 668 0
890 -638 0
-4 -1 0
-598 538 0
-575 -550 0
-822 274 0
-440 -199 0
-600 -4 0
-256 0
512 -21 0
-431 -417 0
-194 0
-134 786 0
729 -716 0
232 -412 0
960 -867 0
-220 0
-631 0
-593 0
-54 -595 0
400 -905 0
-501 0
-661 -828 0
-334 -217 0
-342 -28 0
-379 0
-605 0
312 -978 0
-899 941 0
-342 0
-431 525 0
-164 710 0
420 -250 0
-436 797 0
-117 0
-566 546 0
-350 23 0
-241 0
-944 0
-764 -361 0
-1 0
-366 -345 0
-687 0
193 -249 0
-701 -929 0
-518 -741 0
100 -281 0
-503 270 0
107 -609 0
-168 -393 0
-743 67 0
-727 0
-837 -18 0
-799 -117 0
-807 119 0
-855 -641 0
-646 148 0
226 -452 0
-701 -893 0
-798 55 0
17 -414 0
-894 467 0
-500 909 0
-94 827 0
-45 -300 0
-647 0
-71 -669 0
-883 0
-251 0
-742 0
-90 0
-581 0
-896 239 0
-485 324 0
-83 0
386 -420 0
57 -828 0
624 -86 0
956 -372 0
-792 -435 0
-766 389 0
-74 0
-606 -17 0
-11 0
-325 324 0
-122 0
-390 -306 0
-13 -45 0
385 -149 0
-182 -597 0
-600 -756 0
994 -724 0
-109 14 0
72 -916 0
133 -961 0
-701 -371 0
723 -962 0
-262 828 0
-912 8 0
193 -799 0
-990 21 0
-88 0
733 -305 0
-865 0
-623 0
-498 -665 0
921 -241 0
-156 0
281 -636 0
2 -829 0
-545 0
-224 -417 0
-876 0
-823 61 0
-908 341 0
-462 -346 0
-397 0
-732 -473 0
-896 405 0
-855 0
-772 133 0
-165 -93 0
-339 0
-888 0
-930 0
-14 0
-198 69 0
-391 0
-638 0
-149 925 0
-992 0
-40 -775 0
-422 0
-175 0
-332 0
-925 0
-37 21 0
-43 -561 0
-740 0
-901 839 0
-794 0
-774 -205 0
-735 0
-479 0
-225 0
-925 -435 0
-203 0
-333 0
-301 0
-99 0
186 -5 0
-142 0
-679 -146 0
-64 -581 0
-81 0
-460 -881 0
-313 0
-735 -190 0
-606 119 0
-679 -676 0
-655 626 0
-56 0
568 -276 0
-548 0
-225 0
-326 -445 0
705 -316 0
-720 0
-500 -698 0
195 -506 0
-246 341 0
-422 0
-809 0
-318 -214 0
-903 0
-317 -298 0
-808 0
-752 0
-503 0
-911 883 0
-840 281 0
33 -841 0
-303 0
-505 0
-739 0
-79 870 0
-70 -437 0
-690 0
-389 76 0
-641 0
-207 0
816 -859 0
-88 0
-844 -106 0
-303 -870 0
-191 774 0
-877 -74 0
-415 0
-207 -983 0
737 -239 0
691 -425 0
-853 942 0
-949 -716 0
-610 0
-863 0
-96 327 0
-192 917 0
-695 0
-984 -657 0
-749 0
506 -945 0
-407 0
897 -651 0
510 -689 0
-250 -593 0
546 -777 0
779 -613 0
-992 -527 0
-792 219 0
-620 820 0
-461 734 0
-945 0
-562 0
-528 -654 0
-725 0
-675 -409 0
-10 0
-976 -730 0
-295 -513 0
-941 -649 0
746 -115 0
-127 0
-841 -785 0
-209 0
275 -922 0
-159 189 0
90 -738 0
-229 -996 0
721 -526 0
-923 -81 0
-827 470 0
-822 447 0
-168 0
-642 327 0
-998 -812 0
448 -883 0
-883 0
513 -723 0
-821 319 0
524 -458 0
-624 0
-148 6 0
77 -505 0
-500 0
-394 255 0
-999 23 0
-29 -74 0
-814 0
-478 0
-600 -656 0
-795 0
-991 695 0
-373 -401 0
-721 -209 0
267 -713 0
209 -691 0
-94 694 0
-254 -106 0
-216 -118 0
-875 599 0
-757 0
441 -546 0
-549 -817 0
672 -242 0
-330 0
80 -476 0
-82 0
-46 892 0
-702 107 0
-869 573 0
-415 447 0
808 -765 0
72 -935 0
642 -890 0
-36 -481 0
-772 0
152 -267 0
-953 0
88 -438 0
-77 -269 0
-514 0
-199 13 0
-318 0
-745 0
470 -433 0
-8 -566 0
-336 228 0
-348 0
-298 0
460 -834 0
-391 -605 0
889 -902 0
-578 0
-943 0
134 -746 0
-746 0
531 -658 0
-419 -506 0
-280 -611 0
-109 -250 0
-348 0
-575 0
576 -671 0
-657 0
-245 0
-631 0
895 -321 0
-53 0
-371 -74 0
-312 0
-700 0
-591 0
-251 0
-877 0
-320 -556 0
-17 0
-367 0
-601 0
-678 -101 0
-451 -187 0
-374 -521 0
-885 423 0
232 -225 0
-702 0
-142 126 0
969 -421 0
944 -191 0
-736 723 0
-462 0
-576 923 0
-74 0
618 -353 0
-336 716 0
-170 0
-709 0
-468 0
978 -250 0
567 -657 0
-875 0
-687 -187 0
-280 0
-235 869 0
-423 0
-45 0
-209 0
-575 484 0
-856 106 0
-323 -18 0
-970 0
-847 -297 0
-726 231 0
-917 229 0
960 -646 0
-447 -213 0
-217 0
-531 0
-703 0
-826 0
-876 0
-648 0
-270 -557 0
65 -281 0
-327 0
-839 0
957 -746 0
730 -638 0
-396 668 0
-543 644 0
-711 886 0
-46 0
-517 0
-979 541 0
-407 -36 0
772 -713 0
-5 991 0
-496 -623 0
-169 0
-821 246 0
-437 0
-191 0
-750 477 0
-234 0
64 -290 0
-759 999 0
-192 -683 0
-831 -827 0
872 -313 0
-667 -857 0
576 -71 0
-372 -219 0
-911 658 0
-782 691 0
-975 604 0
32 -996 0
-396 327 0
294 -905 0
-591 -634 0
-320 0
-496 -3 0
-869 -11 0
894 -137 0
-888 439 0
-803 901 0
-150 908 0
739 -157 0
-443 -105 0
221 -930 0
-824 0
490 -549 0
-880 0
-465 0
-910 -308 0
-900 -785 0
-7 463 0
-83 0
768 -957 0
-584 -806 0
-254 -58 0
-747 -202 0
-746 0
-972 572 0
-919 0
-552 0
-677 0
-229 -866 0
-408 -112 0
-151 -649 0
-815 0
-302 558 0
-188 0
-17 0
-838 0
-263 226 0
-175 0
-768 -823 0
-891 103 0
-574 0
-294 0
-514 0
-809 0
-709 -629 0
-320 178 0
-204 0
-692 -299 0
-630 0
-351 403 0
-548 0
-544 0
866 -945 0
426 -748 0
-140 -690 0
-722 0
-638 0
-973 0
-266 319 0
-219 -322 0
-321 0
-181 -699 0
90 -586 0
-234 271 0
-431 0
-295 0
600 -462 0
-220 0
914 -898 0
-519 -295 0
-997 -738 0
-640 -668 0
-287 -948 0
-714 758 0
-350 -942 0
-484 -611 0
-902 0
377 -873 0
-592 0
208 -692 0
-712 -287 0
-864 301 0
-530 0
-718 0
-148 0
129 -174 0
746 -138 0
-258 615 0
-300 -706 0
-740 -419 0
-516 0
-998 -474 0
829 -978 0
-612 0
161 -769 0
-151 -260 0
-914 0
-834 -441 0
-987 0
-915 0
-774 -734 0
-928 691 0
-44 -524 0
281 -279 0
-612 -114 0
-63 0
-375 0
-388 0
219 -156 0
-71 -563 0
-857 0
-909 0
-590 0
-627 0
-261 822 0
-839 260 0
-645 0
-782 0
556 -507 0
-599 931 0
-238 0
-341 54 0
-435 -114 0
474 -316 0
-237 -309 0
-15 -326 0
-886 0
-885 0
-853 0
-257 0
-217 -17 0
-56 391 0
-637 423 0
-633 0
829 -355 0
-36 -668 0
433 -981 0
-872 558 0
675 -603 0
-880 780 0
-309 0
729 -329 0
-828 -276 0
-619 -498 0
-773 0
-55 -841 0
-274 391 0
-131 0
-936 293 0
-927 0
-670 743 0
-287 811 0
968 -221 0
-382 829 0
-295 285 0
-397 0
-614 0
-507 0
-496 -576 0
-608 67 0
-740 0
-183 -926 0
-199 -666 0
-264 0
-771 0
-616 30 0
-626 0
-695 0
116 -763 0
-462 882 0
-355 0
137 -413 0
-463 0
-661 0
-265 167 0
-173 0
-847 0
-247 277 0
-308 0
-925 0
-22 0
-855 -541 0
596 -963 0
-211 0
-255 0
689 -55 0
250 -262 0
-993 0
-816 132 0
-309 0
-588 0
-888 343 0
109 -961 0
-773 -610 0
-923 0
-472 351 0
-533 0
-517 0
-107 0
-871 -337 0
-930 0
-719 876 0
-606 -765 0
-966 -681 0
-278 61 0
-15 703 0
404 -177 0
273 -619 0
-969 0
992 -757 0
-462 0
-151 -716 0
-45 0
-956 0
-111 0
-842 0
280 -578 0
-645 0
-50 0
-120 0
-861 0
-840 642 0
-796 614 0
940 -482 0
-583 0
444 -905 0
-638 -50 0
11 -803 0
-967 -522 0
-488 135 0
-141 0
-365 0
250 -377 0
-252 0
-952 708 0
-561 279 0
-471 -667 0
-59 0
422 -249 0
675 -219 0
-516 556 0
-295 0
-357 527 0
-721 0
-264 116 0
-18 0
528 -35 0
-447 -745 0
482 -253 0
-63 0
-374 -322 0
-190 -694 0
-36 12 0
-364 -595 0
-868 45 0
579 -923 0
-133 -507 0
-413 0
-423 581 0
-18 0
-555 0
417 -910 0
-936 0
-993 375 0
-245 0
-611 -785 0
-837 -812 0
-521 0
544 -50 0
-698 0
-413 180 0
-247 -111 0
-745 -713 0
146 -372 0
-936 463 0
-279 483 0
-151 0
-331 0
742 -297 0
-988 -169 0
-165 -547 0
-310 453 0
-79 99 0
-733 -913 0
-230 -374 0
-550 -226 0
102 -441 0
-312 391 0
-915 0
-28 -235 0
-551 0
152 -425 0
-657 0
-652 -516 0
-371 0
-58 0
-846 0
-648 180 0
307 -989 0
-150 -261 0
-181 0
-223 0
-946 0
249 -166 0
-297 0
328 -57 0
-18 0
-464 827 0
338 -108 0
-332 0
-558 -250 0
720 -563 0
-93 471 0
-640 0
138 -253 0
-341 677 0
-518 -762 0
-735 -388 0
433 -45 0
-365 -355 0
-23 142 0
-93 0
-191 0
-632 524 0
-71 0
-540 -497 0
-480 248 0
-575 52 0
-643 0
-462 -433 0
-984 95 0
-452 0
236 -875 0
-905 0
-729 0
256 -690 0
-428 -778 0
889 -179 0
-455 545 0
-800 199 0
-992 -506 0
-281 0
241 -265 0
883 -323 0
498 -321 0
-11 647 0
-580 0
-159 -709 0
-453 0
-605 -444 0
-882 0
-769 0
224 -940 0
585 -337 0
-659 813 0
-759 0
-759 -545 0
970 -444 0
-824 161 0
-846 0
618 -834 0
-359 -210 0
-191 111 0
-519 0
-223 -660 0
-596 0
-53 0
-87 -332 0
-940 0
-572 236 0
409 -577 0
554 -969 0
-540 -187 0
-238 262 0
-348 0
-462 0
-578 0
-126 -156 0
400 -12 0
357 -547 0
193 -972 0
-296 0
-136 606 0
-988 0
-286 0
738 -233 0
-453 958 0
-277 0
-749 0
-744 898 0
-989 -565 0
-645 820 0
62 -297 0
-596 0
-672 0
760 -892 0
-660 -587 0
-171 0
-531 0
820 -915 0
-478 0
289 -449 0
-107 0
-309 0
675 -578 0
156 -561 0
-734 358 0
-282 0
-515 0
-742 -309 0
-271 -235 0
292 -114 0
-341 0
-728 -934 0
-410 0
-528 656 0
-791 0
610 -849 0
-868 0
-401 0
-924 -682 0
-414 -994 0
609 -990 0
-277 0
304 -52 0
-766 0
-567 77 0
-663 0
-271 -701 0
-237 -661 0
-207 0
-145 0
363 -485 0
-805 0
-31 915 0
-425 0
-195 0
-784 171 0
-565 0
-208 -367 0
560 -710 0
-832 -353 0
-341 0
945 -737 0
267 -123 0
-112 -582 0
-66 0
-838 908 0
-876 -908 0
-431 0
-77 0
-36 -235 0
-760 -367 0
-640 -922 0
-863 0
-313 0
649 -299 0
-558 0
-544 -662 0
-447 798 0
952 -771 0
-894 82 0
-850 -873 0
-196 0
-23 0
-954 -514 0
-756 0
-782 0
-540 0
-119 0
-190 999 0
-74 750 0
-670 276 0
-733 0
-1000 -186 0
763 -581 0
-445 15 0
-819 -426 0
-684 580 0
792 -431 0
-368 836 0
-53 0
240 -338 0
-700 0
681 -394 0
907 -828 0
-614 -101 0
-326 0
-333 0
483 -330 0
699 -980 0
-233 0
-152 -732 0
-837 0
-967 -293 0
-878 0
616 -127 0
937 -393 0
-395 -858 0
-902 0
-393 0
-932 0
-56 972 0
425 -572 0
-587 -682 0
-417 559 0
-924 -651 0
635 -155 0
-565 -971 0
-70 0
-564 -650 0
-651 0
-835 0
-168 0
-437 726 0
-483 0
-427 182 0
-771 -978 0
-91 0
-103 0
-192 848 0
-201 0
-519 0
-109 0
-351 -41 0
-43 711 0
248 -830 0
529 -91 0
944 -288 0
568 -440 0
-272 -901 0
-261 0
-200 0
373 -41 0
-335 122 0
-663 0
-869 0
-655 -466 0
656 -446 0
-854 0
-213 0
773 -746 0
293 -442 0
-796 0
-807 0
-320 0
-136 572 0
-532 919 0
-740 820 0
-950 -979 0
-216 -53 0
-232 773 0
3 -243 0
-826 0
-162 0
-242 0
-1 0
-442 0
-660 0
266 -356 0
-380 -3 0
-830 0
-710 -340 0
-196 0
-808 -686 0
649 -601 0
-1 0
832 -699 0
360 -595 0
714 -957 0
-389 0
611 -651 0
-943 0
768 -357 0
-796 -922 0
464 -421 0
-885 445 0
-616 0
-559 714 0
-830 0
-86 0
-125 285 0
-590 0
147 -346 0
-838 -579 0
-601 0
-611 62 0
2 -801 0
-998 0
-662 0
-438 470 0
-113 0
392 -264 0
-974 0
-163 0
-457 0
-315 -826 0
-501 0
-653 0
-706 439 0
-191 886 0
-48 -150 0
-309 0
699 -827 0
-160 848 0
-111 -229 0
-825 0
-50 0
-207 0
-920 -446 0
353 -498 0
526 -785 0
-705 0
-283 0
-863 -737 0
-330 0
-453 -325 0
594 -169 0
-711 110 0
-352 0
-862 0
-628 0
892 -385 0
-304 526 0
-957 -653 0
-528 147 0
-915 -178 0
-143 0
-860 0
817 -445 0
-191 0
-240 0
-80 -806 0
112 -846 0
-519 0
-797 -481 0
-258 0
-246 0
267 -236 0
-770 -313 0
-302 0
200 -766 0
-840 0
-373 0
-688 -554 0
584 -730 0
385 -26 0
312 -269 0
-965 0
-443 0
-896 0
-208 83 0
-294 0
-959 0
-493 -33 0
-439 0
-696 -714 0
-993 0
-674 0
-955 510 0
-792 189 0
-831 645 0
-91 974 0
-856 233 0
-451 0
-793 543 0
-748 -691 0
-965 694 0
-924 0
-562 326 0
515 -305 0
-566 30 0
-974 0
-736 0
-518 606 0
-660 0
-838 0
842 -661 0
-747 -57 0
-632 759 0
-271 373 0
-429 -113 0
66 -561 0
-618 0
-419 0
810 -969 0
-668 460 0
-724 -233 0
-320 -505 0
-417 0
-508 0
481 -890 0
-208 0
-804 0
-869 -145 0
-920 97 0
-70 0
-392 -339 0
-476 0
-120 -577 0
458 -100 0
-472 0
-698 0
-922 0
-527 0
281 -998 0
-728 259 0
-605 140 0
-748 0
586 -497 0
-343 971 0
-376 303 0
-672 51 0
-603 0
-855 -734 0
-359 -38 0
-536 -190 0
-246 0
-313 0
-653 -537 0
-596 -132 0
-206 0
-46 -532 0
544 -812 0
777 -790 0
-899 0
310 -393 0
-482 0
-444 0
-583 -763 0
-669 677 0
-911 899 0
104 -732 0
-650 0
-300 781 0
-122 0
-804 0
-799 0
-712 -321 0
-479 0
-383 0
-460 215 0
-364 988 0
-813 566 0
-834 0
-367 613 0
-64 -706 0
-157 0
-421 0
-892 0
-108 -361 0
-192 339 0
-888 170 0
-784 430 0
-373 0
-590 0
-1000 0
-807 -738 0
-326 0
-706 71 0
-852 0
-965 0
-324 0
-886 309 0
-214 791 0
-105 0
-80 -904 0
-159 -645 0
-811 -506 0
-860 0
-248 0
-254 620 0
-740 -874 0
-518 0
-882 0
624 -945 0
-564 -299 0
-73 0
-230 0
445 -322 0
-93 0
-97 0
-636 0
-296 0
-268 463 0
-714 0
-525 0
-728 -218 0
-439 -443 0
-955 0
-966 0
-623 158 0
-976 877 0
-96 950 0
-329 0
-971 -179 0
-999 422 0
-617 0
440 -551 0
592 -600 0
-463 0
-910 220 0
153 -914 0
251 -293 0
-761 0
968 -123 0
-821 0
-896 -615 0
-522 0
500 -59 0
-104 -75 0
-693 0
-311 0
-955 0
-410 0
316 -843 0
280 -979 0
-921 0
-398 0
-649 0
-388 -865 0
-136 -555 0
-573 0
-522 0
-765 908 0
647 -545 0
-398 358 0
-972 -219 0
924 -913 0
-228 0
-608 -843 0
-381 0
-970 0
-492 0
-326 260 0
-75 0
-178 0
-397 303 0
-906 -345 0
-589 741 0
257 -558 0
-177 0
-673 0
-646 0
763 -546 0
-120 0
48 -815 0
-572 -348 0
672 -950 0
-189 780 0
-645 0
-478 542 0
-459 0
-862 0
-334 829 0
-999 0
-752 793 0
-347 901 0
-188 654 0
92 -435 0
-383 0
-571 534 0
-312 788 0
608 -617 0
-392 -384 0
-972 0
-394 0
-875 0
-951 0
-110 0
619 -67 0
-569 631 0
962 -564 0
-312 106 0
-659 15 0
-974 660 0
-804 0
-219 0
-801 0
-630 0
-405 -290 0
-735 0
-265 0
-517 0
-611 -218 0
-446 0
-389 0
-533 748 0
-304 0
-726 0
-164 0
-901 0
-602 0
563 -276 0
-518 0
-69 443 0
-367 0
-55 0
601 -851 0
-46 498 0
-8 351 0
-673 0
-744 0
491 -283 0
-808 -963 0
-647 238 0
-434 0
550 -945 0
-135 -449 0
-157 0
-470 -763 0
-925 0
-616 -698 0
122 -499 0
-555 0
-903 0
859 -148 0
-458 415 0
-255 -475 0
-156 -539 0
-334 0
34 -229 0
770 -773 0
-813 0
-357 0
-615 0
-242 0
-39 0
-63 815 0
-74 0
-724 559 0
840 -627 0
-722 0
952 -773 0
150 -857 0
-437 0
848 -252 0
-47 -382 0
330 -522 0
-13 0
168 -403 0
-716 -684 0
-398 0
-398 0
-425 0
-39 -18 0
-100 0
286 -753 0
-488 -142 0
-928 0
-174 79 0
345 -661 0
-146 0
-299 0
410 -25 0
-857 0
249 -182 0
-939 0
-63 0
-631 0
-342 -525 0
-308 -307 0
-446 -604 0
-56 -94 0
133 -25 0
-425 0
-967 0
-103 43 0
-999 853 0
-936 429 0
-235 0
689 -274 0
-770 0
-607 451 0
-519 0
-477 0
-673 0
-720 -657 0
-275 0
786 -715 0
-291 0
-758 666 0
-676 0
-13 0
-440 -568 0
-821 427 0
-983 646 0
-962 0
-338 -505 0
-70 -397 0
-589 -796 0
931 -993 0
-462 0
977 -110 0
-520 0
-128 103 0
-971 0
-23 -877 0
-192 -738 0
-325 -74 0
-50 0
-195 591 0
-546 0
-425 0
-883 0
-33 0
-380 -140 0
-499 0
-863 -379 0
-286 0
-801 0
-792 371 0
-272 0
-558 0
-904 0
-921 0
-337 0
-441 0
801 -508 0
-152 507 0
-607 -395 0
-423 0
-134 -802 0
107 -314 0
-292 -4 0
-95 0
424 -432 0
-956 0
-691 -858 0
-230 0
-251 0
-80 623 0
593 -694 0
-440 0
-154 0
-328 0
-476 213 0
-184 936 0
88 -847 0
-400 0
521 -535 0
-63 -498 0
-357 0
-896 -785 0
-807 98 0
-456 607 0
203 -379 0
82 -899 0
-891 -457 0
-10 -577 0
-822 770 0
-222 0
-673 0
-311 0
-829 0
-951 -719 0
-146 0
-482 0
-157 -537 0
-966 980 0
-252 597 0
248 -757 0
-461 -5 0
-389 0
-264 -641 0
-53 -538 0
444 -635 0
-993 0
-384 -189 0
-237 0
-388 -250 0
-656 305 0
-679 0
-305 0
-511 0
-189 -588 0
-665 0
-305 0
363 -802 0
-664 626 0
-819 -82 0
-868 84 0
-552 -82 0
250 -422 0
-396 0
974 -570 0
-124 229 0
414 -473 0
-317 869 0
-332 847 0
-951 61 0
-711 0
-324 0
-927 0
-315 0
-760 567 0
-482 0
-741 -793 0
-668 589 0
-255 0
-568 872 0
-811 -658 0
-517 0
643 -985 0
1000 -550 0
-767 823 0
-48 813 0
-362 -977 0
-457 0
-444 0
-550 -597 0
-968 -532 0
418 -97 0
-539 0
-311 -789 0
-728 0
-790 0
2 -316 0
-175 0
-552 941 0
-727 482 0
-744 0
-398 -493 0
-815 803 0
-458 0
-131 0
-126 454 0
304 -564 0
459 -482 0
-689 0
-549 54 0
-412 -732 0
289 -19 0
817 -501 0
-462 907 0
-340 855 0
-727 -802 0
-522 0
-351 0
-62 0
-69 0
-316 0
851 -370 0
60 -657 0
-251 0
-64 -164 0
-517 -138 0
520 -314 0
-547 0
122 -641 0
-631 0
-480 0
-30 989 0
-565 0
-341 0
100 -57 0
-877 789 0
-475 0
-319 397 0
-515 -562 0
-843 0
417 -529 0
401 -526 0
-60 791 0
-756 0
-440 692 0
513 -532 0
-390 0
899 -657 0
-878 220 0
-563 0
-750 -933 0
-16 0
509 -395 0
-942 708 0
-511 -37 0
48 -489 0
-882 0
42 -756 0
-895 -19 0
976 -352 0
545 -322 0
-624 411 0
-93 -817 0
712 -657 0
-408 -329 0
-336 -130 0
-285 0
-998 407 0
-598 795 0
-322 -641 0
-327 0
-396 22 0
-795 0
-973 478 0
-213 519 0
-789 381 0
-304 258 0
105 -693 0
-554 286 0
-820 0
-783 0
-103 -542 0
243 -676 0
-109 0
-542 0
-197 0
239 -497 0
-135 -859 0
697 -403 0
-152 989 0
-66 0
19 -292 0
-85 0
-524 0
-691 534 0
-54 0
-646 -76 0
-639 0
-294 0
946 -740 0
24 -668 0
347 -722 0
-957 -413 0
-392 -700 0
-461 0
-159 164 0
-564 -977 0
-300 0
-946 135 0
-579 0
-654 0
-198 0
-375 0
-671 -839 0
-102 -939 0
-743 0
-367 25 0
-621 -692 0
-953 0
-815 -850 0
-642 0
602 -813 0
-824 -28 0
-741 0
-166 150 0
546 -530 0
-31 -229 0
-458 0
-792 240 0
-957 196 0
-694 -906 0
-772 0
-684 0
-268 -43 0
-112 0
-985 0
-638 323 0
-736 -495 0
-632 976 0
24 -550 0
-122 0
962 -564 0
-996 0
-700 -899 0
812 -410 0
-784 0
-447 909 0
-896 0
-140 30 0
-646 0
-934 775 0
-210 0
-212 -524 0
-507 -137 0
-131 -161 0
-160 -655 0
-830 0
-716 55 0
-698 0
977 -217 0
-5 0
-160 0
-98 0
-392 0
290 -569 0
676 -667 0
-909 0
-997 917 0
-179 0
-174 326 0
-912 0
-98 0
-200 -591 0
-428 790 0
-23 -46 0
576 -249 0
-758 563 0
-909 0
-925 0
-608 0
-484 0
-215 0
737 -527 0
-40 740 0
-574 -827 0
352 -953 0
-731 -177 0
-567 620 0
-773 591 0
698 -498 0
732 -140 0
-296 -650 0
-174 0
-749 -21 0
-789 614 0
464 -870 0
-495 0
694 -34 0
-249 0
761 -793 0
-847 0
-769 0
83 -908 0
632 -484 0
-365 0
-12 0
-880 0
-49 0
447 -137 0
-302 0
-300 -145 0
-472 -907 0
521 -15 0
-818 0
-608 -468 0
-482 0
-254 0
-136 -912 0
-464 910 0
-290 0
-937 0
-246 -245 0
-853 -962 0
-463 650 0
-500 229 0
-442 607 0
-450 479 0
-539 775 0
-142 -250 0
-7 0
909 -818 0
-62 -660 0
-611 0
-132 -867 0
-522 0
-527 -884 0
-706 0
-262 964 0
-576 0
824 -638 0
937 -402 0
-608 461 0
-159 324 0
-780 0
-257 0
-263 0
-128 0
-427 0
-228 0
-967 0
-270 0
-920 761 0
-348 -651 0
710 -457 0
363 -25 0
-812 0
-818 0
-482 0
-325 0
-237 0
-777 0
-921 0
-994 143 0
765 -739 0
-215 -57 0
76 -563 0
-891 0
-959 0
-755 0
-608 -989 0
-150 0
-288 0
-852 0
-375 -765 0
-340 0
-810 0
-320 221 0
-170 0
-768 0
432 -20 0
-976 162 0
-102 302 0
-461 63 0
329 -831 0
-433 0
-644 -748 0
-321 0
-419 175 0
-713 0
-896 139 0
-880 -371 0
673 -477 0
-616 -425 0
633 -451 0
-422 0
-64 -111 0
114 -281 0
97 -902 0
-234 0
-396 55 0
-517 0
-267 0
-868 0
620 -665 0
56 -828 0
883 -435 0
656 -512 0
-316 862 0
-406 0
-197 0
-860 0
-239 198 0
232 -916 0
-102 0
-3 0
-166 21 0
-912 -747 0
-738 167 0
-151 -574 0
-414 -356 0
-695 0
-563 -426 0
-98 -225 0
-557 0
-785 0
-301 0
-511 0
-217 0
-990 820 0
-293 0
-279 -147 0
-462 -798 0
-698 295 0
-154 0
-998 0
-175 989 0
330 -926 0
-316 0
-585 0
-137 0
-919 -527 0
-748 -387 0
-144 -446 0
443 -42 0
-274 0
-165 -761 0
-124 0
-33 0
-541 411 0
-758 159 0
-457 0
-854 -81 0
-108 0
-846 0
-396 0
-93 0
-263 -681 0
-803 399 0
-952 0
-542 0
-90 -73 0
-87 820 0
-133 -635 0
-762 855 0
649 -415 0
-982 -858 0
280 -382 0
-613 -283 0
-536 -99 0
-132 0
258 -49 0
-621 0
-340 0
-957 0
-228 0
-107 0
-686 -561 0
-944 7 0
-925 0
-401 0
-605 878 0
468 -228 0
-911 0
-353 0
180 -433 0
-447 925 0
-452 0
200 -890 0
-24 730 0
-812 484 0
757 -730 0
888 -753 0
-588 773 0
-614 850 0
898 -876 0
-925 0
920 -738 0
-750 -789 0
-327 350 0
-675 0
-236 0
-171 0
-694 0
136 -318 0
-838 -467 0
85 -546 0
-148 0
-242 0
-151 0
33 -661 0
976 -304 0
985 -402 0
956 -378 0
-114 -746 0
-914 0
-615 -847 0
-260 0
-215 0
-627 0
-576 342 0
816 -255 0
-838 -514 0
152 -826 0
-291 0
-764 0
-478 246 0
536 -806 0
-237 0
-196 -948 0
138 -794 0
-742 771 0
-688 0
-171 341 0
-236 0
-88 461 0
-439 0
356 -107 0
-644 -241 0
-219 0
-714 0
-23 0
-271 -963 0
-759 -51 0
-839 895 0
-901 990 0
-610 0
-945 0
918 -921 0
104 -205 0
723 -557 0
-657 0
-429 0
-821 0
384 -252 0
-422 -157 0
817 -116 0
-124 654 0
-370 -594 0
-646 0
-880 0
-249 0
-697 0
-817 503 0
-763 0
-80 -795 0
-153 0
-638 723 0
-449 0
-728 0
-316 0
-603 0
144 -53 0
-571 -106 0
-607 103 0
-845 0
-763 0
-730 0
-830 999 0
870 -922 0
-711 420 0
-162 0
974 -281 0
-535 -173 0
-822 -868 0
-775 0
988 -793 0
-162 0
961 -163 0
-561 0
-504 -943 0
-263 -551 0
-446 380 0
138 -916 0
-83 214 0
-531 0
-644 0
-482 0
-147 759 0
520 -268 0
498 -578 0
-404 0
-804 365 0
449 -441 0
57 -517 0
-120 0
-72 0
-722 -274 0
-752 0
-471 0
-807 415 0
-931 0
-860 0
-160 -453 0
-316 -379 0
-503 583 0
-192 0
-338 0
-157 902 0
-641 0
-850 0
-242 0
-222 0
-508 0
-316 0
-140 0
-595 0
-622 636 0
-44 -546 0
529 -753 0
-823 -311 0
-976 -198 0
-499 0
-440 -164 0
-449 0
-687 0
74 -387 0
722 -741 0
169 -986 0
491 -922 0
-124 644 0
456 -250 0
-623 -801 0
-402 -474 0
-576 -912 0
-489 0
-342 -898 0
-472 0
-680 -226 0
-501 0
-579 0
-591 0
-769 0
-142 470 0
-266 0
-296 899 0
-80 475 0
-216 0
-680 462 0
-205 0
-446 54 0
-366 -76 0
256 -613 0
-235 0
-800 506 0
-455 707 0
-906 0
-40 -334 0
643 -601 0
888 -350 0
-384 0
-854 0
-71 0
664 -817 0
-720 0
-94 -585 0
83 -867 0
-590 -285 0
137 -799 0
822 -993 0
233 -974 0
-79 603 0
-302 0
-301 0
-292 349 0
-287 0
-432 0
-307 0
-375 0
-349 750 0
-85 -682 0
-756 565 0
-120 0
-800 0
-339 0
-917 0
-547 0
-406 0
834 -681 0
-409 0
-51 0
-365 -131 0
-735 0
-135 0
-315 0
-988 0
-62 0
-462 0
-535 0
-67 0
-17 0
-877 0
-667 0
-449 -785 0
-416 0
204 -147 0
-119 309 0
-801 0
-248 898 0
-112 39 0
-124 -730 0
-23 0
-703 -710 0
-676 871 0
-314 0
-526 834 0
-573 -179 0
-27 0
-878 0
264 -805 0
-582 0
665 -583 0
-688 -69 0
-49 0
-320 151 0
425 -322 0
-916 959 0
-556 974 0
-146 0
11 -100 0
928 -50 0
-838 0
-879 -357 0
-217 663 0
-35 -338 0
-876 0
-263 0
-1000 0
-846 -289 0
477 -522 0
-664 0
685 -753 0
-958 0
-63 157 0
-998 943 0
-356 0
-508 559 0
196 -251 0
736 -586 0
-840 0
-488 826 0
332 -51 0
-545 0
-32 0
-726 366 0
209 -838 0
-708 0
-547 862 0
-928 -668 0
752 -492 0
-150 0
936 -268 0
-366 -233 0
-265 0
-546 -506 0
-79 0
-40 -375 0
-672 309 0
-704 498 0
-558 190 0
-192 585 0
-863 681 0
537 -267 0
-646 923 0
-697 0
-606 0
-304 -547 0
-839 0
-271 513 0
-888 -498 0
449 -11 0
-295 -385 0
-886 -209 0
-976 -226 0
-764 -907 0
322 -332 0
-61 0
-142 -418 0
-161 0
-872 -135 0
-846 0
-943 0
-765 892 0
221 -690 0
-908 358 0
346 -133 0
-440 986 0
-78 143 0
-608 815 0
-318 0
-393 0
-415 -668 0
-589 -481 0
-240 653 0
743 -521 0
682 -477 0
66 -964 0
-26 0
466 -909 0
-489 0
-803 237 0
-253 0
100 -34 0
-972 0
-328 -170 0
-930 0
-829 0
-203 0
946 -121 0
-977 0
-668 886 0
621 -603 0
-453 789 0
160 -614 0
-781 -385 0
-319 -547 0
-179 0
-749 -50 0
179 -17 0
-120 693 0
-271 -766 0
-335 0
-536 -235 0
-556 0
768 -367 0
-614 0
-239 -226 0
283 -547 0
-662 0
-745 0
-586 -977 0
-46 0
-935 82 0
-190 0
-689 0
-540 110 0
612 -228 0
-853 -657 0
-692 -122 0
-628 0
-642 0
-521 0
896 -511 0
-917 0
924 -425 0
833 -348 0
-246 -338 0
579 -84 0
-830 0
427 -730 0
-805 319 0
-592 0
-407 0
-476 0
-493 -557 0
136 -19 0
323 -265 0
-102 0
-706 -626 0
-139 0
-40 0
451 -348 0
-101 0
-691 -274 0
902 -993 0
-872 -659 0
-517 -459 0
550 -506 0
948 -729 0
-720 -755 0
-8 -601 0
-307 0
212 -620 0
-684 0
-480 417 0
-11 519 0
659 -612 0
-424 452 0
995 -787 0
-405 0
-447 0
-315 0
-742 -93 0
-976 -577 0
-830 0
-641 271 0
-482 623 0
-371 0
-955 0
-376 -868 0
-890 0
-763 238 0
-406 276 0
-216 897 0
-856 0
-617 0
-835 0
-979 918 0
226 -373 0
-771 -666 0
248 -446 0
-208 466 0
649 -547 0
-875 0
777 -633 0
827 -373 0
-103 774 0
19 -645 0
641 -37 0
-750 -332 0
916 -881 0
-331 390 0
-980 822 0
-359 0
-595 0
-290 0
-685 509 0
-429 0
-120 -350 0
-85 -652 0
-15 0
-619 0
-819 0
-624 0
-752 -430 0
-16 -526 0
-348 0
-604 -137 0
-509 142 0
777 -615 0
-110 651 0
-836 0
-591 395 0
-526 0
786 -963 0
-40 0
-342 -209 0
-192 0
-46 -756 0
-917 317 0
-525 502 0
-509 -873 0
-688 -7 0
-216 0
-28 0
-273 0
232 -222 0
-632 0
-39 0
-541 742 0
90 -1 0
-561 0
-31 -915 0
-277 0
-801 0
-869 -837 0
-224 -218 0
49 -597 0
-627 0
-163 0
152 -137 0
-14 683 0
-541 0
-891 -730 0
-443 262 0
-629 0
-524 0
-628 0
-667 0
-738 0
-671 0
-564 0
-183 757 0
-416 0
-687 0
-344 125 0
-333 -908 0
-447 446 0
-14 0
-792 689 0
900 -577 0
-823 441 0
-220 0
144 -265 0
-594 167 0
435 -909 0
482 -381 0
-514 0
-357 0
-840 0
-191 -599 0
-177 231 0
-990 382 0
-412 0
-666 799 0
-432 0
-853 -130 0
-783 -194 0
618 -236 0
-643 0
868 -850 0
-174 0
-462 0
-44 -178 0
8 -202 0
-924 0
662 -233 0
-280 281 0
-36 0
-302 0
-67 -89 0
-144 0
-313 0
-299 0
-714 0
-8 -609 0
48 -442 0
-485 -652 0
480 -72 0
694 -289 0
-95 0
-518 -164 0
-758 291 0
-95 0
572 -665 0
-396 0
-888 0
-56 -481 0
-82 0
-945 0
-751 -651 0
-38 -685 0
-536 244 0
-29 -98 0
-480 671 0
-386 655 0
-643 0
-93 135 0
-647 26 0
-751 0
-984 600 0
-749 -43 0
-718 -404 0
-917 -684 0
94 -801 0
-832 449 0
-309 974 0
-374 109 0
-184 0
-743 0
-197 -971 0
-294 0
-12 567 0
-31 834 0
865 -250 0
-628 839 0
-41 0
-800 0
-709 0
-549 684 0
-47 979 0
-991 0
-124 0
-116 -569 0
123 -756 0
387 -929 0
-356 0
-922 0
-943 0
-728 -75 0
-390 0
-936 -364 0
-214 0
-224 316 0
385 -172 0
192 -53 0
-149 -890 0
-5 309 0
-840 0
-165 0
-909 0
-490 0
-235 511 0
-470 535 0
882 -108 0
-608 -890 0
-77 -458 0
-660 0
-799 -709 0
-573 -449 0
681 -489 0
-867 0
-573 -985 0
21 -690 0
-358 -19 0
756 -554 0
-876 -451 0
-850 0
-764 0
-871 -337 0
210 -179 0
-197 0
-743 -245 0
-853 0
-327 861 0
550 -329 0
-58 0
-710 196 0
-50 0
666 -770 0
233 -339 0
-880 0
-422 613 0
-284 -425 0
-193 407 0
11 -81 0
-942 -201 0
754 -370 0
-329 0
-928 -351 0
-707 0
912 -651 0
-4 0
-86 0
17 -413 0
-48 0
-595 0
-616 -842 0
-900 646 0
-649 0
-58 0
20 -817 0
-370 0
-32 260 0
-497 0
-790 291 0
-540 0
-42 -713 0
840 -458 0
-640 0
-655 -675 0
-665 0
-296 0
-148 -91 0
-262 868 0
-732 0
-400 1000 0
-318 -585 0
-345 0
-582 0
-955 0
-400 499 0
-55 540 0
-310 870 0
-144 34 0
-966 858 0
-399 154 0
-656 -79 0
795 -322 0
-30 0
-244 213 0
850 -13 0
-935 -249 0
-894 -358 0
-411 183 0
-98 0
299 -506 0
-38 -755 0
-788 150 0
-261 -291 0
-541 0
-14 0
-454 -276 0
147 -82 0
505 -222 0
-992 -121 0
392 -461 0
381 -819 0
-862 0
-216 19 0
-450 -609 0
-256 0
-787 -307 0
-704 0
-601 0
-669 0
-976 -96 0
419 -57 0
-465 0
-771 22 0
-113 0
-135 -293 0
-63 -612 0
-99 0
706 -5 0
796 -265 0
-259 0
826 -694 0
-907 0
-353 0
-951 -309 0
193 -780 0
-956 -401 0
-268 0
403 -636 0
396 -930 0
-851 0
-160 -835 0
-494 -850 0
995 -748 0
-115 0
-150 628 0
-21 140 0
-132 0
-4 901 0
674 -369 0
-425 0
-782 -395 0
-88 -969 0
-734 -269 0
-827 0
-40 852 0
-461 -329 0
-952 -1 0
-302 -924 0
-187 0
-897 0
-463 0
-47 0
106 -395 0
-669 0
621 -114 0
793 -483 0
296 -837 0
-376 -387 0
582 -826 0
-200 927 0
-628 0
-976 0
-848 708 0
-344 -821 0
376 -39 0
-191 725 0
-143 0
177 -462 0
-419 0
-790 14 0
-223 0
832 -827 0
-756 -778 0
-143 0
-988 0
-984 224 0
-999 0
276 -425 0
557 -618 0
-486 677 0
-644 0
-795 0
-437 629 0
-496 629 0
81 -942 0
-848 -846 0
-842 0
-512 0
-185 -689 0
-796 0
877 -74 0
-41 0
-714 0
43 -641 0
-982 572 0
-914 0
-439 443 0
-107 0
841 -965 0
-652 -467 0
-950 844 0
-336 0
-400 0
-247 0
-177 0
-103 203 0
203 -252 0
-866 118 0
-667 0
474 -161 0
-838 -662 0
793 -930 0
176 -843 0
-175 0
-519 -510 0
-401 0
-588 988 0
-164 0
-896 -306 0
-813 0
-373 655 0
-287 812 0
-254 0
-603 0
-28 0
-89 0
-423 -921 0
-343 167 0
-172 -689 0
-843 -578 0
-384 -714 0
-712 592 0
-751 -996 0
-902 0
958 -26 0
-8 256 0
-936 87 0
-496 -598 0
-792 0
-304 0
-517 0
-694 110 0
-774 239 0
-117 654 0
-347 -473 0
-961 0
-959 157 0
411 -650 0
-329 0
-448 993 0
-281 0
-420 0
-201 0
-568 0
13 -690 0
-315 0
-438 268 0
298 -461 0
-189 284 0
-589 0
-786 0
-170 0
547 -841 0
738 -238 0
-135 0
952 -797 0
-357 0
-987 0
-340 -922 0
-863 499 0
-238 285 0
-773 -257 0
-998 371 0
-399 603 0
-940 0
-768 0
-96 -553 0
-999 0
-839 -437 0
322 -717 0
589 -345 0
-528 -534 0
-351 638 0
-433 0
-155 0
-512 947 0
-131 0
-926 0
-236 -627 0
-430 -667 0
-510 988 0
-792 -402 0
-224 -373 0
-546 0
-43 271 0
-990 -299 0
-996 0
-594 0
-773 829 0
-625 719 0
-910 -763 0
-556 -241 0
-209 0
84 -307 0
-516 0
-408 0
-701 0
-804 -689 0
-231 -108 0
-139 0
-17 0
-219 0
-846 -650 0
-253 0
158 -425 0
-270 299 0
-789 0
515 -388 0
-858 -250 0
-144 -980 0
-777 0
-602 -490 0
-79 0
-776 651 0
-244 -467 0
-361 -209 0
-255 180 0
-443 0
-149 0
216 -846 0
-362 0
42 -435 0
-206 -381 0
-854 -250 0
53 -386 0
-176 -35 0
-327 0
-196 0
323 -701 0
-512 0
-771 629 0
-517 846 0
-682 0
-461 0
-463 507 0
-179 0
665 -321 0
-832 0
-445 0
-462 -557 0
-259 -346 0
105 -713 0
-460 295 0
-93 -363 0
-262 0
-28 469 0
-440 -630 0
-776 0
-685 -473 0
-139 0
-625 23 0
979 -306 0
-412 0
-684 0
-432 499 0
-824 -326 0
-504 0
-322 0
288 -363 0
-800 743 0
-455 0
-816 899 0
-215 -235 0
52 -594 0
-916 919 0
-381 349 0
900 -828 0
841 -671 0
-551 -210 0
-79 -545 0
-494 142 0
75 -884 0
-335 0
-458 0
-935 724 0
-256 953 0
986 -661 0
277 -387 0
-134 0
-838 798 0
370 -51 0
-340 -460 0
-871 0
-620 0
-5 -876 0
-520 0
-695 -475 0
427 -92 0
-331 0
-984 -374 0
-38 0
-936 -97 0
-423 23 0
-582 0
-208 -442 0
-71 -2 0
-555 0
720 -246 0
-759 694 0
-457 0
75 -812 0
-733 0
553 -218 0
-815 -639 0
-786 0
408 -6 0
-797 0
-72 0
-814 -485 0
-473 0
-606 0
356 -889 0
-287 0
-31 -561 0
-232 988 0
-63 0
-289 0
-193 0
-396 -387 0
369 -590 0
-342 451 0
-214 -401 0
-190 148 0
99 -553 0
-535 -71 0
-574 -908 0
-296 -120 0
821 -963 0
-471 398 0
-494 -850 0
579 -657 0
-476 0
-540 -403 0
-187 -395 0
-853 0
-206 0
-677 0
-608 -809 0
863 -25 0
665 -583 0
-234 0
-812 0
344 -491 0
623 -689 0
-563 0
-770 0
-271 -295 0
-320 179 0
-285 -145 0
676 -651 0
-267 0
-951 268 0
-285 77 0
-40 42 0
677 -890 0
-930 -569 0
-253 0
-999 893 0
-939 958 0
-407 -709 0
-567 -399 0
-243 0
-543 898 0
-191 -139 0
-299 311 0
-734 -753 0
-487 0
585 -157 0
-912 490 0
-438 -449 0
-590 91 0
-638 -60 0
617 -683 0
-501 -945 0
236 -658 0
-733 0
-843 182 0
888 -667 0
-351 633 0
-679 0
-967 274 0
-128 533 0
859 -729 0
-591 0
536 -178 0
-286 -602 0
912 -342 0
-809 0
498 -268 0
-253 -186 0
-647 -997 0
899 -980 0
-488 -975 0
-320 -339 0
-64 975 0
921 -917 0
-683 183 0
-12 0
178 -521 0
-776 -155 0
-724 -450 0
-806 278 0
179 -443 0
-501 14 0
-28 0
-181 438 0
-791 -258 0
-470 0
-506 0
185 -278 0
-864 0
-232 0
-434 239 0
-49 0
-441 0
-138 0
-847 425 0
795 -541 0
-600 0
-583 0
440 -385 0
-316 903 0
-126 0
-864 554 0
-731 0
-643 0
-983 -838 0
-872 -591 0
-687 853 0
-118 0
3 -266 0
-255 0
-960 -914 0
-128 943 0
-214 0
-965 -45 0
-943 0
-110 866 0
-839 0
-607 645 0
-757 -138 0
997 -273 0
655 -137 0
1000 -417 0
396 -553 0
339 -451 0
-245 0
264 -566 0
-400 0
-649 0
-985 0
-8 493 0
536 -658 0
481 -494 0
-110 611 0
-650 671 0
-403 0
-628 0
-912 -64 0
-87 0
-846 428 0
753 -626 0
-540 -273 0
304 -733 0
-79 0
-359 0
170 -284 0
-947 0
-569 0
164 -433 0
428 -611 0
-853 -881 0
-320 827 0
-582 933 0
390 -26 0
-343 279 0
-477 0
-117 0
-983 -313 0
-959 787 0
-673 135 0
-112 0
-970 0
-645 69 0
-685 -925 0
-823 -467 0
-4 0
828 -9 0
-517 0
90 -89 0
-983 0
155 -642 0
-552 -341 0
-750 -258 0
-392 -256 0
-655 0
-23 404 0
-317 -897 0
-768 -62 0
-102 0
-595 0
-208 0
-886 299 0
-816 450 0
-794 0
600 -346 0
-719 -189 0
-896 286 0
-726 0
-372 38 0
-863 998 0
-261 0
-150 -418 0
-404 0
-600 0
-581 116 0
-645 502 0
32 -499 0
-126 0
-668 783 0
-475 -690 0
-661 -226 0
-856 -765 0
-377 0
-540 0
666 -742 0
-416 -454 0
-182 91 0
506 -483 0
-358 686 0
-385 0
-832 -165 0
816 -677 0
-41 0
-158 0
593 -651 0
-734 0
-332 676 0
-462 0
-200 0
21 -993 0
-344 880 0
-115 0
850 -790 0
-89 0
517 -481 0
-940 -330 0
-158 0
-813 838 0
863 -881 0
-535 0
-620 0
-605 0
562 -228 0
-244 989 0
-182 0
225 -546 0
705 -190 0
-852 0
-654 -74 0
149 -178 0
-29 -226 0
320 -566 0
-709 878 0
-415 0
-600 0
-409 -609 0
-347 0
400 -373 0
-967 -518 0
403 -746 0
-449 0
-254 901 0
-960 0
-716 94 0
403 -283 0
688 -639 0
18 -609 0
-976 0
-272 556 0
972 -754 0
-595 815 0
-781 0
-503 -868 0
-405 -261 0
-432 891 0
-500 0
-855 0
872 -322 0
-789 0
274 -665 0
-763 0
-971 0
-869 0
-34 0
-112 0
825 -302 0
-559 -978 0
-727 0
-976 0
283 -853 0
487 -409 0
-374 0
-364 0
153 -677 0
186 -541 0
-730 0
-184 0
10 -500 0
264 -380 0
-939 0
821 -441 0
-837 0
-452 0
-784 668 0
-471 0
-660 -169 0
580 -403 0
-32 -502 0
-250 151 0
-799 0
393 -980 0
-870 0
920 -535 0
-423 0
-583 -385 0
379 -220 0
-549 0
-755 -67 0
-282 -777 0
-430 149 0
-814 58 0
-590 91 0
877 -90 0
-720 -130 0
-707 0
697 -553 0
-14 0
-815 -788 0
-878 0
-74 639 0
-580 14 0
-14 -545 0
204 -691 0
-88 -740 0
-429 0
227 -41 0
234 -549 0
-786 15 0
-511 0
-722 0
-727 -900 0
-131 7 0
-197 0
-261 0
969 -348 0
-903 827 0
-837 0
384 -963 0
-323 -178 0
730 -178 0
-129 0
-790 0
-702 -833 0
537 -945 0
-896 0
-406 0
258 -436 0
-845 724 0
205 -745 0
-578 0
52 -154 0
-895 -969 0
-170 0
-744 628 0
145 -9 0
-15 0
-687 -733 0
-488 -772 0
-989 990 0
-170 775 0
-824 -259 0
-496 384 0
342 -193 0
-453 278 0
-290 0
-367 338 0
-64 0
219 -577 0
-715 0
-688 -609 0
-527 0
-132 -363 0
-751 325 0
-384 459 0
-327 998 0
-239 227 0
-416 -598 0
-96 0
-423 714 0
-384 983 0
-951 0
400 -297 0
-175 0
-35 0
-588 -82 0
114 -642 0
-507 0
-906 -489 0
-918 -525 0
-525 0
-328 278 0
-596 0
-517 0
-484 0
-165 0
-551 -258 0
-813 -667 0
-278 -778 0
-934 990 0
-923 118 0
-764 0
-637 0
-354 -681 0
-543 0
-294 0
-848 -254 0
-462 -125 0
-339 0
-900 748 0
-923 0
-438 0
-830 -756 0
-522 0
688 -555 0
-317 0
-872 204 0
16 -441 0
-478 0
-972 0
-420 0
-386 -721 0
-119 -636 0
-496 0
-216 0
-245 0
-481 0
-784 538 0
-402 0
-612 0
-748 0
-38 69 0
-24 0
-786 0
898 -859 0
-248 -274 0
89 -876 0
530 -835 0
-814 580 0
695 -81 0
-969 543 0
-971 -730 0
-464 -2 0
-310 0
37 -747 0
-488 -794 0
-449 0
-562 0
-517 -12 0
-791 330 0
-687 0
-272 0
113 -129 0
-150 0
971 -12 0
-132 0
-108 -921 0
-737 0
-685 0
-928 0
-741 0
-773 0
-204 367 0
-38 -466 0
-240 0
889 -467 0
-287 626 0
-127 -763 0
249 -425 0
-378 0
-238 0
-32 0
636 -81 0
-30 0
712 -569 0
-336 -52 0
-829 -145 0
483 -547 0
-373 0
857 -796 0
185 -412 0
-974 398 0
-126 -59 0
409 -138 0
-419 -377 0
-156 759 0
-667 0
-546 0
-286 -371 0
-599 -316 0
-376 0
-222 -782 0
-782 678 0
-566 0
761 -683 0
-306 327 0
-581 143 0
432 -428 0
-814 -51 0
520 -475 0
744 -56 0
-710 -117 0
-192 -750 0
202 -793 0
-491 446 0
-25 0
-257 767 0
-637 -217 0
-663 -662 0
-88 0
-515 -691 0
379 -411 0
-808 998 0
923 -730 0
-393 0
-406 0
-93 -925 0
-756 -377 0
-53 -507 0
-929 0
-202 0
-226 199 0
458 -235 0
812 -411 0
-344 303 0
12 -354 0
-632 0
-282 0
-110 0
-559 322 0
345 -635 0
-750 0
-828 0
-898 0
-33 0
-56 -105 0
-311 883 0
520 -30 0
-164 -793 0
-904 -311 0
561 -595 0
-326 0
-99 0
328 -111 0
525 -91 0
-871 0
-551 42 0
-927 -179 0
-454 -388 0
-216 251 0
-501 492 0
-253 0
-223 -378 0
-790 84 0
-134 917 0
-272 -83 0
-592 0
-330 0
-854 995 0
345 -826 0
-559 354 0
-408 421 0
-431 0
600 -863 0
-379 0
-770 0
-421 0
56 -260 0
-469 0
-986 0
-24 0
-216 0
-191 979 0
-482 0
-462 -772 0
-569 0
-706 0
-576 316 0
-545 0
-632 446 0
324 -601 0
-247 0
-63 0
-784 406 0
801 -830 0
-24 -977 0
-351 -998 0
-307 975 0
-143 0
352 -621 0
-655 -94 0
613 -897 0
-672 -725 0
-440 -310 0
-226 0
-197 -172 0
-932 0
-432 -960 0
-99 0
-884 -468 0
-283 0
-455 556 0
-351 147 0
-32 0
-872 -882 0
737 -332 0
505 -99 0
-460 0
-949 0
-445 -435 0
-76 279 0
-135 0
-678 -27 0
720 -881 0
-843 991 0
-466 966 0
-867 614 0
-613 742 0
-608 509 0
-988 0
-573 0
-734 -829 0
96 -895 0
769 -228 0
-88 0
-828 -225 0
-456 -772 0
-864 -549 0
-26 0
-539 -882 0
-812 -659 0
99 -10 0
-140 -482 0
-663 -902 0
-368 0
-680 0
-428 -35 0
-129 0
-280 881 0
-878 -610 0
-366 0
336 -413 0
-486 179 0
-561 0
-663 0
-803 0
-208 0
-138 0
-389 0
-546 0
-148 -665 0
-744 629 0
-88 0
-294 0
-349 933 0
-727 0
-650 -529 0
411 -817 0
795 -995 0
754 -724 0
-213 -74 0
-135 394 0
-561 0
-972 0
789 -913 0
-254 515 0
-146 -386 0
970 -470 0
929 -4 0
817 -140 0
385 -973 0
-930 0
-403 711 0
-564 -51 0
300 -514 0
-368 -411 0
-95 0
891 -709 0
-454 -11 0
-458 0
-137 663 0
176 -724 0
-731 0
-1 111 0
-731 0
-537 0
-916 -139 0
-464 880 0
290 -53 0
-987 0
-615 583 0
534 -209 0
-4 831 0
-277 0
-575 130 0
-85 0
-536 439 0
-382 0
437 -178 0
-66 0
-998 634 0
-290 263 0
-158 0
-795 0
-491 0
-996 -857 0
-676 0
16 -939 0
305 -893 0
-772 0
51 -242 0
-623 -987 0
-504 536 0
-156 0
-757 -755 0
-176 191 0
-412 0
-84 0
248 -789 0
-470 0
-447 -449 0
-717 -227 0
-277 0
586 -717 0
640 -454 0
370 -625 0
-280 -485 0
-257 0
60 -170 0
-327 0
-639 835 0
-864 -347 0
711 -873 0
-390 -637 0
-198 0
985 -723 0
-198 815 0
-87 0
-116 31 0
-959 19 0
-40 0
-496 -861 0
-383 205 0
597 -571 0
-830 779 0
-915 557 0
-749 -227 0
-70 -113 0
-701 -259 0
-132 0
-796 0
508 -674 0
-695 0
-900 0
-781 660 0
-370 -921 0
-124 -801 0
784 -47 0
-515 0
-584 -432 0
-786 0
-646 0
-978 0
-383 47 0
-47 0
1 -188 0
-392 -674 0
-118 0
-857 0
-355 -449 0
765 -970 0
521 -774 0
-56 189 0
-739 -474 0
569 -366 0
-182 550 0
-36 -985 0
417 -835 0
-262 -66 0
-912 -871 0
-194 0
-872 429 0
-815 0
-986 0
-703 730 0
-97 0
-971 -210 0
-846 0
-989 0
-701 -466 0
-925 -882 0
-844 599 0
-582 0
-611 0
-865 0
-399 0
-48 771 0
-79 -663 0
-600 -123 0
-736 -351 0
-9 0
-574 -921 0
-752 0
-574 0
-942 150 0
-636 0
-686 0
387 -202 0
-408 426 0
121 -969 0
664 -513 0
-503 892 0
737 -854 0
-680 -301 0
-778 0
-940 94 0
-88 0
-483 302 0
-392 -94 0
938 -924 0
-983 0
-634 -786 0
-706 0
532 -51 0
-416 0
-7 0
410 -228 0
-551 701 0
-799 0
219 -531 0
16 -379 0
-219 0
-919 0
-483 0
-390 0
208 -467 0
-525 -755 0
-519 0
-76 957 0
-70 0
-230 214 0
-927 0
-963 373 0
-882 -434 0
-619 670 0
-558 0
-810 0
-648 185 0
-400 -556 0
-438 -9 0
-239 0
-712 0
-301 -3 0
-66 -465 0
336 -555 0
-239 0
-893 -313 0
-112 -568 0
-16 507 0
452 -673 0
-341 837 0
-384 244 0
54 -218 0
301 -434 0
-243 702 0
-469 -917 0
-629 422 0
488 -780 0
458 -489 0
-868 471 0
-370 0
-56 0
-44 231 0
776 -291 0
-995 62 0
-910 0
-431 886 0
-312 -260 0
-111 951 0
-246 0
-215 -982 0
-610 0
-420 0
-720 0
-335 0
-175 0
-496 156 0
-744 994 0
461 -35 0
-824 0
584 -511 0
-53 0
-148 -836 0
-518 0
-476 0
-827 -521 0
-855 0
-360 698 0
-454 -769 0
-590 0
-437 -241 0
-923 0
-949 919 0
-54 0
913 -611 0
-934 0
-213 0
-758 0
849 -385 0
-760 44 0
451 -156 0
-501 0
579 -291 0
-472 -812 0
471 -849 0
-753 0
344 -337 0
-31 0
-870 -372 0
-608 534 0
452 -322 0
-672 0
808 -844 0
-108 0
-774 0
-806 0
-543 -386 0
-261 0
-544 -842 0
-221 0
-701 708 0
-223 0
-757 -706 0
-471 -892 0
-252 0
640 -652 0
-699 -843 0
-747 -953 0
832 -469 0
-942 77 0
-685 0
-264 -661 0
-223 0
-813 814 0
-568 0
-302 -458 0
-213 -395 0
568 -390 0
253 -337 0
259 -667 0
-280 0
200 -66 0
892 -506 0
-845 0
-663 357 0
-431 -364 0
-363 0
-196 0
-535 222 0
256 -447 0
-172 0
-868 0
200 -416 0
18 -273 0
-648 635 0
923 -772 0
-350 802 0
-511 0
-227 0
-369 0
-952 0
-677 -892 0
-914 0
-750 0
-29 -138 0
357 -626 0
-235 -650 0
600 -270 0
369 -442 0
349 -105 0
-520 0
-383 0
-379 0
-79 -339 0
-743 0
988 -660 0
-413 -301 0
-40 0
-638 429 0
-736 274 0
-716 844 0
-992 -797 0
-520 0
-376 -34 0
-763 0
-519 291 0
-594 0
-880 23 0
-392 0
-214 0
-302 -219 0
-575 -170 0
552 -533 0
-771 0
-434 0
-996 0
-159 -35 0
-808 0
-64 986 0
-463 -805 0
-704 239 0
-671 0
-120 0
629 -562 0
-61 -426 0
-706 0
-570 -962 0
-342 -753 0
-571 -937 0
-720 -221 0
-864 0
771 -123 0
-665 0
-550 254 0
-752 0
-238 -266 0
-525 270 0
-966 0
-160 882 0
-235 0
-439 0
-589 727 0
531 -705 0
493 -649 0
-429 343 0
603 -89 0
-957 606 0
345 -396 0
953 -291 0
-943 -273 0
-855 0
-832 0
-206 -668 0
-981 0
-143 -927 0
-303 634 0
-804 0
-556 -833 0
-973 -157 0
-289 0
-606 238 0
-161 0
-936 -930 0
-272 689 0
-839 707 0
673 -450 0
-847 306 0
332 -850 0
330 -219 0
-346 0
-598 -42 0
-515 0
-213 0
440 -497 0
146 -761 0
-390 307 0
-773 933 0
362 -771 0
-893 -196 0
-912 0
368 -292 0
170 -109 0
-738 -153 0
-877 0
-687 0
-576 174 0
-239 -670 0
-189 29 0
914 -617 0
-643 0
-381 0
-776 813 0
-69 0
-416 97 0
-263 -964 0
-487 0
736 -897 0
124 -554 0
-583 591 0
-545 0
-945 0
-667 158 0
460 -658 0
-101 -875 0
-886 314 0
-289 0
-629 0
-965 -265 0
539 -266 0
912 -137 0
-855 387 0
-118 791 0
-32 905 0
-808 -914 0
-455 0
-453 -260 0
-596 0
276 -874 0
-626 0
-604 463 0
-230 -193 0
-878 -925 0
-164 0
-885 212 0
-14 0
-190 -123 0
-730 0
-873 0
-429 0
-545 0
400 -309 0
-643 0
-740 0
-391 0
-96 -925 0
573 -698 0
531 -244 0
828 -858 0
-744 -825 0
456 -434 0
-292 0
-866 0
624 -229 0
-213 780 0
-246 0
-551 0
-972 -754 0
-678 -939 0
410 -891 0
-930 0
-218 -489 0
-336 547 0
-61 -842 0
-998 0
922 -156 0
-513 0
-962 0
-362 0
-859 719 0
-592 -243 0
-400 253 0
27 -89 0
-999 0
-244 0
-49 0
-574 622 0
961 -386 0
-590 902 0
-558 -933 0
-141 180 0
655 -25 0
709 -354 0
730 -385 0
-66 0
-248 0
42 -121 0
-421 -67 0
-514 0
-800 0
-156 0
-355 0
-498 0
-789 948 0
-550 231 0
-728 0
321 -349 0
-762 0
-354 0
-738 0
-48 419 0
593 -923 0
-443 150 0
418 -691 0
426 -907 0
-637 0
-40 -758 0
-439 -644 0
-417 0
-471 -801 0
-35 0
-962 -345 0
-52 31 0
-48 191 0
186 -556 0
-749 0
-734 0
-927 0
-834 0
-688 -415 0
-575 -574 0
-990 0
-512 543 0
-208 307 0
-256 -174 0
-566 0
-744 -364 0
-951 302 0
-366 482 0
-157 269 0
-550 0
936 -18 0
480 -819 0
251 -500 0
-900 0
-207 603 0
-717 -810 0
-654 270 0
-790 0
-775 -461 0
-288 258 0
-783 747 0
-555 -394 0
-807 -707 0
-184 -977 0
-102 0
-7 0
-141 0
-64 -930 0
-621 -530 0
-374 -290 0
392 -446 0
-458 998 0
377 -517 0
-8 -57 0
-506 0
-480 724 0
-244 511 0
-684 0
-317 381 0
-787 0
-206 0
-960 0
666 -434 0
-2 0
-830 0
-216 457 0
-84 -562 0
-553 0
-627 0
-2 0
-556 597 0
-113 0
-544 0
199 -625 0
-270 0
-172 0
108 -817 0
-334 948 0
-935 154 0
-760 434 0
69 -347 0
-515 0
-456 0
-83 -786 0
-892 -419 0
-923 0
625 -130 0
322 -621 0
-313 0
-348 -553 0
-999 788 0
866 -403 0
-775 -485 0
-702 0
461 -897 0
-552 688 0
-62 -9 0
-953 0
-54 -36 0
-553 0
-268 0
-606 0
-24 587 0
-710 -189 0
-715 0
-414 11 0
-359 -675 0
-46 0
-141 0
898 -605 0
25 -186 0
185 -961 0
-367 -646 0
-671 0
-523 0
-73 0
-175 -279 0
-292 0
-260 0
-309 0
-792 248 0
-616 478 0
-156 356 0
-951 -180 0
-667 0
-647 0
-547 0
-815 -949 0
-546 0
-344 0
-120 -258 0
42 -426 0
849 -972 0
-717 0
-954 0
-988 0
-11 0
221 -938 0
-361 0
306 -884 0
-200 -377 0
-792 275 0
819 -370 0
-791 -947 0
-457 0
-154 0
-590 627 0
-638 0
-33 0
-585 0
-686 588 0
-838 366 0
-92 0
-886 0
-320 -841 0
-188 0
-815 0
-536 -538 0
-90 -882 0
-219 0
-8 892 0
-547 0
-479 710 0
803 -138 0
-887 0
-755 -393 0
-162 0
870 -217 0
-951 0
-788 838 0
-645 247 0
-228 0
-870 669 0
-506 223 0
-496 346 0
-749 525 0
-359 599 0
-535 0
-220 -595 0
137 -962 0
-676 0
-549 -617 0
-66 0
-632 0
-923 0
-166 109 0
-158 0
-589 0
-190 -67 0
-836 0
-954 0
-862 -131 0
-293 0
-286 0
-710 0
-712 0
-40 -26 0
-646 0
-251 -857 0
-231 677 0
-999 580 0
-307 0
-327 0
-882 0
-572 -355 0
-688 223 0
-344 -499 0
-50 -826 0
-200 -409 0
-284 0
650 -443 0
-677 -601 0
-29 0
145 -548 0
-888 -921 0
-636 0
-725 -89 0
-339 0
525 -777 0
-887 0
-225 0
-827 0
481 -603 0
-880 0
-724 -17 0
-330 0
-984 0
-894 0
-353 0
-871 0
-143 0
-13 963 0
-602 0
-265 0
-2 0
-15 269 0
-642 0
-940 0
-828 406 0
-279 0
810 -681 0
-729 0
-415 0
-979 -634 0
361 -689 0
-542 0
-786 -777 0
-949 221 0
712 -138 0
-2 0
-650 0
-46 -149 0
760 -873 0
12 -722 0
-779 0
-190 0
-53 0
-384 -678 0
790 -665 0
-828 519 0
-978 0
-523 0
-516 438 0
-229 0
-40 223 0
-221 -265 0
777 -918 0
445 -633 0
-574 -886 0
-14 0
819 -941 0
-152 0
-104 -225 0
-360 0
-688 512 0
-711 997 0
-730 0
-380 0
-581 0
-272 149 0
-104 0
-688 0
-937 0
-867 0
-977 -841 0
-157 460 0
-696 -543 0
-593 0
-943 329 0
-622 -573 0
-884 0
-668 0
59 -461 0
-86 66 0
-254 -845 0
-905 0
-716 -435 0
1 -197 0
-53 951 0
961 -206 0
-386 0
241 -877 0
-848 -294 0
-488 -682 0
178 -404 0
-62 -325 0
-867 0
-183 0
-469 0
-751 171 0
-752 -816 0
-288 694 0
-841 0
920 -705 0
-264 -61 0
-253 0
-826 0
361 -76 0
-199 31 0
-224 400 0
827 -611 0
-934 150 0
-269 939 0
-704 -248 0
99 -371 0
-315 63 0
-237 0
-379 0
289 -350 0
-993 0
-111 -316 0
929 -963 0
-531 229 0
-548 108 0
-193 0
-939 0
-664 0
721 -953 0
-229 0
235 -715 0
536 -90 0
-618 47 0
-928 -260 0
-966 860 0
-775 -6 0
-629 0
122 -73 0
-312 -347 0
-352 563 0
-964 0
-866 0
345 -473 0
-752 0
-182 535 0
-112 0
-14 0
-524 0
-347 0
-120 0
-177 0
-701 -195 0
-75 0
-982 315 0
-103 231 0
-230 0
-151 0
-296 -115 0
218 -990 0
-795 0
369 -989 0
-606 -286 0
800 -935 0
-964 0
-398 0
-963 0
-373 -75 0
-654 0
-245 0
-470 -749 0
-696 -112 0
-54 867 0
-271 0
-55 0
-524 127 0
-216 -658 0
-678 0
522 -654 0
-261 0
648 -359 0
-166 -997 0
-133 0
-15 -115 0
-199 439 0
530 -69 0
-495 -441 0
-983 -634 0
-253 -909 0
-809 0
-831 -238 0
-136 287 0
-354 -490 0
-660 -17 0
876 -81 0
-153 0
-622 876 0
-644 -946 0
19 -241 0
-255 844 0
-207 0
13 -834 0
65 -499 0
-23 534 0
738 -129 0
281 -655 0
-425 0
-816 27 0
781 -691 0
-936 -133 0
-700 0
-777 0
-808 -748 0
-717 0
-859 0
-880 450 0
-36 0
-547 0
-748 0
-839 342 0
-345 0
-642 0
-519 -12 0
-792 672 0
840 -901 0
-892 844 0
674 -453 0
-313 0
-656 0
-344 254 0
-355 199 0
872 -782 0
821 -689 0
-292 0
-209 0
-510 0
-650 0
-110 -828 0
319 -889 0
-452 0
-236 0
-879 0
-695 715 0
-297 0
-447 -526 0
52 -811 0
-558 0
-240 0
-260 423 0
-466 270 0
-762 0
488 -785 0
-885 0
36 -980 0
-342 412 0
-327 0
776 -362 0
-543 0
-564 -316 0
-335 934 0
-590 0
-997 358 0
-135 -846 0
-625 0
-388 0
-43 -418 0
-959 0
-335 -755 0
-596 -291 0
-605 -987 0
522 -947 0
-471 0
801 -115 0
-511 186 0
-852 415 0
-966 317 0
-23 559 0
-464 0
-342 0
-897 0
-847 0
-144 732 0
378 -140 0
169 -843 0
-124 0
-839 194 0
-37 838 0
625 -202 0
-170 191 0
-926 0
-622 -265 0
-591 -805 0
-422 779 0
-160 -499 0
-824 -61 0
553 -709 0
-764 -874 0
-926 59 0
692 -643 0
762 -700 0
-282 0
-163 0
-119 555 0
-822 716 0
-363 -665 0
-245 0
-687 -575 0
-633 0
619 -405 0
-507 0
-456 0
-564 0
576 -717 0
-400 0
426 -803 0
-122 0
-21 -667 0
-815 0
-1000 64 0
-773 -435 0
-410 0
-867 79 0
-181 975 0
175 -393 0
-310 -829 0
850 -860 0
-373 0
-848 0
954 -51 0
-504 -516 0
-806 0
-593 0
-205 0
-962 0
259 -996 0
-216 0
-132 -867 0
-638 0
-741 255 0
-782 0
256 -565 0
-519 62 0
-893 0
-437 -909 0
435 -388 0
777 -654 0
-344 -745 0
-832 -996 0
-820 0
-222 -883 0
-687 140 0
369 -925 0
-406 851 0
480 -916 0
-629 0
-654 915 0
-883 -426 0
-789 628 0
346 -642 0
-74 0
-789 0
-214 -981 0
248 -814 0
-64 853 0
-103 -836 0
-76 -491 0
-874 719 0
-656 132 0
-279 -228 0
-857 0
-266 0
-762 551 0
-531 -577 0
-519 0
-637 0
99 -931 0
804 -803 0
-343 877 0
-40 570 0
-651 0
-728 692 0
-838 -350 0
-232 827 0
-953 0
-160 -887 0
120 -591 0
-662 -235 0
-767 85 0
873 -345 0
3 -605 0
449 -793 0
-754 0
-236 0
-880 486 0
433 -133 0
-875 998 0
-262 386 0
353 -125 0
-580 117 0
-408 -701 0
-916 0
-911 0
-982 183 0
-192 502 0
48 -880 0
-202 0
992 -267 0
-77 0
-384 523 0
-400 798 0
381 -665 0
-115 0
-207 18 0
-376 0
544 -412 0
-741 127 0
-442 0
-103 -697 0
-384 -731 0
-464 0
-223 0
-742 0
-213 734 0
-583 -717 0
905 -292 0
283 -314 0
-686 -609 0
-190 68 0
-357 655 0
-464 107 0
-326 -230 0
-877 270 0
435 -747 0
-584 0
-889 0
-63 -535 0
-275 0
884 -428 0
-385 0
-414 0
-487 -738 0
940 -460 0
-246 0
-405 159 0
347 -306 0
-727 169 0
657 -122 0
-660 -460 0
-336 348 0
-756 0
-675 -665 0
-289 0
-125 -890 0
-896 -430 0
-255 939 0
-891 0
-65 0
-836 0
162 -563 0
858 -404 0
-336 -62 0
-792 0
-165 0
-664 -817 0
-624 -458 0
-229 0
-240 -471 0
-80 168 0
-666 0
-286 -981 0
-924 0
-799 0
-376 0
-199 543 0
179 -305 0
298 -490 0
-916 0
-967 0
-145 887 0
-632 -751 0
10 -845 0
232 -603 0
-749 0
-369 0
-382 -131 0
-854 0
-207 -327 0
-451 -425 0
713 -258 0
-635 0
-53 0
-200 0
555 -884 0
-452 622 0
-709 0
-146 -570 0
-48 -788 0
-13 -418 0
-86 -347 0
-353 0
-536 -197 0
-251 0
-884 421 0
146 -460 0
-177 0
-270 -108 0
-236 0
-144 181 0
-146 751 0
-22 0
-477 -946 0
-557 -57 0
-568 859 0
-228 0
-611 0
-293 0
303 -41 0
-912 892 0
-747 -489 0
-962 0
-201 0
-847 0
-93 -211 0
-628 -740 0
-414 531 0
-888 -369 0
-817 0
53 -322 0
-738 -697 0
-607 330 0
-174 -633 0
-729 0
-11 0
-607 0
-340 0
-111 0
72 -947 0
618 -202 0
794 -965 0
-430 0
90 -493 0
-982 653 0
-442 551 0
-979 -546 0
-750 -796 0
-363 0
-820 0
133 -785 0
-893 0
-951 290 0
-701 934 0
-262 0
322 -9 0
49 -578 0
-940 0
-348 0
466 -324 0
-250 0
-517 -403 0
-785 0
-47 610 0
681 -142 0
-55 678 0
-205 -227 0
449 -764 0
-70 0
865 -873 0
-820 0
-997 -842 0
-959 279 0
-426 0
832 -809 0
-311 -252 0
276 -907 0
-707 567 0
724 -259 0
768 -619 0
-819 543 0
-850 927 0
-216 946 0
-319 0
-736 295 0
-723 -497 0
552 -46 0
559 -953 0
-648 -279 0
-37 278 0
-942 -714 0
-757 0
649 -26 0
-168 0
-653 0
-110 0
-463 0
-873 0
-630 950 0
-448 -930 0
769 -786 0
-952 0
-685 -108 0
-782 0
925 -890 0
-550 214 0
-724 574 0
-681 0
-694 0
906 -771 0
-861 0
59 -357 0
-592 787 0
-649 0
907 -945 0
884 -300 0
-324 -978 0
-935 340 0
-673 0
-245 715 0
-304 0
370 -299 0
49 -284 0
305 -967 0
-636 0
-388 0
-493 732 0
-558 349 0
449 -383 0
-230 259 0
-600 0
-876 0
-35 0
-74 0
-15 0
152 -40 0
-992 -170 0
-588 0
-106 0
-32 -351 0
-911 -182 0
-444 -481 0
661 -313 0
-551 0
-1000 0
-581 0
-21 788 0
394 -634 0
-745 0
-766 0
-263 -828 0
442 -233 0
-517 476 0
-176 0
-932 0
-734 -169 0
-8 -480 0
-327 90 0
813 -579 0
-867 0
-996 101 0
-464 0
-528 0
-726 195 0
-854 0
371 -307 0
-160 -150 0
368 -678 0
370 -251 0
-563 0
169 -275 0
-760 -48 0
-230 83 0
-61 -313 0
124 -225 0
-758 0
-221 0
-31 -34 0
-870 0
745 -899 0
-821 0
-633 0
-280 -938 0
778 -718 0
-686 -545 0
-678 -491 0
-667 0
-719 251 0
-320 446 0
-310 -238 0
-504 -647 0
-535 -260 0
178 -619 0
-248 82 0
-4 71 0
-645 -514 0
-727 0
-18 103 0
-894 0
-926 292 0
-1 0
-217 0
-731 0
-587 0
-683 0
-162 0
-935 0
-553 463 0
-161 -785 0
-483 0
-765 422 0
115 -730 0
-335 0
-420 0
-921 0
-795 -466 0
-15 0
-421 -389 0
-499 405 0
-111 0
-270 0
-189 863 0
-198 371 0
-535 0
-755 -610 0
-42 0
497 -20 0
-485 955 0
-688 782 0
-552 -638 0
-647 0
-749 0
-320 660 0
65 -665 0
752 -484 0
867 -555 0
769 -573 0
-1000 0
-807 0
-15 -781 0
75 -66 0
571 -876 0
-121 0
-774 -105 0
-734 59 0
-476 0
-38 -637 0
505 -604 0
-559 -421 0
-672 0
-271 -801 0
-972 565 0
752 -468 0
510 -329 0
496 -542 0
-926 0
730 -795 0
-503 -508 0
76 -891 0
-711 -505 0
-373 0
-610 0
265 -345 0
-115 -818 0
-943 -124 0
953 -819 0
-310 607 0
-632 938 0
434 -499 0
-693 293 0
-205 723 0
-185 0
-990 165 0
-925 630 0
-58 0
-172 -634 0
-152 -741 0
-334 0
-558 -353 0
-56 -950 0
-863 -140 0
232 -676 0
-875 0
-271 -420 0
-716 0
-472 -645 0
-415 -73 0
-777 -665 0
208 -412 0
-773 878 0
344 -199 0
-977 0
-272 0
337 -405 0
-951 0
-821 0
-675 0
168 -61 0
-869 0
-436 0
-352 -558 0
-552 529 0
59 -549 0
633 -364 0
-624 653 0
-381 0
-639 644 0
-240 -977 0
-310 -169 0
232 -620 0
255 -249 0
-225 0
-524 0
-143 242 0
-352 0
-599 0
-728 814 0
-7 -707 0
-260 -971 0
-927 -837 0
-985 0
-678 42 0
-967 453 0
796 -299 0
460 -491 0
-698 334 0
-96 -577 0
-399 659 0
-948 -793 0
-301 0
-290 0
-637 412 0
-195 -105 0
538 -332 0
-977 0
-619 0
541 -611 0
-312 0
-51 255 0
-551 -420 0
-355 0
-687 0
-229 0
-534 -139 0
-940 0
920 -913 0
417 -867 0
-191 -60 0
-519 180 0
-16 -211 0
-824 -872 0
867 -162 0
-601 0
-95 0
41 -643 0
275 -937 0
-429 -100 0
-48 0
-723 0
849 -363 0
913 -793 0
-192 0
-526 255 0
-709 334 0
-599 -677 0
-78 -334 0
-868 0
-299 0
-243 -859 0
-367 774 0
433 -686 0
669 -107 0
123 -156 0
-903 0
-504 328 0
-855 102 0
-825 0
-839 -603 0
396 -625 0
-316 0
203 -946 0
-570 0
224 -749 0
-815 0
-178 0
-624 665 0
-810 0
-288 0
-225 0
-360 0
-570 0
-629 0
-45 76 0
496 -800 0
-307 0
-679 -381 0
-653 220 0
729 -197 0
-702 0
-136 0
345 -174 0
-782 0
-734 814 0
-869 0
-129 0
-845 -817 0
-370 -33 0
738 -449 0
-414 715 0
-1000 608 0
-391 0
-558 -19 0
599 -65 0
-37 452 0
-396 0
850 -378 0
-456 0
-584 376 0
652 -385 0
-720 -323 0
-968 741 0
-201 0
-594 0
-300 0
-515 0
-120 -553 0
-140 0
-556 0
256 -17 0
569 -25 0
-676 0
-336 -830 0
-848 0
-694 595 0
219 -906 0
-280 0
-778 0
-387 0
-669 0
-341 0
-63 741 0
178 -757 0
-391 -174 0
-452 0
517 -786 0
395 -348 0
298 -458 0
-846 -795 0
-405 502 0
-897 -689 0
-987 397 0
-728 109 0
-90 0
374 -66 0
-509 -539 0
-567 0
596 -107 0
-237 0
-576 -689 0
-149 468 0
-888 895 0
-601 0
808 -68 0
-944 -973 0
886 -41 0
-953 0
-460 -842 0
-760 0
-168 0
-464 777 0
-748 373 0
-445 227 0
-373 0
-852 0
-936 664 0
-664 848 0
-405 -940 0
-552 183 0
-603 0
-522 0
258 -969 0
-438 0
-816 0
-499 0
-546 0
-536 541 0
-711 722 0
100 -954 0
-152 181 0
-439 0
-67 0
-295 0
-983 0
-152 -531 0
-725 0
-444 0
-814 98 0
-144 757 0
-151 189 0
-178 0
952 -207 0
-18 895 0
-883 -290 0
361 -203 0
-638 0
-284 0
-881 0
-414 -833 0
-367 0
441 -9 0
-826 -73 0
-375 973 0
387 -923 0
737 -321 0
-843 0
538 -491 0
149 -370 0
-362 -410 0
-31 0
272 -894 0
-401 0
720 -414 0
-413 630 0
-27 0
-30 0
592 -505 0
-77 -531 0
512 -791 0
-443 0
507 -601 0
-504 -68 0
-15 0
-500 0
-567 0
-698 0
275 -372 0
-431 -595 0
-820 926 0
832 -830 0
-301 0
-513 -257 0
-312 206 0
-303 0
-878 0
190 -601 0
-114 -418 0
-678 0
-151 -194 0
938 -841 0
-35 799 0
-288 -75 0
-255 0
864 -347 0
-623 0
-286 0
-952 -14 0
-775 564 0
-210 0
-959 0
-778 0
-456 984 0
-69 443 0
768 -425 0
148 -796 0
-307 813 0
-391 434 0
-807 0
-384 241 0
-166 0
-574 0
-141 0
-245 -356 0
-295 -394 0
-885 0
-452 0
-98 0
298 -443 0
-895 -955 0
329 -345 0
-535 679 0
-70 668 0
626 -242 0
724 -636 0
-717 -661 0
-352 0
-855 0
-580 -210 0
-201 0
-463 -898 0
-302 0
-23 722 0
-440 741 0
-8 460 0
-19 0
74 -531 0
-934 543 0
-953 0
670 -138 0
-182 0
-660 0
219 -35 0
-334 0
227 -356 0
-383 0
-261 -948 0
-178 0
-323 -266 0
-590 0
-589 0
555 -147 0
-923 0
-159 670 0
-632 617 0
-264 -212 0
-246 0
-279 895 0
-534 0
-859 0
-670 -571 0
-871 0
-230 0
-649 0
-759 0
-647 621 0
-493 0
-164 -521 0
-272 0
-703 -715 0
512 -688 0
-695 0
-716 -395 0
-812 309 0
420 -753 0
-965 0
-112 77 0
-979 0
129 -25 0
-718 0
-349 0
898 -307 0
-951 0
-40 -401 0
-464 0
820 -66 0
-751 -186 0
-485 -531 0
-392 0
-935 663 0
-952 346 0
-478 0
-506 0
-356 0
-371 0
-277 -361 0
-636 711 0
-236 846 0
-603 638 0
-966 563 0
-315 725 0
-110 0
-934 -346 0
-706 0
-134 -4 0
-822 0
842 -938 0
-669 0
97 -379 0
-764 0
-772 0
-495 407 0
-900 79 0
-536 0
-181 0
-728 -889 0
-609 0
-849 0
-846 709 0
-328 0
-177 0
936 -896 0
-539 -265 0
-290 -514 0
-542 0
941 -721 0
-362 0
861 -17 0
-703 0
-270 958 0
-871 866 0
-583 -189 0
-83 0
120 -238 0
-162 0
-16 -803 0
-660 0
-282 0
499 -82 0
-949 0
-663 916 0
-386 -433 0
-631 677 0
-727 -916 0
453 -515 0
-963 -393 0
-95 -532 0
-727 -123 0
411 -489 0
-735 -554 0
-530 0
48 -227 0
-240 -23 0
-628 0
-350 0
-447 581 0
761 -22 0
-488 188 0
-131 0
-131 943 0
-671 -745 0
-262 847 0
-651 0
-175 -636 0
694 -641 0
-192 -295 0
-308 0
-440 -99 0
-685 0
948 -923 0
785 -929 0
-734 0
-225 -785 0
-53 487 0
-254 -132 0
-166 788 0
-795 830 0
-709 364 0
-384 -610 0
609 -685 0
-448 936 0
-333 959 0
956 -561 0
450 -257 0
-735 0
-359 0
-865 0
109 -587 0
-986 0
-503 0
-954 0
563 -341 0
-874 0
-470 0
-774 0
49 -697 0
-360 -779 0
585 -309 0
-272 469 0
-407 0
-32 953 0
-1 0
-624 0
-40 0
-807 0
-810 -546 0
188 -474 0
-124 0
-54 -147 0
-150 0
-840 -79 0
-626 0
-354 0
450 -109 0
87 -313 0
-305 0
-404 0
-422 44 0
-564 223 0
157 -617 0
-659 0
-305 0
-455 0
-998 0
-130 -490 0
-572 -994 0
-788 725 0
-210 0
-22 0
-565 -388 0
750 -241 0
97 -905 0
-472 929 0
-884 0
-848 0
-423 430 0
-415 0
-35 -851 0
-535 0
-544 -965 0
-430 0
626 -865 0
348 -594 0
74 -739 0
-750 0
-18 0
326 -929 0
37 -266 0
285 -707 0
-670 0
968 -974 0
-108 0
-240 0
-888 234 0
-32 0
-78 -889 0
-4 0
-765 0
-31 0
-830 0
-792 0
49 -313 0
-278 -924 0
970 -722 0
-256 -915 0
913 -941 0
-772 119 0
-253 0
-711 0
875 -858 0
532 -618 0
-72 0
-512 748 0
968 -10 0
-602 0
-662 -549 0
-1 -770 0
-367 757 0
547 -251 0
-529 0
386 -845 0
-358 26 0
-306 0
-106 935 0
362 -827 0
-823 0
-457 0
-369 0
-575 526 0
536 -385 0
-158 0
-581 0
-28 0
-627 -865 0
58 -985 0
-775 0
596 -170 0
-304 -126 0
-976 -142 0
-452 462 0
-897 0
831 -785 0
-381 0
-226 0
-674 0
-215 0
-53 0
-330 526 0
-798 -478 0
-80 0
-568 -995 0
240 -770 0
-846 -709 0
-148 572 0
-683 -993 0
-247 442 0
-151 637 0
-335 0
-944 0
-259 0
-205 -802 0
-716 0
907 -241 0
-805 0
-300 0
-168 784 0
-292 0
-322 0
697 -915 0
-811 695 0
931 -850 0
-362 471 0
-214 0
-967 694 0
-259 149 0
-256 -259 0
-744 -509 0
-815 -514 0
-785 0
145 -729 0
-264 -103 0
-920 -346 0
-241 0
-337 0
-368 -381 0
-250 0
-20 0
-909 0
-42 -466 0
-376 -149 0
-847 173 0
-455 0
-980 0
-344 450 0
-623 394 0
-292 0
-931 -27 0
872 -803 0
-555 -681 0
-80 -482 0
-862 0
907 -172 0
-14 0
283 -41 0
-654 367 0
-945 0
528 -149 0
-647 -356 0
526 -809 0
-430 0
-882 0
-271 -411 0
-391 0
-53 0
858 -963 0
-758 0
-297 0
720 -212 0
500 -347 0
-459 -681 0
-4 165 0
-378 0
-352 -439 0
-807 0
-855 266 0
-440 0
984 -556 0
-642 0
280 -117 0
168 -785 0
-936 -590 0
224 -458 0
-692 0
-383 886 0
-696 -130 0
-576 -183 0
-406 0
-390 -459 0
-261 0
-135 434 0
-447 559 0
-703 -655 0
-619 0
-797 -530 0
986 -137 0
627 -165 0
57 -942 0
-553 0
-524 0
-869 0
-270 -921 0
145 -591 0
-377 0
-903 -689 0
-55 0
-928 -55 0
-332 0
-704 783 0
-390 540 0
-869 268 0
-56 487 0
593 -843 0
-531 -185 0
-214 0
-670 146 0
363 -897 0
-877 508 0
-574 356 0
-150 406 0
124 -539 0
-620 135 0
-383 571 0
-16 238 0
-608 54 0
450 -573 0
529 -636 0
-438 180 0
-720 -34 0
-428 0
595 -547 0
-308 534 0
-843 0
-48 356 0
-462 -587 0
809 -577 0
-49 0
-214 982 0
-391 748 0
-685 0
-715 0
-586 191 0
-168 -499 0
-647 -826 0
-300 0
-534 0
554 -58 0
894 -65 0
433 -899 0
-63 433 0
-512 -650 0
530 -645 0
-984 254 0
-189 -185 0
-850 0
-231 246 0
-481 0
-444 -401 0
979 -467 0
-183 -94 0
-106 0
-253 0
-615 -378 0
-478 -505 0
674 -678 0
-651 -394 0
-812 0
-140 0
-247 -466 0
-199 -713 0
-431 818 0
-238 -444 0
-631 -422 0
793 -273 0
-45 0
-691 -490 0
-408 446 0
-938 0
-637 0
-878 -546 0
-917 791 0
185 -121 0
-417 343 0
-53 0
926 -817 0
715 -866 0
-901 -378 0
938 -885 0
-878 -324 0
-972 261 0
137 -846 0
-704 -863 0
-952 -88 0
-558 0
387 -729 0
-104 -472 0
-660 0
-753 0
-251 0
-360 -585 0
589 -778 0
-328 -756 0
-767 -222 0
-144 0
-961 0
-39 -834 0
370 -938 0
912 -879 0
-340 0
-797 0
-41 0
644 -162 0
-895 -148 0
440 -457 0
-561 0
202 -557 0
-55 -660 0
-86 0
870 -769 0
-678 0
-623 379 0
-883 -706 0
-342 0
-928 698 0
-498 0
-12 -473 0
969 -829 0
-86 -678 0
-564 -978 0
-309 356 0
-834 0
-670 0
-454 0
392 -220 0
-711 0
-733 661 0
-973 0
563 -321 0
-681 0
-735 -370 0
-439 566 0
-490 0
-496 0
-111 638 0
-948 997 0
-225 0
-391 0
-58 0
-899 0
-832 -962 0
-910 0
896 -75 0
-333 758 0
-865 839 0
-462 -669 0
-162 0
-338 -250 0
-281 0
-536 -291 0
-735 -390 0
-241 0
162 -594 0
51 -225 0
-824 0
-699 -865 0
-363 -146 0
-796 -514 0
-928 -265 0
988 -379 0
633 -363 0
-767 0
-653 535 0
65 -842 0
352 -540 0
-309 0
-880 -378 0
-350 133 0
960 -987 0
-88 0
-883 0
-632 0
-504 -490 0
-289 0
235 -317 0
-760 -507 0
-474 0
-660 -242 0
-777 0
-333 692 0
-987 0
-558 -771 0
-680 0
-509 0
608 -605 0
-988 0
-71 14 0
-296 -854 0
-200 635 0
-112 925 0
-846 0
-975 930 0
-857 0
-8 0
388 -569 0
-822 575 0
-660 0
-291 0
-611 0
-330 0
-507 0
-46 0
-336 -5 0
-492 -809 0
-37 -683 0
-254 -849 0
-848 0
-229 -139 0
-326 -757 0
-919 414 0
-744 -262 0
-863 -873 0
-32 0
-408 854 0
-157 0
-526 98 0
-239 685 0
-774 0
-404 788 0
-819 0
856 -612 0
-463 0
-819 335 0
380 -307 0
149 -449 0
-300 0
-704 -564 0
-270 102 0
-696 0
-752 335 0
-540 277 0
-135 110 0
-951 972 0
-272 568 0
-602 0
-961 0
168 -84 0
-366 892 0
-773 -554 0
-737 0
-87 654 0
402 -865 0
-984 928 0
-308 0
-743 964 0
-550 -785 0
-38 0
-359 -918 0
-719 -513 0
-231 0
-164 0
-132 182 0
-152 874 0
-768 459 0
-794 0
-40 -111 0
-837 0
-333 799 0
-909 0
-163 942 0
-222 175 0
-800 0
-796 0
-664 621 0
-237 607 0
-879 -549 0
-890 0
363 -105 0
-475 0
-78 459 0
-830 0
-620 0
-872 0
773 -185 0
-621 0
-152 799 0
-602 0
-197 0
-987 342 0
688 -175 0
720 -841 0
-640 -301 0
-567 -938 0
-312 0
-805 -778 0
696 -39 0
-151 0
-847 0
888 -583 0
-440 0
954 -393 0
-7 0
-494 372 0
-424 513 0
-934 -181 0
826 -134 0
745 -905 0
-142 199 0
-115 351 0
-994 0
544 -663 0
209 -396 0
-82 214 0
944 -371 0
-679 0
-738 0
708 -577 0
-90 0
266 -900 0
-166 -820 0
-160 98 0
-971 805 0
-717 -593 0
-198 181 0
-284 0
-560 0
-998 -396 0
-615 647 0
1 -931 0
-276 0
-166 485 0
-388 0
-110 653 0
-660 0
-780 -18 0
835 -402 0
-257 0
-855 63 0
224 -251 0
-872 -737 0
744 -203 0
530 -244 0
-39 356 0
-652 0
-340 0
632 -926 0
-915 871 0
-989 -275 0
-702 346 0
170 -436 0
709 -873 0
56 -440 0
456 -750 0
387 -306 0
-914 0
-857 0
-282 0
499 -645 0
-588 0
-264 -949 0
-934 0
-840 -178 0
-660 870 0
251 -161 0
-106 0
-810 0
66 -605 0
-54 -581 0
-647 284 0
-302 0
-296 963 0
-95 0
552 -668 0
-79 436 0
-409 0
-584 -198 0
-328 0
-350 -3 0
-851 0
-962 0
-976 78 0
-184 0
805 -851 0
-12 0
-970 0
-898 0
-524 0
-854 0
796 -801 0
-765 -685 0
-423 500 0
-264 -444 0
584 -624 0
-106 0
-622 -902 0
-459 0
-643 -657 0
49 -348 0
-374 727 0
-592 46 0
-758 0
-48 365 0
-367 0
-257 0
-379 0
978 -116 0
-823 -894 0
-783 0
632 -636 0
-94 0
-531 -738 0
-323 0
-355 0
-494 0
-323 183 0
-511 966 0
-794 0
400 -858 0
-379 206 0
-54 0
-563 550 0
-619 0
-14 -45 0
840 -918 0
-540 0
-23 0
-800 0
610 -133 0
984 -909 0
-417 0
-92 135 0
-210 0
-290 0
816 -812 0
-379 -361 0
-491 885 0
-959 277 0
-219 0
-585 0
-901 228 0
-973 268 0
-18 0
-830 0
-534 0
800 -983 0
-930 0
-560 0
-158 -349 0
-324 0
-52 -460 0
-596 -387 0
-143 -402 0
-711 262 0
701 -642 0
517 -91 0
-884 775 0
-734 751 0
-803 0
-687 492 0
-921 0
-824 4 0
-8 475 0
889 -266 0
-386 0
-272 0
-535 0
-893 -273 0
491 -517 0
-973 0
370 -953 0
-225 0
-605 0
-541 0
-249 -761 0
-555 0
-199 118 0
-799 994 0
-896 657 0
-244 0
850 -494 0
568 -868 0
-601 0
-671 0
-452 0
-332 0
-728 0
-242 759 0
-400 -37 0
512 -683 0
480 -158 0
-349 -596 0
-19 0
-923 -226 0
-829 -499 0
-655 0
-122 247 0
-942 -697 0
328 -830 0
-487 -273 0
316 -305 0
-22 0
-69 0
-539 0
-816 -307 0
-581 0
-470 454 0
-486 0
-655 -754 0
-570 -225 0
691 -465 0
891 -786 0
-934 319 0
-218 0
-925 -865 0
-495 -615 0
-407 0
-835 0
-998 0
-118 541 0
-422 653 0
40 -257 0
-229 934 0
516 -387 0
-318 -515 0
-590 -610 0
-224 0
-762 919 0
-330 -921 0
-781 0
-208 438 0
-59 7 0
-600 0
-125 797 0
-419 0
-200 -509 0
594 -945 0
233 -434 0
-595 0
170 -18 0
264 -722 0
884 -553 0
673 -246 0
-456 -857 0
-102 476 0
-428 727 0
-579 0
-753 0
-958 -779 0
-698 0
2 -849 0
-828 454 0
-632 0
-56 632 0
-213 607 0
226 -185 0
-461 0
-963 -761 0
-164 815 0
-175 -295 0
472 -234 0
-147 0
-550 -386 0
-574 -525 0
-863 -989 0
737 -867 0
-310 87 0
-765 628 0
-615 251 0
-817 0
-687 573 0
-8 705 0
-704 269 0
-548 0
984 -795 0
-679 697 0
-961 0
-871 0
-864 -837 0
284 -3 0
656 -111 0
302 -977 0
345 -119 0
-338 0
-127 0
-176 -369 0
-262 0
-600 518 0
-344 0
53 -833 0
-311 0
-989 -436 0
-319 0
-61 0
-238 0
-157 349 0
-852 0
-545 0
-325 0
-420 0
13 -257 0
-789 557 0
-99 0
497 -289 0
-135 -61 0
358 -250 0
377 -169 0
-158 0
-931 119 0
-261 -257 0
-496 874 0
585 -870 0
-712 0
-564 221 0
-759 0
153 -415 0
-912 0
-750 22 0
-278 0
-299 519 0
-986 0
-282 0
-669 76 0
-298 0
-295 -302 0
-93 759 0
-917 0
-758 486 0
-903 59 0
-95 0
-776 0
-487 0
-680 0
-509 191 0
-827 -161 0
-680 -390 0
-109 0
-434 0
-101 -906 0
-580 0
832 -122 0
904 -450 0
-30 0
-762 -81 0
233 -676 0
356 -155 0
251 -217 0
-40 143 0
589 -778 0
945 -901 0
784 -136 0
-712 0
-293 0
80 -369 0
-488 0
-716 0
-210 0
-517 0
-93 0
-366 483 0
-477 -866 0
-432 0
-523 0
-105 -33 0
-657 0
-705 0
754 -988 0
-151 -858 0
-827 359 0
-77 0
737 -579 0
-405 743 0
-166 0
318 -257 0
-804 404 0
-232 -226 0
640 -716 0
-846 331 0
-698 0
-739 -865 0
-551 0
-63 0
-763 606 0
843 -218 0
290 -252 0
-423 0
-605 -307 0
-949 94 0
-62 0
-7 0
-357 -818 0
-403 -371 0
-868 471 0
-420 0
-155 0
-899 0
-720 534 0
258 -115 0
-41 255 0
-8 927 0
-741 -403 0
-280 664 0
-382 677 0
760 -599 0
664 -499 0
-702 -114 0
426 -84 0
-521 0
522 -125 0
-236 229 0
-538 0
-261 0
-93 0
397 -233 0
-404 0
872 -636 0
-186 0
-804 599 0
-970 0
-625 0
-989 -234 0
-727 0
-986 0
-652 -419 0
-486 0
-910 -202 0
-941 0
-215 683 0
-232 0
-135 0
-790 -554 0
212 -962 0
369 -818 0
-933 0
-408 -919 0
-662 0
-151 -242 0
-208 947 0
-395 479 0
952 -287 0
-389 -170 0
897 -102 0
149 -545 0
656 -518 0
-160 469 0
749 -890 0
-598 -845 0
-872 -87 0
609 -331 0
298 -481 0
-552 172 0
-65 0
-791 0
-396 -139 0
-490 -585 0
-992 -894 0
-702 0
-30 19 0
-700 0
-324 0
-110 0
-152 -670 0
-159 -907 0
417 -395 0
-726 90 0
-460 133 0
-600 -783 0
337 -876 0
934 -642 0
-401 0
-923 -778 0
-47 71 0
-268 758 0
778 -449 0
-276 0
-266 0
-80 961 0
-762 0
-789 0
-496 -956 0
-778 0
-121 0
-248 0
-487 -938 0
-325 0
-852 0
-251 990 0
-627 0
-472 -830 0
-636 -842 0
720 -645 0
-165 0
-360 0
-400 -487 0
-523 0
-920 501 0
-551 -91 0
-854 107 0
347 -100 0
177 -105 0
232 -715 0
-980 0
-286 -585 0
-399 -245 0
-658 0
-234 -57 0
-256 0
-270 931 0
-448 -98 0
-782 0
344 -941 0
-293 0
4 -475 0
-855 0
-353 0
-286 899 0
-669 -851 0
-575 0
-152 813 0
-734 -869 0
-970 0
-221 0
849 -332 0
-778 0
-766 741 0
-546 0
-628 0
-318 -774 0
-844 206 0
-614 0
-324 0
-462 0
-389 894 0
746 -106 0
-244 742 0
185 -4 0
-878 0
-429 -235 0
316 -756 0
-846 -521 0
-9 0
-590 -813 0
576 -763 0
-638 -435 0
-992 0
-471 -609 0
-744 394 0
-388 -852 0
-775 0
-555 0
-919 726 0
-377 0
641 -108 0
-454 0
292 -700 0
102 -297 0
-343 123 0
-664 0
-499 0
-782 0
453 -417 0
-803 0
259 -171 0
-639 -243 0
-695 -436 0
418 -129 0
-820 0
-844 0
144 -201 0
-265 0
-95 319 0
-921 0
-648 -254 0
-692 422 0
-171 0
-272 0
-987 0
904 -1000 0
-544 569 0
-836 902 0
-740 -627 0
-296 473 0
-554 0
-138 -369 0
-289 0
-398 0
805 -394 0
-108 -699 0
-544 0
563 -849 0
888 -605 0
-606 101 0
-910 0
293 -161 0
-196 -97 0
-873 0
-380 0
-842 0
-699 -315 0
-436 -707 0
643 -506 0
-555 0
-390 -699 0
-565 0
-822 0
43 -429 0
-566 0
-83 -153 0
-368 132 0
-554 -649 0
-831 555 0
-240 -242 0
-165 0
-591 90 0
-375 37 0
-430 510 0
-406 0
-884 0
-76 0
456 -15 0
-709 503 0
-623 -669 0
-346 0
-128 -954 0
-330 0
-770 0
-41 0
-999 0
-492 0
224 -293 0
-99 -330 0
-828 0
-759 0
621 -90 0
120 -845 0
-910 852 0
845 -705 0
-590 0
-306 423 0
-191 0
657 -963 0
105 -268 0
-98 0
203 -561 0
-260 0
-365 -395 0
-829 276 0
-102 -923 0
-77 998 0
-204 0
-294 -604 0
337 -154 0
40 -472 0
-279 0
625 -858 0
-349 0
-483 0
-247 -130 0
-864 -765 0
-404 -305 0
-124 519 0
-749 0
-495 -508 0
-747 0
-68 -634 0
40 -934 0
-478 0
-207 417 0
-251 0
-324 0
-688 0
-346 -9 0
226 -362 0
810 -345 0
-161 0
-480 -12 0
-593 0
-124 0
-805 -604 0
-350 0
573 -835 0
-305 0
-928 -841 0
306 -486 0
-772 135 0
-784 0
869 -489 0
35 -948 0
-788 0
-6 0
-455 -901 0
-268 -634 0
-105 0
-621 0
-59 0
-965 590 0
-187 0
-712 -270 0
291 -314 0
-350 0
-997 0
880 -663 0
-320 -717 0
520 -77 0
-590 0
361 -956 0
-243 0
-461 715 0
-580 0
-726 0
808 -835 0
-795 821 0
-449 599 0
-223 0
-676 295 0
-413 -138 0
-800 0
-851 0
-463 667 0
514 -677 0
-323 0
-368 0
-916 0
-256 30 0
-621 0
266 -1 0
448 -253 0
-743 0
-225 0
-81 0
-452 999 0
-900 0
-5 0
-960 640 0
770 -195 0
-629 -340 0
-891 -129 0
10 -572 0
-572 0
-184 595 0
706 -998 0
986 -899 0
848 -196 0
-101 0
547 -835 0
-600 0
-191 0
785 -270 0
-856 747 0
228 -274 0
192 -951 0
-171 -817 0
-151 225 0
-946 0
-990 -180 0
-491 894 0
-886 -381 0
-214 -870 0
-868 0
-206 0
-995 0
-354 71 0
-178 0
-9 0
-720 -671 0
-160 428 0
-133 -730 0
-262 0
689 -542 0
-658 0
145 -722 0
-557 -849 0
-900 -706 0
-923 734 0
-32 0
-7 0
-533 0
-540 0
-206 76 0
810 -433 0
-911 0
-951 731 0
733 -219 0
-37 663 0
-300 0
-592 0
-709 669 0
-637 0
-19 -291 0
-572 0
-431 0
-451 0
-826 0
-187 0
-435 0
-247 -956 0
-817 0
802 -778 0
-21 367 0
-728 -988 0
-877 -210 0
24 -30 0
-479 -453 0
-492 711 0
-734 0
-683 0
321 -157 0
-616 0
-979 0
-238 0
-479 0
-46 -161 0
-806 0
709 -321 0
-685 500 0
-143 -932 0
-240 0
-135 27 0
-694 0
-408 557 0
860 -90 0
-299 0
-599 -962 0
-413 0
-26 0
-742 -219 0
-431 0
-16 -463 0
-949 0
310 -361 0
-12 159 0
668 -3 0
-282 0
-724 622 0
978 -141 0
-352 379 0
404 -697 0
-226 0
-660 0
646 -713 0
-503 0
-263 0
868 -225 0
-139 0
-479 -683 0
-953 0
-69 -874 0
-949 -53 0
-848 0
-610 0
-52 -610 0
-269 0
-67 679 0
-857 0
-929 0
-427 149 0
-534 0
-808 129 0
894 -850 0
-431 828 0
-829 222 0
-391 0
-599 762 0
344 -52 0
-351 -652 0
193 -171 0
-365 0
-439 -73 0
89 -962 0
-158 -532 0
-216 177 0
-336 495 0
-168 297 0
-527 718 0
-560 0
-428 -186 0
-65 0
-196 0
-926 0
456 -173 0
-129 0
-887 -357 0
-134 0
672 -95 0
-708 0
-34 0
847 -841 0
404 -899 0
-322 0
-438 0
-516 524 0
-276 -427 0
-7 467 0
-688 -119 0
-644 -436 0
-654 0
-270 -489 0
394 -741 0
-791 0
-269 -645 0
-189 0
-32 -73 0
-990 0
-200 0
-608 0
-15 -978 0
-270 53 0
-580 0
-936 891 0
-188 0
878 -18 0
-11 -226 0
-935 0
-122 0
-194 0
-72 754 0
-391 -925 0
-823 0
-260 103 0
-442 0
-747 542 0
-303 772 0
-316 -473 0
-890 0
-599 0
-334 0
-92 -145 0
-696 -144 0
-16 542 0
-836 -139 0
-850 0
-724 0
-379 0
-126 45 0
-54 215 0
-452 0
606 -754 0
-638 -282 0
-11 0
-716 0
-151 0
-944 388 0
-963 0
-997 0
-587 511 0
-980 -738 0
-508 -331 0
-53 0
-540 0
-106 0
-955 199 0
-246 813 0
-375 307 0
779 -169 0
608 -44 0
-708 -939 0
488 -656 0
425 -281 0
-149 0
-306 0
-123 -74 0
-536 -396 0
-832 405 0
-705 0
-991 0
-952 -860 0
-440 272 0
-245 0
-208 0
-268 0
-854 -41 0
-153 0
-868 438 0
-77 0
-714 0
538 -435 0
-391 -838 0
307 -285 0
567 -753 0
-90 0
497 -610 0
874 -420 0
-652 0
-520 -414 0
-955 0
-183 -730 0
-494 -453 0
272 -168 0
-944 166 0
-240 0
-577 0
-339 0
-440 0
-738 0
-628 790 0
-557 141 0
216 -572 0
784 -262 0
586 -897 0
-15 47 0
325 -914 0
-850 0
-717 0
-231 0
-466 -513 0
-557 823 0
35 -588 0
-629 236 0
-317 884 0
-806 0
489 -163 0
-959 559 0
-863 0
-326 0
-597 0
-565 0
-610 0
456 -117 0
168 -402 0
92 -778 0
-425 743 0
-3 0
-678 999 0
-941 716 0
-451 -875 0
716 -115 0
-258 0
-186 0
-509 227 0
937 -346 0
-295 0
-907 0
-401 0
-45 0
-848 -813 0
-575 0
-168 0
-737 0
-830 -427 0
100 -163 0
-949 0
-230 0
-761 0
-927 0
-541 0
-524 0
707 -98 0
-574 0
929 -514 0
-790 0
-920 -181 0
-573 947 0
-680 -734 0
522 -868 0
-380 0
-647 227 0
-748 790 0
-237 -906 0
948 -795 0
-849 0
-831 323 0
-622 0
-274 0
897 -482 0
-160 955 0
-686 0
-854 0
337 -442 0
-272 215 0
-103 854 0
-407 998 0
-278 0
-464 804 0
-394 0
-1 0
528 -446 0
-779 0
-865 0
-244 0
-349 973 0
349 -698 0
-308 -705 0
-980 -898 0
-61 173 0
808 -136 0
-476 0
384 -330 0
513 -478 0
-888 0
-152 530 0
-917 916 0
-397 0
-110 756 0
-130 0
-299 -505 0
-887 0
-745 0
-939 0
-680 -618 0
-474 0
-192 726 0
-125 0
-462 0
481 -598 0
-398 989 0
-422 742 0
-278 -251 0
-158 0
-657 0
-948 710 0
-94 0
-892 391 0
475 -858 0
107 -75 0
177 -204 0
-127 0
-389 -532 0
400 -567 0
-39 612 0
-880 0
-257 0
-213 -481 0
-182 -996 0
-296 -999 0
138 -497 0
-268 -569 0
-935 0
-747 806 0
-200 0
-29 -196 0
-386 0
394 -605 0
-62 711 0
396 -202 0
-919 0
-267 0
-907 -811 0
-913 0
-344 0
297 -724 0
-915 815 0
824 -413 0
-37 580 0
113 -78 0
-581 0
-229 -373 0
-598 -963 0
-813 207 0
-744 0
-806 596 0
-910 0
-235 0
-570 0
-958 0
-742 -630 0
422 -857 0
-829 0
-840 0
-752 -368 0
904 -125 0
210 -84 0
-410 0
-798 179 0
-338 0
-136 0
-904 -229 0
-306 0
-585 0
-242 0
-768 0
-950 0
641 -994 0
331 -627 0
-977 0
-966 -659 0
-739 -641 0
840 -150 0
560 -34 0
-961 0
-589 0
-394 0
-324 0
-387 118 0
-688 0
500 -570 0
-447 311 0
-159 445 0
8 -981 0
-631 -68 0
-216 674 0
-208 529 0
-144 929 0
656 -695 0
512 -802 0
-709 846 0
-879 604 0
-618 0
938 -812 0
-998 0
-750 197 0
554 -419 0
-456 773 0
-650 0
-331 0
-231 -766 0
-805 0
963 -700 0
18 -390 0
-228 -18 0
-871 690 0
-644 -577 0
-834 0
-118 111 0
-485 -51 0
-400 -434 0
-395 0
-452 0
-204 0
-356 629 0
-737 855 0
-868 -811 0
-227 0
424 -165 0
593 -748 0
905 -220 0
-966 314 0
-436 0
-171 0
-891 399 0
708 -802 0
-535 -924 0
521 -882 0
976 -30 0
-120 73 0
-430 -973 0
-255 -86 0
-959 68 0
-699 423 0
-711 -813 0
-164 0
-534 717 0
-852 -417 0
-907 0
-214 -354 0
-140 0
-526 749 0
-944 -619 0
-789 -819 0
-900 -369 0
-9 0
-40 188 0
-598 0
-28 165 0
541 -610 0
-898 0
-568 0
505 -30 0
-277 -268 0
-43 0
-687 0
-27 -778 0
-661 -76 0
-177 0
946 -974 0
-927 0
-960 0
-338 0
-882 0
-569 -337 0
-228 183 0
-401 0
-26 0
96 -296 0
-86 0
688 -718 0
-889 0
-497 0
-775 0
-47 -509 0
-765 0
-835 0
-85 0
-874 0
449 -477 0
-796 0
-892 0
57 -354 0
-482 -833 0
-758 0
-676 0
-589 0
-320 0
-40 0
-39 669 0
-365 678 0
-808 -323 0
325 -739 0
-415 0
-735 0
-506 0
-821 0
-408 0
-320 0
-29 126 0
-902 -963 0
-863 -495 0
873 -278 0
-181 335 0
193 -123 0
-674 0
-215 0
-760 -772 0
-870 0
-675 6 0
-828 0
-637 675 0
-51 614 0
440 -297 0
425 -829 0
-184 -718 0
738 -370 0
242 -579 0
906 -426 0
-125 405 0
-591 731 0
-147 822 0
-670 -701 0
-865 0
-508 0
-755 -962 0
-205 732 0
-526 622 0
-528 0
-146 0
-31 0
-159 -517 0
-198 0
-787 -219 0
832 -976 0
-604 0
-240 680 0
-54 -494 0
259 -801 0
861 -323 0
-302 -500 0
-707 0
-441 0
-807 0
-98 0
-654 523 0
-524 0
-108 0
-515 -930 0
-560 0
-272 491 0
-158 303 0
-320 0
-705 0
-248 430 0
-668 0
-669 431 0
-511 615 0
-166 923 0
-687 -842 0
-492 0
-754 0
968 -457 0
-392 0
680 -317 0
-50 0
-438 0
838 -762 0
-300 0
-72 486 0
-991 823 0
240 -428 0
-594 535 0
-210 0
-688 -914 0
-80 827 0
-988 837 0
-320 587 0
157 -593 0
-347 407 0
-572 694 0
-703 213 0
-287 570 0
200 -730 0
-261 0
834 -214 0
-480 0
203 -417 0
137 -636 0
-916 -283 0
-852 -684 0
156 -300 0
-294 0
-210 0
-526 830 0
-852 0
-896 801 0
-477 947 0
-332 0
-563 0
-946 0
-31 0
-522 0
-996 0
-554 -162 0
473 -185 0
496 -773 0
-148 0
-221 0
-504 0
-79 735 0
-813 -805 0
-637 899 0
-800 -832 0
-836 0
440 -253 0
-657 0
-503 29 0
-621 0
-830 0
-913 0
-256 351 0
-376 -38 0
-91 0
-863 -774 0
-930 0
-992 0
-669 -545 0
-96 0
-698 -305 0
-795 669 0
-320 341 0
-979 0
-134 0
804 -554 0
-776 0
-832 14 0
-545 0
-272 0
-656 0
-497 0
-24 -779 0
-64 0
-304 -405 0
160 -300 0
-495 -769 0
-854 0
-298 0
48 -628 0
-16 134 0
-814 0
-465 0
-146 0
-213 0
-763 0
-870 -883 0
-666 0
-583 -918 0
138 -130 0
-7 174 0
957 -57 0
633 -797 0
-241 0
-175 0
360 -228 0
-286 0
-631 -782 0
-339 -441 0
915 -450 0
-710 -397 0
-475 0
-757 -691 0
-396 0
-294 333 0
-979 910 0
169 -819 0
921 -674 0
-733 0
-309 0
-804 0
-973 0
-117 269 0
-14 0
-455 851 0
-554 0
-403 0
282 -49 0
-389 -147 0
-8 0
-402 0
-595 -401 0
-423 0
-280 219 0
-870 0
-706 0
-540 0
-840 -814 0
-286 -522 0
-862 0
-946 0
-209 0
-922 -385 0
-839 -235 0
-48 780 0
-527 819 0
761 -422 0
-23 0
-656 0
-286 -60 0
-883 0
-583 0
-436 0
-488 699 0
-168 141 0
916 -897 0
953 -547 0
-247 0
-645 0
-135 0
-374 0
-391 254 0
-715 -665 0
-684 -593 0
-359 0
691 -538 0
58 -12 0
-964 -194 0
-72 -687 0
-518 387 0
-697 0
699 -467 0
-437 0
-32 0
-962 0
250 -915 0
-703 -630 0
-631 0
-680 127 0
-575 0
-669 207 0
-94 572 0
-774 437 0
531 -226 0
-158 -841 0
845 -906 0
-829 0
-348 0
-354 -953 0
-398 -277 0
-79 201 0
-843 703 0
-186 0
-108 -522 0
-972 0
-350 626 0
-837 -10 0
-913 0
-161 815 0
-366 382 0
-170 -665 0
904 -563 0
-185 0
72 -378 0
345 -714 0
-928 204 0
-188 0
67 -683 0
-962 0
198 -466 0
796 -409 0
-88 -322 0
-886 637 0
-138 0
-367 884 0
-764 295 0
-650 0
-567 0
-524 0
-837 703 0
-826 0
822 -553 0
698 -382 0
371 -442 0
425 -524 0
138 -317 0
-645 -356 0
-199 742 0
-122 902 0
-119 0
731 -354 0
-12 0
179 -385 0
-111 0
-832 -392 0
-965 564 0
-534 0
200 -212 0
-973 0
-942 -25 0
-165 716 0
-134 0
-81 0
-559 -866 0
-725 0
816 -524 0
-112 382 0
-496 999 0
748 -83 0
-415 309 0
41 -637 0
-917 676 0
-345 0
-738 0
-541 0
-928 0
-861 0
-285 228 0
-210 -226 0
-871 0
972 -411 0
-428 -619 0
-178 -610 0
-436 701 0
673 -627 0
-709 589 0
395 -506 0
-43 0
-623 -363 0
-921 0
-878 -430 0
-44 0
-87 0
-639 0
-119 843 0
-342 831 0
870 -625 0
-724 0
-287 0
952 -82 0
-659 0
-251 0
-86 0
-98 0
634 -534 0
-824 0
-459 487 0
-238 0
-366 167 0
-326 629 0
-199 -751 0
-235 -715 0
-134 0
852 -827 0
552 -122 0
-703 47 0
-145 0
-251 0
-421 247 0
-592 667 0
-654 -921 0
-939 0
-418 0
-907 0
-368 665 0
-592 764 0
-588 308 0
-615 947 0
-815 0
-942 -418 0
-623 0
-715 0
-301 997 0
-805 0
-683 463 0
-488 0
833 -638 0
972 -148 0
-423 0
-155 0
-624 -587 0
-753 0
-834 0
-716 -857 0
872 -908 0
-71 0
-100 0
-931 0
170 -779 0
-906 0
-785 -625 0
-797 0
-396 0
-556 596 0
-773 895 0
-277 0
-379 189 0
325 -81 0
-493 0
-183 0
-374 0
-839 91 0
-682 0
-486 947 0
660 -43 0
-259 -305 0
-121 0
-556 0
-40 701 0
-307 0
-479 82 0
-488 -769 0
-135 719 0
-61 -274 0
-38 -93 0
-400 0
-163 0
-416 549 0
-645 173 0
-191 0
-959 49 0
-828 0
604 -955 0
-95 0
-822 0
-616 757 0
-722 0
-94 0
-439 -18 0
-736 -294 0
677 -297 0
-294 -645 0
-174 0
-652 511 0
-105 0
974 -482 0
-921 0
-600 -352 0
-74 607 0
-791 378 0
893 -329 0
-85 -157 0
-223 0
-238 5 0
-563 0
-532 -11 0
-813 0
-589 0
23 -977 0
747 -697 0
-492 311 0
-64 540 0
-55 0
-376 0
88 -180 0
-340 557 0
-787 0
-925 0
-568 -657 0
-352 0
-620 -74 0
-502 -801 0
-92 0
-891 -442 0
-517 444 0
-605 -275 0
-852 0
-614 -651 0
-80 0
-300 0
-587 -489 0
-304 -559 0
-190 213 0
818 -891 0
-137 0
825 -482 0
-903 0
-877 -125 0
948 -497 0
-284 0
-503 206 0
-316 0
680 -261 0
-511 0
388 -3 0
-513 0
-759 -531 0
-864 124 0
-872 -225 0
-774 0
-712 119 0
857 -566 0
-998 607 0
-124 0
-927 -483 0
467 -786 0
-542 0
819 -489 0
-388 -137 0
426 -750 0
-774 0
-607 -11 0
-398 0
-816 -620 0
-133 -627 0
-806 -401 0
-704 231 0
712 -530 0
-421 -597 0
-144 0
-375 0
-161 0
-951 -611 0
507 -361 0
-304 -690 0
-182 919 0
-267 0
-813 245 0
572 -67 0
-583 989 0
593 -49 0
-785 0
-211 71 0
-103 854 0
-404 0
941 -522 0
171 -593 0
-6 0
420 -306 0
-964 0
-432 0
-782 0
-798 0
721 -779 0
296 -941 0
849 -562 0
-288 43 0
-870 397 0
565 -315 0
-443 -866 0
648 -879 0
-552 305 0
-192 388 0
-605 0
-438 0
-191 837 0
-981 -331 0
-404 0
-789 895 0
-527 20 0
-211 0
-48 612 0
-930 0
-481 0
-883 222 0
-399 0
-938 -681 0
-384 -108 0
-88 0
-782 812 0
848 -787 0
-88 149 0
396 -994 0
-212 0
-524 0
-344 0
-344 -27 0
-551 -363 0
233 -46 0
-359 -981 0
-910 940 0
-525 0
-821 0
-243 0
803 -650 0
-897 0
-167 0
580 -843 0
-197 0
-772 0
-374 -290 0
-330 0
-659 0
-96 0
179 -899 0
-934 0
-903 0
-526 0
265 -145 0
957 -635 0
-188 270 0
-858 982 0
-911 0
-77 501 0
-575 148 0
61 -922 0
-820 0
-648 -977 0
554 -2 0
-755 0
-869 0
611 -100 0
-210 0
-765 0
-813 -545 0
-300 694 0
-202 0
-324 383 0
-903 470 0
91 -595 0
-857 0
-999 -707 0
-365 694 0
776 -61 0
-6 0
-343 -453 0
-194 279 0
-198 -36 0
-689 0
-436 615 0
-810 0
-511 -740 0
-32 692 0
-807 578 0
-591 469 0
-262 867 0
-874 0
-280 0
-914 70 0
-245 -810 0
-473 -41 0
-630 0
-667 -890 0
-510 0
-576 0
-294 154 0
-864 -150 0
723 -25 0
-576 -103 0
-315 0
-230 15 0
-863 0
-955 -962 0
-300 -433 0
-599 0
146 -429 0
658 -434 0
-79 233 0
968 -924 0
150 -241 0
-340 0
161 -756 0
-492 -361 0
-461 485 0
-666 0
-360 0
-326 -510 0
-197 558 0
-310 991 0
-620 -452 0
-413 0
-511 0
633 -738 0
-132 0
-620 0
-367 0
313 -12 0
-247 0
-122 -194 0
-212 0
-341 0
-157 -497 0
-656 -313 0
-549 0
-470 0
329 -805 0
-310 -90 0
-544 0
-45 0
597 -322 0
666 -683 0
-871 0
-736 187 0
-294 0
-867 0
-159 -244 0
418 -657 0
-712 710 0
-253 0
-870 -276 0
-672 -437 0
875 -57 0
386 -308 0
-735 -956 0
-896 0
-439 -242 0
-874 0
283 -763 0
-40 106 0
-181 820 0
-47 0
-546 -761 0
-754 0
-705 0
-795 -426 0
161 -643 0
-860 638 0
-880 605 0
-231 -372 0
674 -673 0
-873 223 0
-30 -706 0
-301 0
2 -673 0
-400 758 0
680 -618 0
-300 543 0
-537 0
-833 0
-132 935 0
-556 300 0
-470 -805 0
-672 848 0
-435 0
-845 0
-653 0
-749 173 0
936 -802 0
-774 0
-368 0
-342 -770 0
-268 0
306 -228 0
-258 0
532 -962 0
-209 0
-408 343 0
-223 0
-311 671 0
-216 0
-926 365 0
-910 0
-258 0
60 -826 0
81 -39 0
848 -323 0
-776 0
-493 0
-543 245 0
-581 0
729 -340 0
377 -758 0
827 -570 0
-43 711 0
-877 790 0
-103 0
-797 951 0
-431 -140 0
-440 -355 0
356 -651 0
432 -819 0
-870 532 0
264 -161 0
-9 0
-681 0
-256 405 0
-524 0
-157 204 0
-55 0
680 -714 0
-553 0
-50 0
-8 932 0
-944 905 0
429 -121 0
-43 -377 0
765 -793 0
-364 61 0
-694 70 0
-526 279 0
-378 -321 0
786 -953 0
-870 -82 0
-640 -297 0
-98 0
600 -609 0
-976 0
-195 0
-374 469 0
-101 0
-892 0
-800 -174 0
-71 0
-412 -466 0
-422 -977 0
155 -73 0
44 -707 0
-116 0
-588 0
480 -585 0
-632 614 0
-126 0
-880 -907 0
945 -260 0
-334 999 0
347 -756 0
-442 0
873 -61 0
-798 340 0
-480 -409 0
293 -306 0
-998 0
162 -413 0
-174 0
664 -325 0
-796 0
-698 0
-757 0
-741 -777 0
-7 0
-432 -407 0
-453 0
-344 0
-896 0
94 -377 0
-815 0
-829 29 0
-32 899 0
-336 593 0
-701 -124 0
-884 0
-840 0
-464 0
437 -363 0
-208 0
859 -737 0
-821 0
-584 784 0
-890 0
-277 0
-7 0
-214 -380 0
868 -827 0
-738 0
-871 487 0
-882 0
425 -163 0
-80 -750 0
992 -90 0
-861 0
25 -324 0
-707 191 0
-147 0
977 -417 0
-98 -258 0
-540 294 0
-765 0
-218 471 0
-544 -642 0
-726 -362 0
90 -155 0
529 -13 0
-685 -290 0
631 -57 0
-231 0
132 -428 0
-518 0
-605 -763 0
-672 922 0
-694 0
-895 0
-550 -509 0
-189 0
-820 -828 0
364 -35 0
-329 0
-727 -309 0
-524 125 0
227 -515 0
-450 -498 0
353 -346 0
691 -42 0
-96 0
-848 -3 0
-521 0
-518 0
-462 0
-131 590 0
786 -249 0
-926 -921 0
-366 191 0
-650 0
-17 0
-414 0
380 -411 0
906 -617 0
-443 0
-439 0
-480 -156 0
-739 135 0
-22 -629 0
-439 0
797 -825 0
-559 -785 0
-432 0
-492 0
-725 -956 0
-86 343 0
-294 0
-754 0
-133 0
-378 0
187 -242 0
-584 0
-512 0
-327 -347 0
-723 0
-845 -249 0
-20 -940 0
-798 -25 0
976 -711 0
312 -315 0
-124 0
-319 -282 0
-238 0
-21 715 0
-655 219 0
-692 0
899 -273 0
-537 0
-432 186 0
-233 -665 0
-414 715 0
-264 101 0
-336 25 0
978 -228 0
-943 -179 0
-795 0
226 -341 0
-139 0
-286 -754 0
-543 -1 0
-871 395 0
-673 0
112 -550 0
-181 -91 0
-463 743 0
-430 0
-819 111 0
-662 0
-372 0
-792 406 0
-413 0
-284 589 0
308 -969 0
-766 0
-541 0
-846 887 0
-506 655 0
-471 0
-369 0
-176 -614 0
600 -896 0
849 -92 0
-525 630 0
-330 -649 0
-240 -198 0
-97 0
-146 0
505 -139 0
56 -85 0
-495 0
-350 676 0
-71 0
-486 -690 0
-851 167 0
986 -349 0
-171 325 0
381 -386 0
192 -10 0
-399 0
-583 0
851 -260 0
-102 -701 0
-163 0
-579 0
49 -842 0
19 -58 0
114 -865 0
248 -122 0
339 -923 0
-510 890 0
-337 0
-621 -281 0
-534 829 0
827 -699 0
313 -225 0
-785 0
-655 -342 0
-413 -259 0
-48 -252 0
50 -397 0
-53 0
-900 0
-946 0
-585 599 0
-296 38 0
-392 0
-337 0
-80 -115 0
-606 0
-103 -921 0
-269 0
-488 -978 0
364 -9 0
-15 575 0
-717 685 0
464 -506 0
859 -233 0
-482 -497 0
-755 838 0
-243 -122 0
-904 0
97 -450 0
-839 837 0
-88 0
529 -206 0
-993 367 0
-871 22 0
779 -402 0
328 -687 0
-760 0
820 -153 0
511 -401 0
-87 0
-620 -996 0
-279 135 0
179 -764 0
573 -778 0
-286 93 0
-659 0
-201 0
-556 0
-931 0
-981 45 0
-659 0
-23 0
-658 0
569 -844 0
21 -58 0
-120 0
-139 966 0
-600 0
-204 0
-594 -954 0
-262 0
-409 0
-460 0
-612 742 0
-538 0
-65 0
-163 0
-816 -111 0
-259 -522 0
568 -71 0
-135 -995 0
-47 -521 0
-803 0
-227 -41 0
-404 0
-388 0
-321 0
-19 0
971 -68 0
-271 -257 0
-949 -757 0
-256 0
906 -205 0
-29 0
-983 0
-852 0
-40 994 0
676 -187 0
498 -905 0
-782 335 0
-390 0
-885 101 0
-597 -204 0
-876 653 0
-805 0
-272 -796 0
-753 0
-627 -921 0
-649 0
-573 359 0
-487 -866 0
97 -861 0
-899 0
-528 0
-904 42 0
-651 0
861 -81 0
-164 -993 0
-463 0
-354 0
-446 876 0
-111 0
986 -371 0
-288 0
-537 0
-761 0
-276 0
-52 717 0
-650 134 0
-321 0
-367 -12 0
-79 924 0
-812 0
742 -289 0
948 -554 0
-587 -617 0
-711 473 0
98 -134 0
-651 0
-496 330 0
-911 0
544 -587 0
154 -861 0
-587 926 0
896 -539 0
105 -342 0
-661 316 0
-385 599 0
665 -957 0
-463 0
-463 -477 0
841 -798 0
-878 -730 0
115 -644 0
-189 -290 0
-604 0
-32 -911 0
-21 -171 0
-878 315 0
-842 0
-113 0
-908 0
-200 0
-303 0
-476 599 0
872 -523 0
537 -451 0
-548 -891 0
-640 0
-680 559 0
-203 0
149 -898 0
704 -586 0
-143 0
-740 0
-523 0
930 -971 0
-504 931 0
-232 885 0
-134 -209 0
192 -90 0
-214 74 0
-887 0
380 -745 0
-616 0
612 -812 0
-126 583 0
-20 0
-591 0
-903 0
-471 166 0
129 -158 0
-233 0
-978 0
-952 -945 0
-463 0
-370 0
360 -298 0
-882 0
691 -610 0
-454 0
-395 0
-377 0
-173 0
-914 0
-514 0
-284 -331 0
-438 -452 0
-795 -530 0
-917 188 0
-439 0
-225 0
-781 -913 0
-707 390 0
-903 987 0
-954 0
-407 0
-296 -554 0
-783 563 0
-598 0
-303 0
-168 996 0
-631 0
-319 0
-851 0
733 -491 0
-179 0
-84 -459 0
-60 111 0
881 -405 0
-384 -261 0
-563 0
-820 -868 0
-193 0
626 -978 0
-580 0
443 -371 0
-173 -516 0
-156 0
67 -378 0
-106 0
-874 95 0
-376 0
-985 0
144 -854 0
-184 306 0
114 -132 0
-254 0
-877 0
-414 0
337 -967 0
-161 0
-861 -345 0
-959 -412 0
-142 -330 0
-135 517 0
-786 0
-797 -754 0
-618 0
-558 0
-807 -278 0
-659 0
-125 -956 0
652 -955 0
-510 -378 0
-680 456 0
-198 381 0
-280 0
-340 -49 0
-366 0
387 -948 0
-773 0
-265 0
-525 567 0
-471 0
217 -215 0
-166 -907 0
-608 904 0
-304 -535 0
-580 0
-928 -709 0
-542 -228 0
-555 287 0
-863 822 0
-396 719 0
-717 203 0
-810 262 0
-968 679 0
-331 -115 0
-245 934 0
-175 517 0
965 -305 0
-20 0
-564 0
821 -626 0
376 -449 0
1 -395 0
-430 925 0
-687 59 0
-260 0
-982 411 0
-725 646 0
-808 0
-468 -921 0
-811 0
-983 0
-914 0
737 -467 0
-443 0
-646 -405 0
-528 907 0
-865 0
976 -988 0
-109 0
104 -452 0
-488 205 0
538 -853 0
-279 0
-878 0
-281 0
-438 252 0
-678 -357 0
-600 -399 0
-412 286 0
-62 0
-362 0
200 -911 0
810 -374 0
353 -706 0
-903 44 0
-222 211 0
-70 214 0
-704 -166 0
-549 0
-565 -865 0
-398 -774 0
618 -621 0
-1000 0
-273 0
-591 721 0
-96 -54 0
644 -154 0
-672 0
-838 711 0
-807 0
-472 0
-962 591 0
-24 -349 0
-7 0
369 -113 0
48 -809 0
-622 0
25 -197 0
-962 831 0
-999 0
-351 -677 0
968 -895 0
416 -447 0
877 -570 0
-240 -595 0
-511 -462 0
577 -358 0
229 -155 0
-365 0
-642 0
-318 0
-615 -135 0
-605 966 0
-999 509 0
-624 43 0
-468 0
-333 -97 0
-258 0
-943 0
-787 0
-729 0
-765 0
-950 0
-782 172 0
-929 0
-669 0
-507 590 0
133 -362 0
-946 0
-10 0
-600 -291 0
-466 0
-755 127 0
-101 0
-695 0
-424 0
-6 693 0
-124 -154 0
-414 0
-740 0
-56 0
-854 0
-314 -385 0
-1000 0
-816 189 0
137 -972 0
-103 0
-937 0
-939 0
-766 -530 0
-597 812 0
-7 217 0
-701 -844 0
392 -341 0
-351 541 0
450 -20 0
-747 0
-668 -204 0
-36 0
-378 0
-600 0
-848 -773 0
-106 310 0
-470 0
-136 -281 0
-399 0
-900 0
-516 0
-796 0
-917 0
443 -260 0
-14 0
-740 -571 0
-550 622 0
-312 765 0
-448 0
929 -498 0
-845 519 0
-917 0
-451 -634 0
268 -993 0
-922 0
-662 -978 0
-73 0
-15 197 0
-166 479 0
-94 469 0
-204 0
-112 321 0
-838 -286 0
-886 0
-831 -229 0
-226 0
-796 0
-104 0
-29 0
-254 0
-152 -104 0
-251 215 0
-145 0
189 -273 0
-528 361 0
-640 586 0
-386 0
-629 213 0
875 -373 0
288 -526 0
-310 -90 0
-736 0
-120 741 0
-881 0
-623 0
-159 789 0
944 -97 0
-285 -780 0
-638 262 0
112 -504 0
-128 0
825 -141 0
-759 -893 0
840 -956 0
162 -971 0
579 -412 0
-387 0
-624 0
-647 0
666 -258 0
-666 0
-982 -638 0
-848 -846 0
-80 214 0
904 -691 0
-831 -29 0
-832 0
-765 660 0
-41 0
-638 -345 0
-740 0
-682 0
-576 0
-639 705 0
-436 0
-240 0
-69 0
-677 0
-262 869 0
-131 0
-960 -818 0
916 -274 0
-581 0
-924 -41 0
-290 -721 0
-636 -211 0
-905 0
153 -842 0
337 -74 0
-173 -41 0
-14 -164 0
724 -834 0
-475 0
120 -990 0
-938 0
889 -739 0
162 -844 0
-241 0
-429 -533 0
-857 0
-155 0
-328 0
-628 0
-750 -98 0
-555 -553 0
-557 0
-846 981 0
-912 0
-237 -145 0
-472 -625 0
842 -810 0
-799 0
909 -346 0
-513 -409 0
-891 -89 0
-376 0
840 -684 0
9 -838 0
-19 0
316 -985 0
-847 -814 0
-447 0
-583 0
-211 0
-214 -313 0
-569 0
-298 0
-449 0
-249 0
-163 198 0
981 -746 0
-315 0
-789 0
-246 0
138 -532 0
-403 -97 0
989 -178 0
-26 0
984 -851 0
-721 0
-35 0
-879 -237 0
-566 0
-168 53 0
169 -354 0
-748 -435 0
-399 0
10 -330 0
-655 0
-651 0
-890 0
-806 0
-757 419 0
-342 213 0
-552 0
-845 -634 0
-870 455 0
-778 0
-775 0
-835 0
-13 893 0
-335 0
-172 -858 0
555 -109 0
-380 0
-632 -510 0
770 -669 0
-872 0
649 -812 0
-475 0
-593 0
-504 0
417 -701 0
417 -97 0
-771 0
-694 0
-18 0
-554 0
489 -71 0
676 -500 0
-384 0
-736 -196 0
73 -523 0
-324 974 0
-910 964 0
-639 626 0
-374 0
-772 0
-744 0
-451 0
-786 0
-280 249 0
-147 0
282 -509 0
-395 0
-659 991 0
-884 -556 0
444 -476 0
53 -859 0
-439 0
-815 -971 0
-691 0
-232 -126 0
-837 -3 0
-400 89 0
-229 0
416 -757 0
-197 -804 0
-610 286 0
-727 518 0
-676 0
746 -405 0
500 -978 0
-519 132 0
-767 0
-775 0
-240 -147 0
-116 0
-928 -11 0
-126 163 0
-686 -860 0
-32 0
-312 -663 0
-35 -882 0
299 -563 0
-155 0
-517 0
-753 0
-790 -965 0
208 -599 0
-895 0
-744 0
-96 591 0
738 -996 0
656 -200 0
-239 0
419 -397 0
-206 133 0
-977 0
793 -940 0
-224 0
-382 0
-77 -201 0
27 -187 0
530 -313 0
570 -452 0
-783 861 0
-458 -729 0
-227 0
-96 -534 0
-760 879 0
-58 0
-554 0
-559 0
-336 426 0
-277 0
-940 0
-18 0
-757 675 0
-333 0
753 -758 0
-704 0
289 -649 0
616 -487 0
-197 -819 0
-864 0
-21 -361 0
-12 757 0
-472 0
-694 -601 0
-402 0
-567 -538 0
-151 330 0
218 -349 0
321 -139 0
922 -388 0
-110 -203 0
-14 875 0
-856 0
-86 0
-568 0
-998 0
-705 0
-199 -91 0
-875 0
-678 -140 0
-863 347 0
-95 708 0
298 -1 0
-147 0
-277 -764 0
-74 0
-308 0
-956 0
-841 0
-266 0
-965 939 0
896 -781 0
-116 0
-720 -579 0
-256 -460 0
-837 -315 0
-785 431 0
752 -243 0
-60 0
-468 0
-218 0
-927 0
-111 -545 0
-294 0
-290 0
-112 -59 0
-120 676 0
-401 0
-103 -193 0
-128 0
-262 -443 0
-888 516 0
-757 -196 0
938 -52 0
-856 225 0
-366 -842 0
-624 839 0
-663 356 0
-800 0
-249 -905 0
-834 0
-940 -793 0
-719 0
-181 0
570 -45 0
-994 0
-126 957 0
-161 0
-828 0
-954 -89 0
-683 -777 0
-610 -394 0
-209 0
879 -625 0
-102 -883 0
-831 868 0
-901 0
-643 0
-368 0
-613 -572 0
-791 0
-848 685 0
-391 541 0
-686 0
-43 -106 0
-937 0
-119 -817 0
-408 0
-553 0
-203 351 0
-846 0
-64 -53 0
-888 971 0
-701 0
-573 164 0
-41 0
-411 -185 0
-539 239 0
-591 0
-811 0
-30 0
-996 254 0
-501 -261 0
-725 0
-93 119 0
-441 0
-613 0
-82 0
-839 0
-476 0
-350 851 0
-624 0
617 -452 0
-298 -33 0
-10 599 0
-999 889 0
-393 0
-32 0
-924 422 0
-88 278 0
-281 0
-907 0
-259 0
-466 0
-544 -860 0
-809 0
-415 0
-431 862 0
-409 0
-968 -776 0
-34 0
-180 -484 0
-616 -347 0
283 -363 0
-501 739 0
413 -634 0
-20 0
-128 172 0
-581 -308 0
-710 0
-544 275 0
-812 -705 0
-198 0
-779 0
-738 591 0
-247 -133 0
-86 -645 0
760 -409 0
-58 0
-773 924 0
-200 -727 0
-812 0
-871 487 0
-44 -987 0
-168 0
-131 0
616 -1 0
-193 0
-829 -265 0
-551 -182 0
-625 0
-382 0
-229 0
-789 0
148 -562 0
-480 -817 0
-964 -786 0
-70 0
-500 0
-35 0
-356 0
-329 0
-551 -108 0
169 -292 0
-446 0
-983 0
-547 0
-176 0
-260 0
-432 0
-669 0
-773 404 0
132 -929 0
-264 0
-600 767 0
-870 -921 0
-664 231 0
-650 0
-774 0
-639 -734 0
518 -226 0
-72 337 0
-988 0
-356 0
722 -83 0
349 -801 0
-757 0
663 -697 0
956 -737 0
-891 0
-314 0
826 -193 0
-134 0
836 -49 0
-426 0
787 -451 0
-776 0
-926 0
-852 0
889 -307 0
-569 0
-149 -482 0
-933 0
-75 0
-671 -190 0
-442 -514 0
-682 0
947 -779 0
-344 795 0
-209 0
738 -355 0
-751 0
-965 0
-667 0
-168 -346 0
-793 0
-812 0
-107 0
-588 327 0
-731 678 0
-258 0
-712 0
-517 -138 0
-563 0
-923 0
64 -65 0
394 -828 0
-806 -118 0
-741 0
-810 0
-217 0
706 -291 0
-111 -771 0
761 -842 0
-480 0
-504 -852 0
-384 0
906 -809 0
-784 0
-94 0
-636 0
593 -652 0
-573 135 0
820 -402 0
-839 415 0
-533 197 0
-700 0
-590 -198 0
-190 0
-603 0
-759 0
-128 -503 0
-166 0
-608 882 0
681 -823 0
-551 0
648 -266 0
-685 -212 0
-429 0
-876 397 0
-446 631 0
627 -649 0
-990 0
-919 0
-992 0
-744 917 0
-891 -962 0
-989 0
-965 0
387 -138 0
-444 -266 0
-180 308 0
-848 301 0
-688 0
800 -317 0
-703 -10 0
860 -418 0
-831 879 0
-951 0
-336 0
700 -572 0
-566 -550 0
-514 0
-406 0
520 -574 0
94 -841 0
-617 0
69 -249 0
-733 382 0
-94 645 0
84 -980 0
-646 117 0
-695 670 0
829 -977 0
-157 -681 0
331 -585 0
-765 557 0
-228 0
-527 209 0
801 -44 0
-236 911 0
186 -849 0
-380 294 0
-672 0
819 -883 0
-903 0
-549 863 0
-523 -361 0
-807 317 0
-160 -229 0
-967 687 0
-718 -453 0
10 -694 0
485 -43 0
-207 918 0
236 -515 0
-192 124 0
810 -433 0
704 -695 0
-352 0
554 -363 0
384 -242 0
-381 -483 0
-102 -45 0
-320 -389 0
115 -12 0
-356 0
-739 0
-121 0
-115 0
-916 -266 0
-128 0
-838 63 0
-237 -986 0
-169 0
-331 0
116 -58 0
-521 615 0
-292 -100 0
-45 0
-925 782 0
-253 -852 0
-683 0
675 -562 0
-213 0
-343 0
-207 331 0
262 -738 0
33 -644 0
641 -413 0
272 -108 0
-974 -313 0
-831 0
888 -471 0
-127 309 0
321 -387 0
-797 -803 0
-526 -747 0
-770 0
-308 0
672 -732 0
-166 0
-278 0
-943 0
633 -402 0
-46 372 0
-376 524 0
-841 0
-911 -388 0
-260 461 0
-633 0
-967 317 0
-611 0
-808 9 0
-176 533 0
-838 578 0
-414 0
-480 0
-990 628 0
-607 0
-424 -521 0
-954 0
-662 -140 0
-63 809 0
-663 0
273 -710 0
-827 0
-359 724 0
-332 0
232 -296 0
-797 0
450 -234 0
-955 0
-446 -275 0
-467 0
264 -15 0
-16 -315 0
-962 0
-154 0
-376 767 0
-251 0
-450 814 0
-543 142 0
847 -641 0
817 -113 0
969 -574 0
-863 -766 0
-853 0
-21 -435 0
-87 0
-533 87 0
-743 788 0
-407 -589 0
-404 60 0
-816 0
-398 0
-406 0
-8 0
-128 0
-532 0
-568 -225 0
-976 0
-928 -110 0
-144 -74 0
-351 0
-798 0
17 -291 0
-781 596 0
-727 410 0
-865 0
-421 0
504 -607 0
-403 0
20 -450 0
873 -284 0
-685 0
-426 0
-874 0
-496 119 0
-760 -655 0
-71 -427 0
-80 -427 0
475 -323 0
669 -401 0
-719 -749 0
-664 -374 0
507 -819 0
-136 -126 0
-241 0
-375 -865 0
-721 0
-477 -569 0
-391 275 0
853 -889 0
-492 0
-516 0
-819 0
-670 -122 0
-616 -895 0
-370 -794 0
-226 0
-551 0
-126 -843 0
307 -172 0
-863 0
-409 0
-816 -831 0
-559 806 0
585 -81 0
-54 -826 0
-557 166 0
-922 0
-91 -578 0
-3 0
617 -282 0
-182 0
761 -130 0
-168 0
-435 0
-572 -858 0
633 -97 0
380 -194 0
-765 150 0
-536 357 0
-529 0
370 -730 0
422 -418 0
-340 693 0
-927 0
316 -345 0
256 -204 0
755 -145 0
-924 0
-515 0
-919 -252 0
-830 405 0
-72 -713 0
-670 -588 0
-314 0
286 -49 0
-333 0
385 -325 0
-629 0
-42 0
-920 0
-992 721 0
850 -369 0
-584 -488 0
672 -470 0
-482 -273 0
-303 -817 0
-750 0
-62 -2 0
451 -642 0
-974 0
867 -2 0
714 -578 0
-454 723 0
-568 -738 0
-634 0
432 -61 0
-523 0
-582 -709 0
402 -282 0
-652 12 0
-418 511 0
432 -760 0
-365 0
-775 871 0
-749 -43 0
-635 0
-61 734 0
-566 0
-261 0
-188 0
-646 671 0
-424 790 0
-461 0
-180 0
-940 0
-784 -188 0
-368 -646 0
-104 617 0
-419 0
267 -714 0
130 -609 0
-914 0
-644 0
-455 511 0
-303 455 0
-424 674 0
-692 -219 0
-402 22 0
-356 -626 0
-288 0
-570 0
-274 159 0
-254 -531 0
-20 478 0
-259 -186 0
377 -817 0
957 -379 0
-673 0
840 -137 0
-606 919 0
228 -930 0
-694 639 0
-750 -253 0
-831 0
-506 0
-620 -458 0
-874 0
-696 0
-722 -778 0
-124 0
417 -342 0
-287 0
162 -771 0
-328 483 0
-460 0
-10 0
304 -475 0
477 -586 0
505 -795 0
-29 23 0
-636 0
-164 0
-767 219 0
-704 -649 0
-375 -913 0
-215 558 0
304 -870 0
-76 0
-174 0
-633 0
-686 0
-945 0
-713 0
-390 -637 0
-2 0
-742 339 0
-245 0
-452 0
-792 0
-605 997 0
-920 787 0
-470 -427 0
784 -907 0
-351 0
-641 0
-200 -577 0
-759 0
-213 748 0
-925 0
-684 39 0
-64 475 0
602 -388 0
145 -339 0
-541 0
-184 0
832 -209 0
-486 991 0
-516 0
-418 0
-779 294 0
-908 0
-589 0
-905 -633 0
-890 0
640 -874 0
-571 0
-128 0
-547 -505 0
-477 0
786 -978 0
-231 -678 0
-175 0
-526 0
-99 0
-432 0
-919 0
-458 0
-942 0
-479 0
-961 287 0
466 -435 0
-572 0
66 -370 0
-472 -587 0
-956 0
-691 453 0
131 -220 0
-391 610 0
-363 0
-144 0
-111 -918 0
-397 165 0
-441 0
-970 0
-942 0
-629 0
707 -618 0
-963 -321 0
-944 0
-752 0
-583 0
273 -150 0
-32 596 0
-891 6 0
-997 0
-691 -377 0
168 -468 0
-415 147 0
315 -131 0
-351 269 0
-863 -253 0
252 -921 0
665 -508 0
-507 334 0
-683 165 0
-997 814 0
-453 0
-620 -905 0
-43 0
-714 0
-251 0
-60 0
-917 205 0
-704 -56 0
-559 0
-22 0
-137 0
-763 0
-539 0
-96 0
-384 257 0
-428 0
-389 -92 0
-822 199 0
281 -812 0
-346 -817 0
-980 0
-910 0
-317 0
-931 0
-50 -193 0
-758 523 0
-981 0
-155 0
-219 -642 0
-576 -619 0
-400 -550 0
-360 0
-933 -801 0
-391 -801 0
-803 735 0
-853 0
-642 0
620 -724 0
-548 -833 0
-205 -813 0
860 -691 0
-534 0
-577 0
508 -514 0
-135 -892 0
939 -140 0
-973 0
-95 -318 0
347 -690 0
-735 0
-447 -69 0
620 -625 0
-635 159 0
-425 0
-116 -276 0
-884 0
-823 0
-929 0
360 -13 0
-75 0
-229 -482 0
464 -795 0
-351 -610 0
-44 485 0
-706 -226 0
803 -449 0
-846 -778 0
-113 0
-637 0
-6 0
-935 -708 0
-155 0
-807 0
120 -455 0
80 -865 0
-110 460 0
321 -86 0
-648 0
-978 0
732 -162 0
301 -777 0
-32 -310 0
-300 0
521 -622 0
-480 0
-991 -860 0
-236 -217 0
-331 631 0
608 -491 0
18 -130 0
-597 517 0
-211 0
-26 0
-96 -591 0
-235 0
-872 -67 0
228 -587 0
992 -66 0
-934 383 0
402 -521 0
225 -418 0
251 -652 0
-814 948 0
-976 927 0
-976 0
-744 115 0
-280 789 0
283 -140 0
-799 -609 0
-376 -381 0
66 -708 0
-422 908 0
456 -888 0
-288 0
-358 -555 0
410 -898 0
-851 0
-685 0
-614 253 0
-464 566 0
-283 0
-374 -373 0
-190 717 0
-943 26 0
788 -43 0
-872 0
674 -733 0
-45 -738 0
-742 278 0
-749 0
76 -193 0
-846 885 0
-334 0
-804 0
-11 0
-417 0
-227 199 0
-505 0
737 -164 0
-494 451 0
-909 0
-88 593 0
-707 0
-35 0
-781 -570 0
-776 0
-157 -98 0
-713 0
432 -668 0
-93 167 0
-591 0
-472 0
-554 0
-92 0
-371 0
42 -355 0
-400 0
-542 -105 0
-21 0
-751 93 0
-170 0
-797 0
-54 -6 0
-244 0
-258 -73 0
-998 0
-43 0
-919 -54 0
538 -941 0
-330 0
-657 -289 0
-200 -733 0
717 -34 0
-130 -746 0
-785 0
-830 0
337 -676 0
-56 0
-637 -385 0
-60 -515 0
9 -981 0
-108 654 0
-246 0
-736 -41 0
-325 447 0
-835 0
-787 0
-312 0
-159 -567 0
-549 0
-932 0
-157 -707 0
-69 0
-185 0
-39 0
-368 0
-510 51 0
-127 0
-374 0
354 -382 0
-942 -533 0
-112 865 0
-790 -921 0
-514 967 0
-825 0
-173 317 0
-695 0
-528 0
-582 445 0
-714 0
-403 191 0
-373 0
-293 0
-714 -257 0
264 -705 0
-182 0
-311 0
-602 0
-54 -545 0
-413 391 0
985 -821 0
-195 -242 0
-94 0
-554 607 0
-399 0
589 -409 0
-750 0
-208 0
-375 0
-311 539 0
-328 696 0
600 -738 0
-639 0
-748 623 0
-466 -666 0
339 -785 0
585 -607 0
437 -114 0
-238 0
-920 0
-469 -932 0
-182 -674 0
-291 -235 0
-271 391 0
-976 -839 0
-608 11 0
-794 0
-735 0
-366 -747 0
554 -97 0
636 -227 0
-826 0
-225 0
914 -369 0
-598 4 0
-241 0
-237 63 0
811 -681 0
-613 0
-902 -265 0
-754 0
385 -295 0
-94 0
-591 0
-846 0
-87 -406 0
-24 190 0
385 -508 0
-930 0
-884 0
-518 539 0
-172 0
-521 0
-331 0
-293 0
547 -195 0
-546 46 0
-294 972 0
-278 766 0
216 -291 0
692 -953 0
-48 -752 0
-349 429 0
-343 0
314 -945 0
-823 0
-479 0
884 -92 0
344 -131 0
-481 0
496 -851 0
-357 6 0
-824 858 0
-700 0
-904 447 0
-575 0
-124 -153 0
-215 223 0
-134 -242 0
-742 0
-56 0
-674 0
-947 -969 0
-923 959 0
-656 -647 0
-734 0
-376 -655 0
874 -546 0
-432 -461 0
-398 997 0
-55 -142 0
-912 0
968 -59 0
-456 -743 0
-679 77 0
-877 615 0
-154 0
-763 0
19 -284 0
-964 62 0
-143 0
-956 589 0
-839 0
-976 -23 0
-442 0
-183 0
168 -719 0
-595 0
-375 58 0
962 -476 0
-65 0
-469 724 0
-418 0
-393 0
-417 -473 0
569 -414 0
-245 0
-156 966 0
33 -972 0
-317 -466 0
-360 0
-860 0
-582 0
-427 0
-213 0
-694 0
-541 -57 0
-686 0
961 -642 0
280 -50 0
-414 0
435 -666 0
-139 167 0
-664 428 0
-525 -681 0
-653 0
-709 -309 0
-985 0
-742 -745 0
-493 125 0
-502 0
-684 -91 0
-518 0
-532 0
-70 0
-576 0
805 -993 0
-948 0
-65 607 0
-404 -770 0
-607 -673 0
-182 -150 0
345 -230 0
-207 0
444 -84 0
-238 0
-270 -475 0
-894 130 0
-911 50 0
627 -389 0
-238 -453 0
-328 199 0
-596 406 0
-453 -333 0
-816 842 0
-492 0
-551 -322 0
-943 515 0
-413 -91 0
-145 0
164 -442 0
-52 591 0
285 -857 0
-705 0
-58 0
-471 298 0
-890 0
-506 0
-509 -555 0
-123 190 0
-288 -978 0
-537 455 0
-913 0
596 -249 0
-40 0
-792 307 0
-472 -230 0
-695 356 0
-207 0
-676 0
-814 285 0
-126 0
-322 0
841 -274 0
-983 -245 0
77 -970 0
-470 -739 0
-960 114 0
587 -91 0
-859 -705 0
-21 0
-575 76 0
-884 -468 0
-980 0
-472 135 0
-960 908 0
-707 0
-493 419 0
-455 -685 0
-510 0
104 -948 0
248 -875 0
-544 0
-101 740 0
-167 -734 0
-286 794 0
-76 0
883 -741 0
-179 0
-945 0
-15 0
-866 0
-936 -953 0
-203 0
-310 0
-223 987 0
-492 -114 0
987 -913 0
-519 0
-150 0
-388 709 0
-92 -753 0
932 -1 0
229 -547 0
-407 382 0
-18 0
37 -673 0
752 -260 0
-839 0
827 -849 0
104 -279 0
226 -4 0
-108 0
-670 0
-63 890 0
-145 -265 0
50 -238 0
-744 0
-888 488 0
-444 0
-736 922 0
-933 599 0
-415 0
-219 0
-13 0
-211 -737 0
-440 495 0
-990 0
-455 -585 0
-758 636 0
-303 -163 0
-453 -394 0
-346 0
-412 157 0
904 -778 0
-15 -209 0
-940 -114 0
-1000 -953 0
-912 771 0
-439 5 0
-214 -722 0
-287 213 0
-633 0
-95 0
-1000 -672 0
-38 0
-335 -319 0
-666 0
-194 23 0
163 -41 0
264 -891 0
-87 509 0
-390 0
193 -767 0
-527 4 0
-947 0
66 -340 0
74 -149 0
-439 162 0
-837 588 0
-741 -605 0
-5 -76 0
-951 0
817 -113 0
-664 402 0
-170 0
-513 0
892 -803 0
-962 -746 0
-615 0
59 -893 0
-757 0
-460 0
-393 0
-84 324 0
-276 607 0
-841 0
-648 646 0
-957 0
-758 0
-709 0
-180 -675 0
-808 -762 0
-987 0
-848 0
425 -474 0
-328 -929 0
-46 -372 0
-736 727 0
-194 0
-856 -86 0
-276 -666 0
-661 77 0
-443 0
641 -421 0
-14 622 0
-146 14 0
-424 834 0
576 -311 0
-698 0
-456 0
-611 0
-184 0
-631 -229 0
-71 0
275 -842 0
-582 0
201 -670 0
-1000 0
410 -706 0
-663 -403 0
-123 0
-540 103 0
635 -613 0
-226 0
-749 0
-880 -148 0
-510 0
-436 0
-248 0
373 -139 0
-219 0
-373 -395 0
-862 -382 0
-445 575 0
-774 0
-800 796 0
-63 0
-965 -779 0
182 -793 0
793 -165 0
-393 0
-632 84 0
-343 0
-39 0
-748 788 0
-989 0
-791 938 0
-759 36 0
-877 -666 0
-692 -19 0
-740 917 0
40 -28 0
11 -697 0
-486 0
-695 835 0
-273 0
-448 -492 0
-699 0
-148 -908 0
-615 -166 0
-882 0
-767 0
-486 0
-633 0
748 -259 0
-92 156 0
-692 0
749 -987 0
154 -921 0
-532 0
-709 0
-191 390 0
728 -982 0
-559 0
610 -3 0
152 -619 0
113 -495 0
-31 0
-849 0
-267 0
-714 527 0
-118 550 0
-456 999 0
-301 -641 0
75 -563 0
-995 0
-115 0
784 -394 0
-941 0
-630 -138 0
-600 0
544 -76 0
-328 -157 0
-632 0
-749 -908 0
-580 -260 0
-29 0
-679 0
873 -750 0
-948 0
833 -89 0
-19 677 0
-355 -66 0
-331 0
-894 -745 0
-241 0
564 -257 0
618 -883 0
-253 742 0
-737 0
-940 0
-53 0
-717 -916 0
-111 -403 0
-522 0
-521 0
-905 0
166 -377 0
-964 0
-234 0
224 -935 0
-253 0
-966 0
209 -988 0
60 -155 0
-7 637 0
-584 899 0
798 -921 0
-22 0
24 -242 0
401 -438 0
-484 0
593 -564 0
-204 0
-583 0
-35 701 0
-244 0
-159 286 0
916 -498 0
-279 756 0
-760 0
-909 -930 0
-15 0
-134 -189 0
-829 -515 0
582 -530 0
-645 -540 0
16 -236 0
-162 0
-541 150 0
652 -996 0
-534 -2 0
-6 979 0
881 -537 0
-18 263 0
-284 622 0
504 -775 0
-466 -962 0
921 -333 0
-935 0
-573 -418 0
-246 -652 0
-700 0
-667 -427 0
-670 0
-234 0
-488 0
-749 782 0
-254 717 0
-375 -625 0
-376 0
-525 0
-610 -930 0
891 -941 0
-219 0
406 -585 0
-646 0
-397 0
-609 0
-885 -68 0
-976 0
-462 0
729 -778 0
-654 0
900 -731 0
-103 -651 0
-504 0
-80 -452 0
546 -589 0
725 -921 0
32 -226 0
-854 0
-40 0
-277 639 0
-36 68 0
-909 0
-376 0
-187 0
385 -881 0
88 -652 0
-949 -204 0
-463 810 0
-67 0
-730 0
784 -430 0
-317 -905 0
-238 -540 0
752 -88 0
-723 165 0
-361 -713 0
221 -202 0
-462 0
-938 0
-863 0
340 -297 0
-368 -889 0
-247 -230 0
107 -45 0
-142 405 0
-825 0
353 -153 0
-351 0
731 -139 0
-72 0
-115 0
-120 -867 0
-954 -162 0
-936 804 0
-365 0
-45 0
-279 0
-721 0
-696 42 0
-407 -334 0
-118 0
-939 0
-125 206 0
-30 718 0
-318 0
-792 0
418 -486 0
573 -610 0
898 -633 0
232 -352 0
-696 131 0
-539 0
-942 509 0
450 -297 0
41 -107 0
-58 0
-541 0
-82 -345 0
-637 0
-199 0
-217 0
-835 0
-518 0
-498 0
-94 0
480 -651 0
-942 511 0
-290 286 0
731 -149 0
-13 229 0
-488 956 0
-848 557 0
-131 0
114 -485 0
-583 37 0
-464 348 0
-339 0
556 -466 0
-829 0
-164 0
-374 0
-286 -141 0
-499 0
-392 -685 0
-92 -795 0
113 -524 0
-44 797 0
-328 -317 0
-313 0
-583 0
-569 0
-246 0
-281 0
-496 -387 0
-349 0
-916 796 0
361 -316 0
-253 -123 0
-591 388 0
-165 908 0
-156 0
-24 -638 0
-4 0
704 -980 0
-376 -408 0
73 -219 0
-726 0
-848 505 0
-867 0
-589 -123 0
970 -525 0
608 -375 0
-973 0
-841 0
-637 0
-189 0
-751 434 0
-425 31 0
480 -577 0
-775 0
241 -813 0
-1000 386 0
-917 0
-182 0
-391 0
692 -26 0
-680 0
577 -363 0
-988 0
-568 -447 0
-548 463 0
-917 871 0
-936 636 0
-704 0
279 -97 0
-57 -713 0
701 -553 0
-174 0
-683 -107 0
-784 500 0
-221 963 0
353 -607 0
-504 -568 0
153 -579 0
-859 175 0
-156 0
768 -157 0
885 -379 0
-145 0
-197 60 0
-204 0
-989 -532 0
-831 0
-997 0
-288 869 0
-166 0
-144 0
-487 0
-872 -189 0
-581 0
-168 -875 0
230 -641 0
-439 281 0
-352 -721 0
-242 983 0
-528 12 0
-847 0
-588 885 0
696 -339 0
-730 0
-948 0
-106 0
-126 0
-139 -521 0
-922 0
-128 0
-302 0
-57 0
-6 0
-936 0
-647 0
-568 -211 0
-662 -513 0
88 -380 0
-162 0
-262 -437 0
-435 0
303 -113 0
-260 0
-936 552 0
-225 0
-934 0
-615 0
-893 838 0
-136 619 0
-685 0
-45 -682 0
-177 0
-874 0
-382 -644 0
133 -714 0
978 -713 0
-757 -780 0
-251 0
838 -641 0
-316 -57 0
-776 -932 0
-676 405 0
724 -804 0
-109 646 0
945 -426 0
728 -546 0
145 -100 0
-232 -273 0
-559 282 0
-395 0
-439 775 0
-59 0
-654 14 0
-873 0
417 -763 0
-139 -866 0
-718 -169 0
-534 0
-655 -618 0
-230 44 0
-938 894 0
-706 0
-232 0
-172 127 0
-825 -33 0
-893 0
-592 -241 0
-31 -825 0
899 -882 0
-245 270 0
-803 174 0
-684 0
-738 0
-214 -617 0
-575 0
-990 0
-591 0
264 -697 0
-571 0
-260 295 0
-872 0
-656 0
-767 -333 0
-392 401 0
-216 0
-813 852 0
-426 0
-164 743 0
-756 0
-808 298 0
-916 0
-404 157 0
-223 0
48 -158 0
396 -42 0
457 -702 0
-55 -68 0
-430 -678 0
-464 0
-223 0
-872 67 0
314 -843 0
-768 -984 0
787 -210 0
-535 0
-450 0
-711 -771 0
-368 0
-928 -556 0
-472 -784 0
-986 -905 0
-1 0
-538 0
-357 301 0
-7 639 0
-141 0
-626 0
-888 628 0
-821 412 0
505 -151 0
-669 0
290 -461 0
-123 0
-314 78 0
-903 0
45 -891 0
-135 -38 0
-223 0
-777 0
-766 -972 0
-193 143 0
-899 0
-303 565 0
-685 0
-200 0
-807 -540 0
-465 0
-656 -635 0
-944 -476 0
-150 255 0
-39 -873 0
82 -843 0
-678 141 0
969 -244 0
-658 0
-444 110 0
-600 -807 0
-816 75 0
-15 0
-116 -123 0
516 -145 0
665 -242 0
145 -356 0
42 -802 0
857 -57 0
-221 0
-880 477 0
-684 0
-462 259 0
-125 916 0
-700 0
-460 508 0
504 -834 0
-211 133 0
-712 -336 0
845 -426 0
-432 570 0
-472 -894 0
-847 596 0
-598 -452 0
-668 -468 0
-757 287 0
-465 0
24 -172 0
-446 0
-33 0
-86 0
-707 0
-350 802 0
-290 0
-559 -115 0
-207 245 0
877 -897 0
-40 0
-649 0
-653 0
-67 0
-984 -785 0
-925 0
-197 0
-853 0
912 -543 0
-629 -844 0
-194 750 0
-919 175 0
-625 0
904 -411 0
-21 0
-572 -538 0
-583 571 0
-992 -131 0
-46 0
792 -353 0
-126 253 0
696 -604 0
851 -549 0
-236 -818 0
-486 -377 0
-237 124 0
-526 0
-496 0
-50 983 0
904 -471 0
-125 -465 0
-616 -359 0
599 -801 0
-500 0
547 -98 0
-448 0
-15 0
-974 0
-967 0
-622 0
-584 377 0
-694 -533 0
-620 -948 0
-403 309 0
985 -366 0
640 -752 0
-541 0
-287 -819 0
-621 -865 0
-993 0
837 -545 0
228 -409 0
-344 -913 0
-709 188 0
-144 766 0
-592 -447 0
-407 0
-86 933 0
157 -154 0
-608 693 0
-114 0
-608 132 0
683 -219 0
340 -267 0
-568 -623 0
-592 0
-550 679 0
-960 -316 0
-145 0
-902 -922 0
-918 0
109 -425 0
-232 -531 0
-394 0
-676 0
-27 519 0
-923 0
946 -470 0
-776 0
-598 0
-218 863 0
794 -21 0
168 -849 0
-624 813 0
-460 0
-269 -363 0
-549 -556 0
-261 -522 0
185 -322 0
-150 61 0
-972 0
-540 0
-486 0
-4 -851 0
-628 631 0
-244 0
-572 0
-60 94 0
-982 -523 0
-876 884 0
-811 0
734 -554 0
-452 0
-104 0
-126 0
-392 0
-808 -287 0
-502 0
-19 -11 0
249 -814 0
969 -691 0
281 -698 0
-622 0
936 -426 0
954 -957 0
-264 0
-72 -387 0
-304 790 0
48 -116 0
-6 548 0
916 -740 0
-573 -362 0
897 -595 0
730 -107 0
287 -673 0
-469 36 0
-19 0
-941 -714 0
-520 675 0
-933 0
-368 611 0
-1000 300 0
264 -119 0
-523 0
872 -431 0
245 -546 0
-67 0
-806 164 0
69 -274 0
-175 -455 0
-20 324 0
-728 -260 0
782 -969 0
-206 0
-982 0
-599 0
-823 246 0
-792 0
-982 0
-235 0
-512 -163 0
-118 205 0
-650 0
-16 -223 0
-327 0
-220 637 0
-236 0
-729 0
264 -740 0
-828 -339 0
-165 0
-776 30 0
-82 0
794 -934 0
-517 0
-316 662 0
-988 71 0
324 -442 0
-227 0
-178 0
-27 303 0
-167 0
-804 0
-125 798 0
-242 0
-856 -558 0
-284 0
-870 -867 0
-452 367 0
-607 -676 0
-736 -105 0
-654 0
-374 -581 0
-606 -501 0
-384 -382 0
774 -545 0
-853 -988 0
-802 -258 0
-94 0
-725 -170 0
226 -510 0
722 -697 0
-634 0
-627 -601 0
-293 0
-826 0
-462 -796 0
-56 0
-878 271 0
346 -97 0
-909 0
-298 0
-490 0
637 -451 0
-314 0
-471 -531 0
-91 -633 0
525 -266 0
-275 -186 0
992 -879 0
-766 927 0
-520 -900 0
-76 -498 0
336 -449 0
168 -620 0
-176 -183 0
-723 -802 0
128 -231 0
627 -546 0
-820 621 0
-118 623 0
-891 134 0
-102 0
-224 0
-288 0
-19 -667 0
-600 0
-549 -828 0
905 -341 0
-589 279 0
-126 415 0
-584 0
-496 -461 0
-481 0
-125 846 0
-680 642 0
-107 0
-940 0
284 -458 0
-765 0
-15 0
-754 191 0
422 -793 0
-240 -345 0
-784 -199 0
-257 0
300 -121 0
-900 0
-871 0
718 -825 0
-223 -770 0
-895 164 0
-748 773 0
-64 913 0
-231 -727 0
-371 30 0
786 -20 0
-315 -825 0
-287 -775 0
-241 0
824 -928 0
-686 69 0
-695 0
-795 935 0
-847 -294 0
-43 -107 0
-559 0
-734 508 0
-99 0
-435 -546 0
-902 0
-629 -932 0
82 -115 0
-15 0
-459 0
-952 -565 0
-681 0
-542 539 0
381 -209 0
53 -691 0
-72 -602 0
709 -370 0
-635 0
-5 0
-839 350 0
-549 0
-744 998 0
-355 0
-635 0
-316 0
-157 174 0
778 -673 0
-855 -761 0
-576 0
-6 -410 0
-978 0
-56 953 0
-466 0
-262 261 0
-402 0
-231 0
-527 -789 0
-436 0
-439 -638 0
456 -284 0
953 -767 0
249 -809 0
728 -303 0
937 -105 0
-578 0
-236 574 0
-277 0
-124 0
-975 746 0
-553 0
707 -218 0
-918 771 0
-994 367 0
-362 55 0
-110 550 0
-287 0
-220 -19 0
-62 5 0
-83 0
-463 0
-551 799 0
345 -548 0
-629 -3 0
-243 246 0
-626 0
-917 -12 0
-776 0
-734 0
684 -185 0
-530 0
-169 0
-844 0
-295 -859 0
-566 -595 0
-238 159 0
-497 0
-118 484 0
-618 0
-275 0
-674 0
474 -155 0
-237 692 0
-336 0
-296 206 0
795 -819 0
-837 0
810 -4 0
-187 0
-62 -667 0
-38 0
-367 731 0
43 -549 0
-197 0
-574 -109 0
-118 0
-506 0
-135 751 0
-834 335 0
-403 0
-76 47 0
386 -173 0
-193 0
281 -852 0
-353 0
-298 0
-564 0
-663 -674 0
-687 -436 0
-495 -357 0
-623 -266 0
-790 -717 0
-80 0
-351 -940 0
-659 -410 0
-650 0
-87 235 0
-622 -981 0
-819 0
854 -585 0
-838 0
-1000 -688 0
-792 651 0
-56 0
408 -599 0
-484 966 0
467 -689 0
-399 -410 0
-77 0
-394 -210 0
-719 782 0
-151 0
470 -921 0
-933 68 0
158 -10 0
-926 0
-276 0
-834 -514 0
332 -435 0
-451 0
-815 0
-419 -714 0
-5 695 0
-342 0
-431 0
-738 0
-444 893 0
-46 389 0
-55 0
-440 -321 0
481 -794 0
705 -138 0
527 -337 0
-32 0
-729 223 0
-359 539 0
-990 -701 0
-518 0
-324 -851 0
-316 -626 0
-32 -81 0
912 -939 0
-403 0
-200 0
-982 -970 0
-658 0
-215 890 0
-655 0
-702 -412 0
837 -529 0
-526 0
-44 -113 0
-936 0
-453 -754 0
-869 631 0
-588 0
-682 0
-464 443 0
691 -108 0
-79 455 0
-754 0
-400 0
902 -754 0
-491 -338 0
-965 831 0
915 -57 0
-697 0
-805 0
-42 63 0
417 -345 0
218 -313 0
-663 868 0
584 -330 0
-520 -909 0
-165 318 0
-727 -478 0
-168 386 0
973 -810 0
-299 0
608 -44 0
-98 0
-613 823 0
-960 -650 0
-361 0
-821 0
505 -563 0
835 -593 0
-823 0
-168 -679 0
-126 0
-4 870 0
-238 0
446 -617 0
952 -447 0
-329 0
-610 0
935 -305 0
-30 0
-360 -273 0
-687 0
-348 -209 0
-964 0
-253 0
-71 -564 0
-937 0
-811 0
-501 0
-377 0
434 -323 0
-31 0
954 -274 0
121 -334 0
940 -220 0
-503 -705 0
-623 -746 0
-15 -685 0
697 -99 0
-836 308 0
-959 0
-925 652 0
-697 0
-119 -564 0
-497 0
-777 0
-16 589 0
-719 0
-658 -257 0
-795 0
-94 -227 0
-749 -123 0
-988 0
-688 0
-710 0
-621 684 0
-175 907 0
-817 0
-636 -932 0
-392 0
-770 639 0
-83 0
-922 0
-5 -25 0
-446 0
-705 0
-296 -54 0
592 -676 0
-109 0
-282 0
-97 0
-307 0
-920 819 0
-172 -73 0
-517 0
-717 798 0
-954 0
-366 508 0
-415 0
-147 0
-668 0
-281 0
612 -810 0
-263 -84 0
690 -822 0
881 -325 0
-820 0
-173 0
-942 0
-541 847 0
427 -652 0
-397 0
-639 0
-604 0
-930 526 0
627 -412 0
-6 0
-917 -555 0
-145 0
-309 476 0
-962 -153 0
-632 0
195 -577 0
73 -753 0
-960 -493 0
-397 0
-910 0
-996 0
-226 0
-254 -418 0
-199 0
-743 0
-728 -180 0
-152 -268 0
-3 0
19 -83 0
-687 818 0
-260 0
988 -729 0
-70 -283 0
147 -821 0
-944 0
-32 -608 0
849 -612 0
-362 0
-703 -731 0
-675 0
-928 0
-828 -563 0
538 -114 0
-296 -8 0
-283 -642 0
-689 0
-435 134 0
602 -122 0
460 -178 0
817 -437 0
563 -516 0
968 -642 0
-944 -652 0
-848 -175 0
-880 524 0
-703 746 0
775 -169 0
-808 0
-272 -321 0
-240 304 0
-591 0
-780 0
-695 0
-179 119 0
-23 -283 0
-568 0
-32 -842 0
-343 679 0
-301 -649 0
-898 0
-272 -790 0
-362 0
-342 0
-424 -991 0
-459 366 0
-98 0
555 -267 0
-891 0
-332 0
208 -923 0
305 -470 0
-140 780 0
-90 463 0
-152 0
-84 0
-292 0
-69 0
-294 468 0
-1 0
-183 0
-412 0
248 -464 0
-165 -482 0
-974 -961 0
-14 3 0
-448 65 0
-691 0
201 -101 0
-938 0
-981 622 0
-47 0
-120 0
-710 -668 0
-212 0
310 -674 0
632 -779 0
-779 -914 0
-925 383 0
-397 805 0
474 -182 0
201 -410 0
-843 0
-845 0
289 -905 0
777 -492 0
-20 997 0
-640 951 0
-751 938 0
-332 110 0
289 -778 0
162 -219 0
-503 837 0
-751 -947 0
-314 -514 0
-781 -932 0
-829 -260 0
139 -549 0
-480 -174 0
-785 0
-555 157 0
-159 -975 0
-407 521 0
-687 623 0
-925 -434 0
-648 0
-536 0
-572 0
-74 0
-190 996 0
-595 0
-85 0
-463 -628 0
-769 0
-770 0
-519 -563 0
-37 0
459 -842 0
-580 0
-91 -113 0
-353 0
-200 749 0
256 -157 0
-988 926 0
-949 0
-358 0
458 -755 0
-634 486 0
-79 0
610 -154 0
-399 0
-403 0
-472 -110 0
-204 0
-464 0
-413 0
-731 -961 0
-869 0
898 -955 0
721 -145 0
-790 -929 0
-720 0
-208 -131 0
40 -50 0
-634 0
-292 0
-871 239 0
-61 0
-917 727 0
-485 0
-135 0
-539 214 0
-285 260 0
-204 0
-394 0
-529 23 0
194 -205 0
972 -540 0
-680 474 0
-498 -794 0
-734 967 0
394 -851 0
-957 -409 0
-488 0
609 -83 0
-875 591 0
-955 54 0
-964 -593 0
-935 0
384 -394 0
-858 -321 0
-893 -396 0
-469 0
634 -809 0
619 -669 0
-591 0
-440 -443 0
-740 0
-511 0
139 -290 0
-45 -909 0
-832 -612 0
-661 0
-915 -834 0
-388 0
-103 -701 0
-461 -995 0
530 -131 0
-872 260 0
-930 7 0
-456 -953 0
-30 282 0
494 -73 0
149 -274 0
18 -954 0
-53 799 0
-901 0
-808 433 0
-774 572 0
-680 0
-580 0
468 -76 0
-509 -571 0
-487 -926 0
-851 0
-270 29 0
-873 0
700 -483 0
-912 0
-431 811 0
-292 0
-592 -61 0
-745 0
-130 0
-170 0
-342 0
-927 66 0
817 -834 0
-168 65 0
986 -361 0
-936 0
853 -169 0
498 -459 0
-350 92 0
-514 0
-287 0
-958 219 0
-400 -629 0
-131 318 0
-708 0
929 -905 0
-320 -338 0
-468 0
-273 0
-490 0
-560 188 0
-495 -199 0
-407 0
-990 0
-248 -859 0
-162 0
-656 -323 0
218 -289 0
-43 0
-994 534 0
-356 -276 0
-379 0
491 -849 0
-974 0
-975 -605 0
-24 20 0
-455 0
-600 590 0
-150 -748 0
792 -722 0
644 -188 0
58 -510 0
-432 928 0
-959 -659 0
-279 0
-86 0
-330 -929 0
-717 -987 0
354 -658 0
-967 155 0
-432 89 0
-376 -770 0
-425 0
452 -417 0
440 -625 0
-940 0
-962 0
260 -233 0
-831 318 0
-47 874 0
-152 0
-482 0
-592 991 0
-106 0
378 -569 0
-1000 295 0
-772 46 0
-4 -419 0
-460 -186 0
-317 -346 0
-321 0
-802 0
-67 -985 0
-480 0
-813 77 0
-21 -969 0
-10 0
955 -244 0
-500 999 0
152 -751 0
-795 0
-339 0
446 -433 0
956 -676 0
-84 270 0
-576 0
362 -4 0
-939 0
-446 717 0
-508 -946 0
-800 120 0
-864 0
-315 254 0
-345 0
-751 -961 0
-323 0
-785 0
-680 -947 0
824 -22 0
-950 0
123 -377 0
-352 931 0
-832 -553 0
-469 0
203 -21 0
-894 716 0
-807 -306 0
-472 838 0
-320 -601 0
-867 0
-572 0
-771 0
-69 -722 0
-848 -481 0
-949 287 0
-879 388 0
-452 0
-207 0
-493 -666 0
-387 0
-316 0
465 -14 0
-36 -963 0
-224 -357 0
-309 0
848 -674 0
-644 -196 0
-893 661 0
-94 -123 0
-379 439 0
795 -945 0
-918 0
-195 0
-975 209 0
-513 0
-589 0
-132 0
-95 346 0
-851 -394 0
-797 0
-197 -690 0
-152 0
920 -121 0
-870 0
-766 -451 0
-197 0
-373 0
-101 -540 0
-558 0
-418 974 0
-40 0
-951 -126 0
-289 0
-845 -619 0
-383 0
-575 -270 0
-984 0
-470 0
-364 110 0
898 -230 0
-96 276 0
-114 838 0
-659 0
574 -353 0
-604 718 0
-383 -905 0
-526 0
896 -476 0
-419 -393 0
-560 175 0
-291 -762 0
-100 724 0
-758 0
-358 0
635 -53 0
-607 -282 0
-592 950 0
-279 -570 0
-347 -249 0
-378 703 0
804 -91 0
-484 0
-113 0
-980 0
-583 0
-813 0
-855 850 0
-432 0
-173 301 0
424 -910 0
-342 -84 0
921 -421 0
380 -889 0
-328 -201 0
-529 0
935 -697 0
-438 0
-62 0
-612 0
-499 0
-169 0
-582 461 0
-695 -526 0
-84 0
-32 0
-911 0
-9 0
-766 548 0
-379 -314 0
832 -585 0
-74 0
-395 -722 0
482 -49 0
-119 0
-397 0
-517 0
465 -607 0
-352 995 0
-213 -445 0
290 -217 0
419 -194 0
131 -228 0
-985 0
-695 651 0
-636 0
-207 0
-357 -994 0
400 -244 0
-359 374 0
-421 92 0
-483 -362 0
-88 670 0
-107 0
-192 0
202 -37 0
-648 0
485 -547 0
-895 0
-89 0
-36 295 0
-248 0
-808 607 0
-477 28 0
897 -326 0
-760 852 0
-793 0
-881 0
484 -569 0
-509 0
584 -481 0
624 -603 0
-429 0
-797 -124 0
-524 0
-637 0
-69 -819 0
-76 0
-716 0
978 -435 0
-399 -803 0
810 -756 0
-585 -729 0
-663 0
-383 559 0
705 -877 0
-714 -737 0
-174 726 0
-278 -250 0
-193 0
-54 0
-176 -740 0
-510 469 0
-310 275 0
-611 175 0
-812 0
-63 693 0
-419 141 0
-706 0
-974 0
44 -747 0
-456 0
74 -349 0
-426 -314 0
-538 0
-356 509 0
-382 0
-550 -452 0
-391 -89 0
-240 -19 0
544 -892 0
-213 -459 0
-595 0
-760 -198 0
-540 0
-655 -764 0
-624 -90 0
267 -658 0
-5 0
-879 29 0
-174 -212 0
-940 0
-432 -997 0
-899 7 0
748 -810 0
873 -54 0
965 -114 0
-55 308 0
-778 0
-850 -545 0
105 -159 0
-495 52 0
-40 -728 0
697 -876 0
-872 60 0
-994 -233 0
-282 0
-188 0
-832 -383 0
905 -230 0
688 -58 0
-248 663 0
-639 815 0
-249 0
-843 991 0
-179 -746 0
-554 -610 0
-891 623 0
795 -341 0
-820 479 0
-519 0
938 -411 0
-42 0
434 -101 0
-788 -28 0
-559 829 0
760 -190 0
-948 0
-196 -386 0
-131 0
-67 0
979 -573 0
-735 -28 0
893 -25 0
97 -316 0
304 -699 0
-365 958 0
-539 0
-368 -187 0
-456 -758 0
-1000 0
-23 414 0
-271 -980 0
-627 0
-998 0
-102 0
-482 0
484 -706 0
-807 0
328 -652 0
-61 0
448 -94 0
-167 -973 0
-318 519 0
666 -421 0
-296 939 0
-748 0
-184 255 0
-780 0
370 -513 0
-872 974 0
-791 -839 0
-261 0
-445 0
920 -848 0
354 -105 0
-485 0
-545 0
-844 0
-443 0
-741 476 0
-95 385 0
186 -100 0
778 -139 0
-689 0
-972 0
-32 139 0
-134 0
-767 0
-263 -417 0
-95 -418 0
-130 0
-323 0
688 -814 0
-462 869 0
-622 0
-580 0
168 -891 0
-401 0
-717 0
-670 591 0
-526 0
-426 0
-264 -474 0
-305 0
604 -913 0
-240 -981 0
-248 521 0
-918 -557 0
-300 582 0
-830 -756 0
-364 156 0
-317 -858 0
848 -257 0
-968 0
-622 -217 0
242 -954 0
-44 -842 0
-929 0
-158 0
-79 363 0
-531 0
-607 506 0
-72 0
-524 0
-838 590 0
-210 0
-541 -621 0
-638 0
-556 805 0
-85 0
-728 0
-936 -133 0
-742 739 0
-163 0
632 -458 0
-836 0
-24 0
837 -810 0
-43 0
546 -324 0
-402 -553 0
89 -413 0
-879 0
-577 0
-317 -601 0
-709 0
-375 0
-392 0
-29 -91 0
-576 0
-651 877 0
650 -554 0
-775 0
-255 389 0
-496 -127 0
-30 0
-880 0
-815 -383 0
-894 453 0
-182 0
-844 855 0
-382 -546 0
-231 0
-279 0
-174 0
323 -819 0
586 -957 0
920 -118 0
-78 -390 0
-630 -489 0
-639 0
741 -250 0
376 -805 0
-714 0
-608 -635 0
850 -203 0
-949 -442 0
-344 0
696 -495 0
-351 0
-291 -362 0
-816 -868 0
-179 0
946 -313 0
251 -473 0
-246 950 0
-870 0
-306 0
-7 0
-313 0
-13 0
-318 -652 0
-767 -993 0
-446 631 0
-35 0
747 -291 0
61 -793 0
-252 -281 0
-544 347 0
-745 -537 0
-891 0
-597 0
290 -121 0
-157 -522 0
-12 0
-794 0
-260 0
721 -939 0
-613 373 0
-144 0
-764 0
-175 578 0
-135 716 0
-453 0
-720 303 0
-765 0
-917 0
-352 0
-492 -428 0
-706 0
-79 453 0
-751 0
-904 0
-542 -564 0
-66 0
248 -99 0
496 -562 0
-102 -226 0
-414 -579 0
-70 -465 0
-94 -116 0
-117 -682 0
-544 0
-815 698 0
-171 0
-573 0
-40 -837 0
-433 0
721 -813 0
-389 0
-110 -801 0
976 -987 0
-31 0
-564 0
-422 -955 0
-406 0
713 -236 0
-957 -577 0
-718 -817 0
-478 5 0
-914 0
-193 0
-651 0
-399 0
-831 0
-770 0
-512 -353 0
-446 0
-435 0
-184 0
-232 -422 0
-732 -298 0
2 -989 0
409 -913 0
-331 -106 0
-739 0
-966 149 0
-17 0
-911 691 0
-645 0
-731 -721 0
16 -38 0
-880 0
-182 29 0
-941 582 0
-559 0
-167 0
-687 -607 0
-436 0
-439 0
-684 0
-994 0
-406 -50 0
-984 -439 0
524 -177 0
-246 342 0
-103 -330 0
-9 0
-645 0
-656 -253 0
-466 -273 0
-904 -236 0
-808 0
-987 239 0
222 -498 0
-842 0
-88 0
-261 -170 0
-205 0
9 -310 0
353 -553 0
-523 0
-772 95 0
321 -566 0
-912 -457 0
963 -281 0
-749 0
-200 0
632 -461 0
-679 548 0
316 -369 0
-299 -649 0
690 -947 0
-613 0
-280 0
-707 -1 0
-551 0
-775 0
-377 287 0
-506 -833 0
-352 0
173 -619 0
640 -27 0
-296 0
-442 959 0
-237 782 0
-506 0
-201 0
-204 0
-151 0
-568 208 0
348 -555 0
-667 0
-431 -51 0
723 -964 0
-364 701 0
-872 0
152 -488 0
-36 0
-387 -882 0
-813 300 0
-221 0
-986 0
-147 0
-542 0
-89 0
-349 0
-951 0
-350 0
-30 -907 0
-296 -765 0
-366 788 0
-815 43 0
-209 0
-854 -139 0
594 -130 0
-948 0
-100 0
626 -141 0
-364 0
-957 837 0
-655 -213 0
930 -571 0
-990 -418 0
-440 -897 0
922 -579 0
-519 0
-148 0
57 -777 0
-93 413 0
545 -238 0
-166 510 0
-778 223 0
-22 -513 0
-557 -428 0
458 -298 0
-152 -674 0
-195 -499 0
874 -746 0
91 -106 0
-690 0
-108 454 0
539 -668 0
-240 0
-462 723 0
-560 -95 0
218 -694 0
-934 0
-933 -57 0
-543 0
485 -929 0
-160 -300 0
-79 0
-461 -354 0
312 -96 0
728 -973 0
-301 0
857 -701 0
-559 876 0
-382 106 0
-124 0
349 -993 0
-252 -988 0
-367 0
-64 0
-412 462 0
742 -409 0
-499 0
-165 0
290 -538 0
-158 0
-991 -3 0
292 -930 0
64 -168 0
-543 0
-725 764 0
41 -939 0
-760 -773 0
-901 0
-203 0
-923 647 0
-847 0
-654 0
-533 0
-276 255 0
-725 742 0
-206 -578 0
-832 -204 0
-843 0
-336 -945 0
-84 0
329 -649 0
830 -538 0
-992 -34 0
-157 -715 0
112 -874 0
-736 -237 0
608 -924 0
-600 473 0
-727 0
-596 0
-308 0
407 -265 0
561 -586 0
-543 -670 0
-899 55 0
352 -84 0
-984 -595 0
-830 243 0
-638 -35 0
122 -341 0
-92 892 0
-509 -532 0
956 -579 0
-36 0
-675 981 0
-390 0
-268 0
531 -769 0
-756 0
-95 -274 0
-188 -465 0
-582 -955 0
-255 509 0
-31 124 0
-279 0
266 -20 0
-550 -202 0
-888 0
-925 0
-621 -620 0
-889 0
379 -309 0
833 -788 0
-64 -413 0
978 -413 0
-207 0
-661 975 0
-910 378 0
-657 0
-341 0
-631 -353 0
-736 -297 0
-282 0
224 -762 0
-880 833 0
-898 0
-627 0
345 -164 0
514 -99 0
866 -883 0
785 -103 0
-853 966 0
859 -891 0
-529 0
-467 965 0
-932 77 0
-850 0
-283 -443 0
-416 0
-781 0
-188 0
-634 0
-484 0
-233 0
-621 725 0
-518 -117 0
-418 551 0
-860 476 0
786 -193 0
408 -71 0
-59 0
-438 0
712 -230 0
-608 -369 0
659 -211 0
-462 0
-603 0
-430 0
836 -35 0
-374 642 0
-138 0
-675 0
-849 0
-433 0
-861 636 0
-7 -940 0
133 -930 0
-391 951 0
-821 0
-240 -292 0
-653 -163 0
-192 0
-872 0
648 -599 0
885 -273 0
-878 0
-116 0
-262 0
850 -713 0
-759 767 0
-12 630 0
-732 318 0
-479 -477 0
-296 0
-980 0
184 -311 0
-300 0
-294 -781 0
-678 0
-904 0
-563 0
-997 773 0
-374 578 0
-416 150 0
-384 -857 0
394 -666 0
-425 0
-235 0
-904 -93 0
-415 557 0
-323 0
-533 -601 0
-341 -323 0
-152 713 0
299 -426 0
-556 0
968 -76 0
-693 -169 0
-988 542 0
-371 774 0
-535 -449 0
-529 0
-36 0
-645 469 0
-560 -336 0
-231 -345 0
-795 0
618 -772 0
-943 -647 0
115 -836 0
-319 346 0
-480 809 0
-645 711 0
-576 532 0
648 -413 0
-732 6 0
687 -953 0
-909 -562 0
-184 -433 0
906 -779 0
-524 0
-514 -281 0
-357 118 0
-994 0
-952 0
-896 0
-108 -649 0
-208 -855 0
-491 -729 0
-758 142 0
-572 239 0
-6 0
-540 -698 0
-766 0
827 -20 0
-7 783 0
65 -187 0
-798 0
-300 0
476 -715 0
-351 -607 0
-175 0
41 -794 0
-958 694 0
810 -518 0
482 -394 0
833 -484 0
-942 0
-409 0
-253 0
-14 -49 0
904 -643 0
-13 0
-615 379 0
-381 0
758 -785 0
-143 0
-624 -933 0
257 -314 0
546 -461 0
-380 -609 0
-336 -59 0
363 -186 0
-519 0
604 -25 0
-527 353 0
-284 -841 0
-695 -771 0
-857 0
672 -233 0
-304 0
-394 151 0
432 -605 0
587 -908 0
-727 181 0
581 -785 0
-920 172 0
-686 0
-256 -933 0
-710 -43 0
-884 599 0
-715 0
-482 0
-544 453 0
-807 -586 0
-783 -523 0
-267 0
-735 733 0
-808 0
-437 -529 0
-996 0
-576 -494 0
-104 -450 0
-847 0
996 -337 0
-998 -569 0
-80 419 0
640 -631 0
-464 -111 0
112 -831 0
504 -679 0
-514 0
-33 0
-351 501 0
378 -379 0
-221 0
-341 -812 0
-793 0
-686 0
-72 -121 0
457 -114 0
-812 0
-614 0
-579 0
-118 -3 0
-759 239 0
616 -94 0
-840 0
-221 675 0
-296 618 0
-861 -572 0
648 -406 0
-64 -208 0
-329 0
-548 0
41 -613 0
-971 0
520 -340 0
-894 589 0
-271 0
-784 983 0
-336 -148 0
-448 -451 0
147 -482 0
-71 708 0
-38 0
-746 0
-291 0
-276 0
-133 0
-665 0
-523 0
-771 879 0
-829 0
-30 0
41 -110 0
-144 -359 0
-990 0
-376 0
-528 -534 0
-869 294 0
-68 0
-341 0
-704 -146 0
-265 0
-800 -670 0
700 -281 0
777 -251 0
-876 0
-696 0
-319 0
-155 -363 0
-403 0
-91 0
-996 0
-476 726 0
57 -378 0
-375 -79 0
948 -236 0
-743 -327 0
-153 0
-408 337 0
-420 0
-549 -289 0
-827 0
738 -218 0
-448 0
-327 0
-430 0
544 -731 0
517 -843 0
-975 78 0
-101 0
-298 -545 0
-120 -157 0
314 -787 0
-523 405 0
-877 0
-376 -144 0
-736 0
-949 -474 0
-803 0
49 -102 0
-694 612 0
-1000 -456 0
-72 0
706 -990 0
-246 0
44 -468 0
-583 -916 0
322 -965 0
-916 -705 0
40 -586 0
-624 401 0
-699 0
365 -938 0
-871 -535 0
-669 -739 0
648 -808 0
-46 0
-829 -37 0
-689 0
-904 105 0
132 -780 0
435 -777 0
-926 539 0
-521 0
330 -122 0
-273 0
81 -642 0
306 -715 0
-808 291 0
-546 0
-40 -886 0
-416 -146 0
-10 -25 0
-100 0
-738 0
-102 -156 0
541 -403 0
-465 0
480 -455 0
-400 -29 0
-859 0
-93 0
-177 0
-986 -778 0
59 -801 0
-447 -619 0
-294 -41 0
-820 798 0
-494 964 0
608 -106 0
-240 -23 0
702 -441 0
803 -35 0
-742 0
-438 0
-288 593 0
-400 689 0
-349 0
-369 -481 0
-948 0
-723 422 0
-695 170 0
71 -993 0
-672 92 0
-813 87 0
-375 0
-84 0
-351 314 0
-264 -237 0
696 -620 0
-620 0
-595 0
114 -707 0
641 -947 0
-422 478 0
-433 0
-271 -193 0
-700 0
843 -356 0
-742 661 0
-968 0
-648 -224 0
208 -295 0
-324 142 0
-380 7 0
25 -54 0
-359 -743 0
120 -572 0
-204 15 0
-636 181 0
-70 0
-550 0
-689 0
-149 -756 0
-94 558 0
-7 291 0
-316 -426 0
-48 0
-622 0
-248 0
-688 0
-474 302 0
393 -574 0
-719 737 0
-578 0
618 -809 0
-152 147 0
-141 668 0
-683 0
18 -681 0
-152 0
-721 0
-760 -394 0
-283 0
-437 0
-755 0
-212 0
-766 0
-838 0
-895 0
192 -841 0
448 -258 0
-473 0
-200 730 0
83 -130 0
-978 0
-981 -412 0
994 -289 0
-711 -498 0
-542 123 0
-326 319 0
-195 485 0
-172 0
-31 -271 0
-547 0
-367 229 0
-910 0
-101 -659 0
-151 0
-572 -594 0
-359 765 0
-596 0
-546 0
-911 0
140 -298 0
-547 0
-195 141 0
251 -625 0
-221 0
996 -770 0
-232 932 0
-97 0
-912 432 0
-532 -249 0
-892 294 0
-792 0
-145 0
-712 0
-992 0
-398 0
-536 468 0
-237 0
-834 0
-813 612 0
-43 0
-890 639 0
-876 -154 0
-490 415 0
-734 0
-675 0
605 -26 0
-951 -83 0
738 -523 0
288 -166 0
-685 667 0
-352 -200 0
-261 303 0
-732 0
-53 0
-174 86 0
-719 555 0
-695 0
-983 -450 0
-879 -279 0
-637 943 0
-933 0
-501 -364 0
-812 974 0
-719 -562 0
669 -778 0
-41 0
-858 0
-838 0
-81 -897 0
-792 514 0
-504 -559 0
-117 -51 0
-341 -812 0
-355 23 0
-876 -987 0
-716 839 0
-575 0
-317 605 0
-974 0
-762 791 0
-639 -830 0
-607 0
-253 806 0
-526 -778 0
-498 215 0
-613 -364 0
-27 -778 0
-182 0
-177 0
578 -931 0
-63 0
-455 -335 0
-455 897 0
42 -210 0
-653 0
712 -721 0
-245 -21 0
-464 629 0
-989 -700 0
-871 0
-639 339 0
-885 0
-960 523 0
-622 -398 0
-866 0
-155 0
-231 213 0
-851 0
-113 -521 0
-115 55 0
-375 0
-438 -234 0
546 -747 0
-951 0
-739 0
-317 0
-865 0
-224 169 0
-864 381 0
-527 245 0
-467 0
-853 -427 0
-240 -387 0
-661 0
-311 0
-338 0
-550 0
-396 -25 0
-6 -773 0
-692 -161 0
-168 -597 0
-987 0
932 -425 0
-56 964 0
-916 -474 0
49 -602 0
424 -602 0
-167 0
-55 965 0
-508 -195 0
578 -171 0
835 -18 0
-874 0
448 -545 0
-653 0
-739 631 0
216 -985 0
-798 947 0
-135 0
-301 389 0
-294 435 0
-917 813 0
-197 -899 0
-787 0
-118 -730 0
-800 484 0
-357 0
201 -455 0
-800 0
-184 -148 0
621 -939 0
-208 22 0
-112 -169 0
-389 -107 0
-62 0
-137 0
186 -754 0
-461 132 0
-383 461 0
-941 0
-877 -241 0
-817 0
808 -739 0
-693 0
-734 0
-833 0
-474 0
160 -230 0
-567 0
-118 836 0
-559 349 0
-564 -289 0
-620 -428 0
-638 -276 0
-96 -65 0
100 -731 0
-852 -908 0
-979 0
-319 324 0
-766 -909 0
-566 0
292 -444 0
-670 573 0
595 -321 0
-581 -531 0
-759 0
-626 0
864 -518 0
-692 871 0
-496 0
-328 386 0
-628 0
-604 0
-170 127 0
-939 0
128 -549 0
-687 -538 0
-416 567 0
-853 0
-554 0
12 -627 0
-956 0
-768 0
-474 0
-368 0
-624 611 0
392 -87 0
-177 0
538 -171 0
-301 0
-999 839 0
44 -452 0
-517 0
-638 0
721 -638 0
598 -553 0
-202 0
-27 -786 0
-595 310 0
-822 -147 0
-648 -685 0
408 -878 0
-812 -674 0
-624 -718 0
-810 0
560 -662 0
-256 326 0
-454 -204 0
-765 0
-538 943 0
-993 0
-777 0
-392 623 0
-528 0
-711 505 0
-942 514 0
-993 0
329 -835 0
-63 -13 0
-183 599 0
-611 0
-84 -298 0
-146 0
-303 -601 0
-116 -97 0
-664 0
347 -250 0
-424 513 0
-935 0
-413 -241 0
-374 -102 0
-517 -2 0
-730 0
-711 297 0
984 -941 0
-183 341 0
-86 958 0
-339 0
-883 0
789 -410 0
937 -657 0
-204 -67 0
-190 -404 0
-685 -393 0
-700 0
-64 -793 0
-407 0
-633 0
-254 700 0
-347 -641 0
-906 318 0
276 -443 0
-249 0
-798 -273 0
148 -291 0
-982 0
-664 -198 0
-249 0
-109 0
-541 -45 0
-621 279 0
-756 0
-64 -245 0
-757 -554 0
-493 0
-309 4 0
-335 635 0
-302 0
-23 0
587 -627 0
-151 -196 0
-597 0
-752 0
-164 477 0
-178 0
-936 0
-957 654 0
-135 -218 0
-484 -827 0
-775 0
-658 0
-343 -70 0
-312 -850 0
-46 36 0
-71 -453 0
-835 0
-671 308 0
-839 0
-131 622 0
401 -394 0
913 -67 0
-472 0
538 -374 0
170 -507 0
-795 0
-848 334 0
-694 -802 0
-520 -97 0
-903 0
-883 846 0
-271 539 0
-938 -817 0
323 -36 0
-204 0
-325 189 0
-824 -843 0
416 -802 0
-498 0
-872 517 0
-133 -412 0
-146 0
-509 0
-982 -482 0
-334 0
361 -661 0
-189 0
-966 -849 0
-293 0
-559 0
56 -267 0
670 -810 0
-39 0
-781 0
-477 574 0
404 -699 0
-677 0
-44 0
-816 -379 0
-828 -873 0
-622 0
-470 0
944 -292 0
-772 0
120 -25 0
-510 -729 0
-580 0
-70 -673 0
-142 0
883 -129 0
648 -299 0
-710 -426 0
40 -384 0
-407 -12 0
-163 0
100 -617 0
-612 142 0
232 -146 0
-492 0
-191 0
-612 39 0
-247 -525 0
-37 255 0
-72 -405 0
-415 195 0
-128 0
-668 0
-29 0
-5 247 0
-277 -674 0
-38 710 0
-266 207 0
-813 959 0
569 -484 0
-332 0
16 -950 0
-879 -395 0
-9 0
-990 0
-254 -966 0
-929 0
-359 -295 0
-448 0
-824 0
-375 279 0
-68 -91 0
-330 0
-13 -381 0
-6 -665 0
-58 0
-4 253 0
178 -374 0
-910 988 0
-813 509 0
723 -852 0
-579 -201 0
-14 0
-180 -676 0
-194 799 0
942 -250 0
737 -338 0
-476 703 0
-485 172 0
-835 183 0
-684 375 0
-198 0
781 -186 0
-930 0
659 -707 0
-639 -323 0
922 -573 0
-686 -29 0
-311 670 0
-130 0
-155 0
-855 13 0
-891 0
-79 0
-995 373 0
-531 0
-456 718 0
-931 0
-393 0
-725 0
-384 300 0
-482 -26 0
-702 891 0
-79 420 0
-703 900 0
297 -759 0
-950 0
-241 0
969 -850 0
-792 0
-826 0
-148 902 0
552 -950 0
-994 0
-139 0
288 -380 0
-775 0
-104 0
-57 0
-867 0
915 -284 0
-580 0
-835 0
-98 0
-735 0
-511 0
-372 -897 0
-359 798 0
-670 0
549 -10 0
-378 0
-343 0
-387 998 0
-195 -475 0
-462 0
-302 -465 0
-853 -218 0
-907 45 0
-913 0
-36 0
482 -657 0
-131 0
-147 0
-865 0
-785 0
-527 -586 0
-673 0
-447 11 0
-831 0
892 -978 0
-766 0
-481 0
797 -505 0
-972 -257 0
-229 -761 0
-152 -751 0
713 -785 0
341 -323 0
-872 -257 0
-968 0
699 -692 0
450 -197 0
-514 79 0
-690 0
446 -329 0
-461 0
-908 0
991 -305 0
-791 -559 0
-415 -223 0
-775 0
-733 0
-833 0
-948 -802 0
376 -968 0
-414 0
-686 0
-984 0
378 -492 0
-200 919 0
-696 544 0
-944 -459 0
-679 137 0
-716 917 0
-351 510 0
-598 39 0
-820 0
-302 0
424 -975 0
-403 0
-968 978 0
-771 0
888 -221 0
817 -990 0
-878 -635 0
-580 0
552 -720 0
-976 0
440 -801 0
28 -673 0
-623 0
-776 -358 0
-669 196 0
-924 389 0
-815 -682 0
402 -441 0
852 -75 0
-628 943 0
-626 0
-328 38 0
898 -245 0
-55 -850 0
-863 954 0
636 -721 0
-284 -347 0
-654 0
-488 -498 0
601 -711 0
441 -308 0
497 -12 0
208 -717 0
761 -747 0
-571 797 0
-168 -566 0
-462 75 0
-32 946 0
354 -861 0
435 -644 0
217 -901 0
-894 398 0
672 -697 0
-881 -529 0
-577 0
-480 264 0
-254 965 0
-211 -442 0
-498 -841 0
-81 0
-803 -505 0
-870 0
488 -428 0
-672 589 0
-820 0
-229 645 0
-858 0
116 -505 0
981 -507 0
-382 0
-894 0
-879 -660 0
-725 45 0
-552 0
73 -395 0
-944 0
708 -714 0
-923 0
-748 0
-899 0
-701 0
-572 -1 0
-414 0
-112 -188 0
-214 -587 0
-252 0
-758 -706 0
-818 478 0
-234 0
-841 -265 0
-984 -516 0
-172 0
-898 0
-205 -899 0
-600 733 0
-99 -74 0
-412 0
-587 0
-565 -65 0
-515 0
-652 150 0
-915 0
-591 0
-146 0
483 -869 0
-184 907 0
-869 0
-823 -934 0
600 -943 0
-988 462 0
-212 -756 0
-620 6 0
-940 0
-477 820 0
-519 0
-534 0
-262 -929 0
-411 405 0
-641 423 0
925 -522 0
-219 0
866 -593 0
-970 0
-544 471 0
-152 331 0
-757 0
16 -574 0
-50 0
868 -179 0
892 -939 0
-181 0
-75 0
-295 0
-366 654 0
-988 0
307 -569 0
-149 0
-760 -28 0
659 -220 0
-812 0
891 -721 0
-479 923 0
636 -298 0
553 -204 0
-672 614 0
-42 0
-168 770 0
-791 0
-471 -14 0
-715 0
-135 751 0
-402 -497 0
-371 0
451 -27 0
-574 0
-528 39 0
-162 0
-804 0
-683 0
-18 391 0
-300 0
-982 0
-86 -97 0
460 -202 0
-183 0
-38 -105 0
-785 0
-188 879 0
-717 565 0
-573 0
-803 133 0
-763 0
-105 863 0
-750 0
-284 -305 0
-717 -129 0
-878 -588 0
-136 732 0
-679 -614 0
-479 0
-745 0
-454 0
-283 622 0
-176 0
-918 -619 0
-233 0
-379 0
-35 -337 0
-100 -996 0
-595 0
178 -91 0
-796 0
104 -697 0
-390 0
-436 0
-594 0
-313 0
-77 150 0
-599 106 0
-734 851 0
-708 -370 0
-719 -973 0
-118 0
-558 0
-935 -734 0
-604 0
-335 -210 0
557 -619 0
-942 365 0
513 -380 0
-592 49 0
-350 -298 0
-726 -236 0
-768 0
386 -85 0
-983 0
977 -811 0
-189 0
-784 0
-50 0
473 -835 0
-175 0
-968 0
-512 0
-663 -569 0
-277 395 0
929 -649 0
-113 0
-634 0
432 -4 0
-17 0
760 -447 0
520 -759 0
593 -354 0
-255 0
-190 485 0
-631 247 0
-15 -119 0
-303 -298 0
-147 0
-755 0
-692 -826 0
-451 0
-705 0
-208 -65 0
-199 82 0
732 -995 0
-911 890 0
-652 -409 0
-203 -467 0
770 -83 0
-432 -219 0
-437 507 0
-767 0
-930 0
-989 0
-583 -499 0
156 -50 0
-347 790 0
-238 0
-440 545 0
-400 452 0
-653 0
-263 188 0
555 -603 0
-240 629 0
-446 0
-892 452 0
-608 619 0
-424 732 0
-116 -643 0
-907 167 0
-194 0
-885 0
-391 468 0
120 -952 0
-415 198 0
-635 -905 0
-183 -985 0
-7 -313 0
-456 -156 0
-673 0
-148 -177 0
-775 759 0
-475 0
-696 0
985 -554 0
-332 661 0
-856 0
-897 0
-576 0
-667 -441 0
739 -195 0
-628 0
-151 -567 0
-982 92 0
687 -57 0
-916 190 0
-397 0
-812 -123 0
-467 -426 0
-861 0
-727 0
-199 452 0
-984 444 0
563 -996 0
-472 -845 0
680 -501 0
384 -724 0
-112 -483 0
-680 850 0
-25 -905 0
-780 0
-901 868 0
874 -186 0
-149 870 0
-548 0
-653 0
-368 945 0
-85 620 0
314 -740 0
-617 -793 0
-51 0
-400 -540 0
-692 0
-741 219 0
66 -59 0
-729 0
752 -841 0
-682 0
-889 0
-581 0
-589 0
-511 -778 0
474 -9 0
-86 748 0
-446 -929 0
714 -426 0
-821 -163 0
193 -683 0
-649 0
-555 0
-503 -772 0
491 -841 0
-598 0
308 -177 0
-874 0
-197 995 0
-90 671 0
-47 82 0
-687 -77 0
-647 -269 0
922 -11 0
-72 0
176 -368 0
808 -922 0
536 -316 0
-541 0
-16 462 0
-495 0
-560 347 0
-183 957 0
-231 0
-950 -531 0
-585 0
24 -10 0
-246 -341 0
223 -17 0
-783 0
962 -765 0
-104 -111 0
-389 0
-168 0
284 -401 0
981 -993 0
-708 0
-312 795 0
-418 0
-853 0
-335 539 0
-215 -940 0
-249 0
385 -542 0
-678 0
921 -382 0
-629 0
415 -833 0
-98 0
184 -269 0
-543 0
147 -161 0
439 -105 0
-327 115 0
-104 916 0
-75 -785 0
-135 349 0
-578 0
-659 0
160 -693 0
-282 0
-633 0
-331 0
328 -718 0
-878 695 0
-292 0
-604 349 0
-997 0
-414 0
-493 -34 0
-437 0
408 -225 0
-391 -899 0
-501 0
-406 0
75 -25 0
-692 255 0
-115 0
-129 0
-58 110 0
-293 -362 0
-784 649 0
-434 207 0
544 -595 0
912 -27 0
124 -700 0
-949 -700 0
-338 0
-282 0
-362 0
600 -549 0
-526 0
852 -850 0
-710 0
-809 0
-144 998 0
-893 0
-180 -251 0
-33 0
309 -906 0
-480 0
98 -249 0
-361 0
-863 0
-941 -779 0
-279 44 0
-121 0
593 -665 0
-102 443 0
-711 710 0
714 -676 0
-856 580 0
-831 157 0
-415 380 0
-302 0
-616 -296 0
-147 0
172 -787 0
827 -737 0
-774 -700 0
122 -834 0
-410 0
-454 715 0
-538 0
-125 0
569 -381 0
-485 -426 0
977 -363 0
-339 734 0
-594 703 0
803 -234 0
-431 719 0
-814 100 0
-949 700 0
-279 23 0
-23 0
-587 182 0
75 -371 0
-456 0
-1000 -623 0
-653 468 0
-399 -310 0
-153 0
-135 657 0
-40 0
-287 -889 0
-680 0
-95 813 0
-894 0
-596 478 0
-624 729 0
-866 0
-653 -131 0
826 -325 0
-850 0
-171 0
-452 0
-376 -24 0
-666 0
-749 439 0
-509 686 0
475 -764 0
-72 16 0
-784 773 0
-945 0
762 -505 0
-152 -444 0
-113 0
-120 -933 0
-611 0
-863 0
-238 0
-765 0
404 -338 0
621 -49 0
-135 0
-734 -107 0
-466 -697 0
370 -242 0
-888 -258 0
363 -266 0
-10 -57 0
586 -149 0
-551 -730 0
-259 0
-944 306 0
964 -187 0
-191 381 0
-328 619 0
-146 0
-239 -908 0
321 -502 0
-934 0
-287 -406 0
-279 643 0
-141 0
791 -729 0
-463 0
-792 -929 0
-514 0
813 -673 0
-312 0
-422 -587 0
-110 -314 0
-40 505 0
337 -91 0
-1000 236 0
-833 0
-655 117 0
180 -497 0
-727 -171 0
-558 948 0
-709 150 0
295 -977 0
-524 855 0
-931 0
-602 -114 0
-987 0
-927 -537 0
-549 0
-61 467 0
-596 0
-541 -458 0
449 -886 0
-853 271 0
177 -754 0
-449 0
-677 0
-467 0
-49 0
-814 0
-736 0
-168 0
-810 903 0
-448 447 0
-42 0
432 -868 0
-946 0
80 -25 0
-709 516 0
-725 0
-860 214 0
-461 0
-716 503 0
-569 0
-958 -756 0
-830 910 0
-591 0
-51 0
-248 293 0
-992 0
875 -411 0
-360 -397 0
-782 799 0
466 -281 0
-715 0
946 -142 0
741 -907 0
-407 -20 0
-182 565 0
-720 0
-203 -681 0
88 -284 0
-99 0
-934 0
-108 309 0
-164 -99 0
96 -837 0
-93 5 0
-823 0
-887 578 0
-163 0
-193 0
-53 0
-566 564 0
424 -853 0
-395 -593 0
-935 -199 0
-567 0
-572 -546 0
234 -314 0
-636 0
642 -387 0
-578 0
817 -993 0
-111 0
-463 0
-776 0
-480 0
987 -196 0
814 -170 0
-222 -786 0
-304 -36 0
-792 477 0
-24 542 0
529 -277 0
225 -247 0
281 -851 0
-527 692 0
871 -729 0
256 -960 0
-651 743 0
-646 765 0
138 -422 0
-183 0
-72 700 0
355 -586 0
-249 0
-735 -107 0
-541 0
-854 635 0
-232 -866 0
-222 -557 0
-73 0
-704 -865 0
-558 0
-768 867 0
-632 0
-296 0
-197 564 0
-885 0
-185 0
-202 0
-415 -22 0
-247 191 0
-939 0
-440 -13 0
-674 0
-588 0
-604 0
-288 0
-782 0
-124 0
-110 676 0
-416 53 0
601 -67 0
-100 0
-406 -357 0
-768 567 0
-682 0
97 -617 0
-875 0
-831 795 0
228 -507 0
-212 -913 0
-526 550 0
-84 92 0
281 -97 0
-393 0
-108 61 0
-504 0
601 -124 0
983 -393 0
-204 -737 0
-20 -753 0
-333 -634 0
-254 0
245 -457 0
-930 -634 0
-694 0
-902 0
-389 0
-667 0
-616 194 0
-748 0
-367 -122 0
129 -102 0
-440 -262 0
-769 335 0
-77 0
-380 524 0
-653 -521 0
-491 0
-791 991 0
730 -707 0
-660 0
-600 -594 0
-80 663 0
650 -292 0
-775 0
602 -197 0
-964 0
-531 0
-669 676 0
-1000 -231 0
-120 -870 0
-735 -14 0
586 -949 0
-798 5 0
-165 0
-674 0
905 -809 0
-648 714 0
401 -693 0
-638 870 0
-854 693 0
-79 772 0
-95 799 0
-597 -573 0
-232 467 0
-990 -205 0
-755 0
-486 -790 0
-836 0
-195 0
-530 559 0
158 -945 0
989 -137 0
-592 -15 0
-863 0
-536 -706 0
561 -419 0
-601 0
363 -290 0
627 -699 0
105 -958 0
-529 0
-426 0
-63 674 0
-475 527 0
-517 0
152 -362 0
-627 0
-503 0
-84 -553 0
-293 -41 0
-165 0
380 -179 0
-774 462 0
856 -451 0
-688 -822 0
-693 -244 0
528 -219 0
3 -884 0
-22 -67 0
976 -796 0
702 -153 0
-325 0
-1 0
-584 0
-712 0
461 -602 0
-427 0
-842 -249 0
-800 807 0
-478 -313 0
-722 0
-301 0
-622 259 0
-646 0
-124 0
-574 0
-384 0
-883 -178 0
-526 0
-904 -286 0
724 -674 0
-115 0
-841 0
-249 0
466 -894 0
-403 -139 0
342 -258 0
-469 0
-751 298 0
-495 918 0
-918 531 0
-80 604 0
468 -35 0
994 -481 0
-529 0
-852 237 0
-736 -742 0
-583 207 0
-224 -196 0
-879 0
-963 0
-933 0
-408 -676 0
345 -565 0
818 -850 0
-580 29 0
323 -420 0
-358 -281 0
-896 -466 0
-881 0
-831 563 0
706 -4 0
-48 -813 0
121 -290 0
-26 0
-273 0
-846 0
-478 0
-978 0
-585 0
-687 0
-28 0
-726 0
667 -403 0
833 -713 0
-109 0
129 -858 0
-980 0
-108 -290 0
-630 0
-784 255 0
-637 0
544 -317 0
435 -467 0
-134 341 0
-927 461 0
-460 543 0
-976 171 0
-812 -9 0
-695 421 0
-56 990 0
810 -653 0
-796 0
-483 0
-869 -380 0
-211 0
-978 0
-936 -431 0
-14 0
-53 884 0
-51 0
-247 0
-96 0
-716 -452 0
-725 0
-464 581 0
-273 -641 0
-180 615 0
-472 0
-266 0
-881 0
-689 0
267 -226 0
-25 0
-813 0
-461 0
-899 830 0
-708 -419 0
-274 0
-998 70 0
-731 0
-95 860 0
-872 907 0
-77 651 0
413 -298 0
-330 -393 0
-693 -45 0
-982 -332 0
-317 0
-133 0
476 -3 0
-453 0
-872 -514 0
-245 0
125 -673 0
-701 -305 0
522 -762 0
-89 0
-65 0
-989 187 0
-657 0
-156 422 0
-303 0
-956 757 0
-296 519 0
-159 -489 0
-363 437 0
-16 430 0
-867 0
-335 836 0
-328 919 0
-687 86 0
-404 988 0
-941 0
-830 -627 0
-125 0
-402 0
-398 -209 0
459 -954 0
-304 0
306 -697 0
982 -137 0
-766 -27 0
-189 84 0
-927 738 0
-679 0
-597 0
-206 -282 0
-445 429 0
-335 -397 0
-255 114 0
-382 0
-434 -402 0
170 -473 0
-358 0
-863 0
-625 0
-623 -357 0
-308 796 0
-52 -324 0
-769 -345 0
-879 0
-519 -49 0
-915 0
-514 0
-502 -986 0
738 -468 0
699 -372 0
858 -937 0
-840 -664 0
-943 709 0
-863 -665 0
-311 349 0
-866 0
-118 0
-780 0
-453 0
-106 0
-644 0
643 -260 0
-118 0
-459 0
-195 230 0
-312 413 0
-296 -573 0
-838 0
-206 151 0
-629 -65 0
-79 0
-888 662 0
-583 -374 0
-337 127 0
-60 -707 0
-695 382 0
-138 0
-875 0
-538 0
-408 0
-260 -514 0
-162 0
-953 0
250 -358 0
-503 555 0
424 -457 0
-708 247 0
-651 0
-91 -906 0
-354 0
-927 79 0
-963 0
-127 -227 0
-527 -385 0
-624 26 0
-869 599 0
-828 0
-426 -713 0
48 -720 0
-828 932 0
-459 0
328 -826 0
889 -195 0
-118 637 0
848 -583 0
-974 0
-809 0
-954 886 0
-614 0
-731 0
-55 838 0
37 -753 0
450 -697 0
-503 -222 0
-107 566 0
289 -20 0
-143 0
-625 0
-805 0
-720 -11 0
-581 0
-725 0
-391 -527 0
-239 0
-600 529 0
625 -4 0
194 -697 0
-513 0
-723 0
-929 0
-870 -164 0
-244 0
720 -783 0
-393 0
-616 0
-606 -491 0
-613 703 0
136 -918 0
974 -265 0
401 -972 0
-364 0
-118 0
-515 0
-655 167 0
-701 0
826 -581 0
816 -460 0
-558 -892 0
-932 0
-686 0
-544 -510 0
-535 -340 0
-252 0
-744 42 0
-280 586 0
-709 -146 0
712 -769 0
-216 875 0
356 -706 0
-663 0
-423 -491 0
-765 499 0
-437 -226 0
-422 100 0
-832 -975 0
-642 662 0
-538 0
743 -25 0
-276 0
-958 0
72 -57 0
-807 0
-307 0
-979 0
-524 0
-30 603 0
-320 810 0
-774 0
234 -651 0
-40 0
-583 682 0
-815 251 0
-799 718 0
-960 0
-931 -779 0
-391 892 0
915 -921 0
-264 705 0
-47 454 0
-347 0
-698 -802 0
-216 -118 0
763 -322 0
-676 -579 0
-959 -439 0
-182 0
-596 0
-990 173 0
-265 0
-734 0
-301 -28 0
472 -602 0
-165 702 0
-104 -156 0
-570 0
-701 955 0
-671 71 0
-120 0
248 -772 0
-518 -897 0
-296 495 0
-264 0
-75 0
-190 715 0
272 -693 0
-527 0
154 -526 0
-629 -337 0
-583 -657 0
-973 0
-365 0
-557 525 0
-421 925 0
-224 -320 0
20 -609 0
-813 0
-953 0
-534 -501 0
-965 -443 0
-249 0
-767 0
-294 -108 0
-37 580 0
-351 0
-509 0
-548 335 0
-960 683 0
276 -17 0
-605 517 0
-506 0
-52 0
-361 0
-653 -601 0
-187 0
-662 883 0
-407 0
-459 902 0
-76 -473 0
-701 -564 0
-517 0
386 -317 0
-318 0
-119 -487 0
-263 0
-732 0
-266 0
-375 0
-160 986 0
-334 -756 0
-324 0
-369 0
-294 0
-20 0
736 -82 0
-774 -374 0
-795 0
1 -47 0
-199 0
292 -163 0
-309 -604 0
-728 918 0
-488 0
-102 78 0
930 -643 0
-793 0
-822 812 0
-862 0
-269 0
-872 0
417 -892 0
-395 -627 0
949 -610 0
-366 0
-375 0
-552 755 0
-974 309 0
859 -569 0
-966 0
-236 -33 0
-757 -228 0
-306 903 0
-837 0
-157 204 0
-146 0
-460 0
-861 0
-523 0
-884 0
-924 0
-543 436 0
-812 0
-125 -449 0
416 -741 0
-749 0
-947 0
-877 183 0
291 -66 0
-183 0
570 -878 0
619 -629 0
-334 261 0
-27 0
-27 0
-236 0
-545 0
-567 0
-590 878 0
-976 337 0
-744 0
131 -10 0
-957 0
-885 341 0
-448 -19 0
-462 0
365 -610 0
-135 0
264 -471 0
-367 572 0
-160 434 0
-813 807 0
-301 0
40 -322 0
-533 734 0
704 -925 0
-869 0
681 -119 0
-8 -682 0
-464 0
-384 -5 0
-831 0
-254 0
-400 846 0
-888 799 0
-312 0
-593 -905 0
-566 405 0
-148 142 0
234 -147 0
-548 -442 0
-646 0
221 -170 0
-932 469 0
854 -241 0
-652 -635 0
-152 68 0
-207 -996 0
-893 287 0
-743 667 0
97 -174 0
-604 0
32 -298 0
-366 -620 0
-78 -93 0
-413 0
89 -310 0
-673 0
-837 0
-452 0
-923 53 0
-471 -654 0
-592 236 0
910 -705 0
-512 0
-395 0
-118 0
-107 -505 0
-884 0
-656 691 0
-872 63 0
-270 780 0
-425 0
673 -835 0
961 -363 0
-221 182 0
-190 -443 0
43 -298 0
-30 54 0
-659 -162 0
-701 692 0
-741 -317 0
-463 -451 0
-967 910 0
-406 0
-356 0
-976 687 0
-275 0
-302 -547 0
-294 -685 0
-111 0
-760 0
-30 -397 0
-200 0
-523 0
-32 818 0
417 -822 0
-725 717 0
-991 -572 0
944 -939 0
-656 0
-189 0
336 -760 0
-649 0
-830 476 0
-663 0
-701 -185 0
-218 -217 0
-80 847 0
425 -813 0
168 -6 0
-927 426 0
-485 0
-430 14 0
-658 0
-295 390 0
525 -697 0
-59 0
-922 -401 0
-798 301 0
-384 -372 0
-930 0
-583 230 0
-947 893 0
-371 287 0
-447 -875 0
-151 983 0
-218 0
-335 -681 0
-877 -397 0
-849 0
725 -697 0
-600 323 0
-447 0
-88 582 0
-455 0
-555 0
-566 0
-460 125 0
-563 542 0
202 -613 0
-699 0
-216 -403 0
925 -474 0
-445 -941 0
-5 -28 0
-129 0
259 -963 0
-968 0
-532 0
-181 0
-244 0
-730 0
-749 -604 0
998 -193 0
608 -294 0
-55 -369 0
-38 -405 0
-160 -131 0
955 -283 0
-215 -126 0
-583 0
-6 -65 0
-344 0
41 -483 0
-888 -430 0
-122 0
-309 0
361 -876 0
-363 0
-587 0
-527 285 0
-821 0
-296 -622 0
-216 214 0
-685 -665 0
-756 -875 0
741 -385 0
20 -457 0
75 -300 0
-892 0
-834 0
-906 0
-360 -148 0
-664 0
-637 0
-751 692 0
-269 -556 0
-976 0
81 -524 0
-943 -210 0
669 -913 0
844 -931 0
-790 491 0
-336 -588 0
-116 0
-708 -67 0
-906 0
-311 0
-678 78 0
-632 819 0
325 -113 0
-254 0
-812 389 0
-62 0
-667 0
-469 -281 0
-647 0
609 -548 0
-597 0
-139 0
-939 95 0
-281 0
690 -932 0
-70 0
-40 -958 0
-735 778 0
-966 198 0
-262 -756 0
-423 0
-872 -739 0
-258 0
-372 0
-181 -122 0
-798 0
-242 0
-488 -83 0
-85 0
171 -508 0
-909 0
-440 -887 0
-228 486 0
827 -252 0
565 -721 0
-832 -707 0
-705 0
16 -575 0
-199 0
-76 -658 0
-727 0
-946 0
-817 0
-245 -299 0
-328 317 0
-782 -259 0
-584 333 0
-723 0
-108 -73 0
-382 -705 0
-814 748 0
-634 0
608 -671 0
-558 -587 0
-463 0
818 -579 0
-222 -137 0
-389 0
-692 701 0
-631 0
-269 101 0
-596 0
-181 0
-999 -94 0
-607 0
-171 -729 0
-775 85 0
-749 0
-740 0
-327 0
719 -129 0
-696 0
-480 879 0
129 -523 0
-118 0
-899 775 0
-276 0
-990 0
-65 0
-877 -209 0
473 -866 0
-877 -260 0
365 -555 0
-132 -217 0
-720 0
-565 0
-245 663 0
978 -141 0
-664 0
866 -739 0
296 -84 0
-832 543 0
-535 358 0
864 -332 0
-137 287 0
-800 0
-765 0
-802 0
272 -86 0
-220 0
-992 0
-182 -669 0
-127 865 0
-697 0
-975 -559 0
-437 102 0
-184 0
349 -209 0
96 -28 0
-387 -403 0
-699 207 0
-167 526 0
928 -204 0
-812 0
-80 -215 0
-469 -354 0
-420 0
-884 0
538 -236 0
57 -995 0
-578 0
-107 0
-238 445 0
784 -630 0
476 -874 0
-198 -697 0
-524 0
827 -556 0
-234 0
-142 -554 0
345 -156 0
-190 -521 0
-438 -729 0
-862 382 0
-655 0
-3 0
-919 234 0
92 -155 0
942 -257 0
-428 0
-378 0
-687 0
328 -142 0
-481 0
-659 0
-915 0
-151 0
936 -150 0
203 -652 0
-319 0
-217 0
-687 -401 0
-562 -770 0
-624 -610 0
483 -148 0
-627 0
425 -351 0
-172 0
-541 0
266 -990 0
-948 -281 0
697 -730 0
696 -232 0
-675 0
-174 917 0
-547 0
648 -559 0
576 -660 0
-314 0
-622 -138 0
906 -997 0
-703 532 0
-112 922 0
274 -753 0
-156 0
-326 0
-136 -180 0
2 -345 0
534 -905 0
-390 -633 0
-261 533 0
-958 949 0
-591 -883 0
-363 0
-162 0
-466 0
-361 0
129 -831 0
-554 0
907 -546 0
-343 0
-916 974 0
-92 62 0
-952 -821 0
-968 366 0
507 -970 0
-316 0
-57 0
281 -417 0
-546 526 0
-728 0
-140 0
-543 786 0
-781 149 0
-471 0
-79 0
-555 0
-184 0
-636 0
-907 0
640 -237 0
-358 -380 0
648 -989 0
-504 0
-580 0
-826 0
-467 0
-747 0
995 -93 0
-533 -373 0
667 -220 0
-763 -178 0
632 -370 0
-287 -749 0
-852 0
-927 0
-126 -907 0
-421 -805 0
-630 0
774 -177 0
498 -283 0
-47 -844 0
555 -941 0
712 -634 0
-584 -818 0
-341 -441 0
-567 0
-617 0
-381 -186 0
-130 431 0
-597 0
-811 0
20 -746 0
-204 -89 0
-315 0
616 -439 0
-710 0
-77 0
-978 -753 0
-364 0
-611 439 0
-854 0
-315 957 0
-637 0
-766 0
-25 951 0
-819 781 0
-272 247 0
-146 0
-247 -245 0
-53 0
-478 -996 0
808 -115 0
-178 0
-769 0
-38 -338 0
-15 -812 0
-687 46 0
-747 0
-191 0
-316 0
-664 357 0
-491 470 0
-615 938 0
105 -782 0
-595 639 0
-78 91 0
-586 -961 0
-197 155 0
-556 -675 0
-547 0
-766 6 0
-921 527 0
-809 0
145 -313 0
-666 0
-419 0
-766 742 0
-507 0
-979 0
-112 -652 0
146 -573 0
-238 0
-266 0
-301 0
192 -476 0
-970 -657 0
-240 -575 0
-296 714 0
-127 -729 0
-504 309 0
-638 0
-639 581 0
169 -19 0
-999 705 0
-195 -411 0
672 -758 0
-747 0
-45 0
-356 0
-803 0
209 -135 0
-388 0
858 -971 0
188 -914 0
-826 0
-72 0
-413 0
-568 -110 0
-948 934 0
778 -995 0
-182 733 0
-182 0
-391 0
337 -518 0
-670 927 0
-797 -836 0
854 -826 0
-589 276 0
-348 0
-604 0
273 -690 0
-903 -452 0
-59 -282 0
-923 -905 0
733 -513 0
520 -600 0
-276 0
-74 -113 0
872 -527 0
813 -594 0
-103 -302 0
-77 -145 0
814 -962 0
-718 0
-881 0
-354 0
-770 0
-112 -842 0
-372 927 0
-24 322 0
-951 -604 0
164 -361 0
-733 -172 0
-495 799 0
-576 367 0
-401 0
-568 575 0
448 -30 0
-167 -463 0
722 -331 0
-279 0
-158 0
-245 -365 0
-333 0
-345 -193 0
52 -922 0
-663 -869 0
-7 262 0
-743 -786 0
-292 476 0
-725 0
-194 0
-412 309 0
-679 331 0
-814 431 0
-150 436 0
-80 -922 0
810 -17 0
-107 -2 0
-304 0
-412 141 0
-128 622 0
-392 42 0
-71 155 0
-632 -186 0
-773 -242 0
-390 939 0
722 -466 0
-480 0
-745 0
-855 0
-612 0
-77 0
-808 794 0
-24 0
224 -999 0
-566 459 0
-764 863 0
-787 0
596 -161 0
25 -241 0
-272 448 0
-877 -317 0
-35 0
435 -692 0
-265 -273 0
-659 447 0
-30 0
-876 -802 0
-394 0
121 -789 0
-383 -507 0
-271 292 0
-224 685 0
-542 900 0
-488 0
-703 0
-632 0
284 -138 0
-347 -371 0
-144 -33 0
-901 71 0
-130 0
-598 0
210 -661 0
372 -746 0
-398 0
709 -906 0
-521 0
-173 454 0
686 -1 0
-762 503 0
-814 915 0
-383 106 0
-911 -321 0
-288 442 0
-588 0
204 -338 0
-478 396 0
-766 268 0
501 -722 0
-947 0
-432 0
301 -587 0
-675 14 0
-474 0
-514 0
-477 147 0
-360 -612 0
-17 0
442 -51 0
-847 21 0
-244 973 0
-872 0
-319 946 0
-725 779 0
-71 0
-102 -345 0
124 -202 0
-749 0
-523 0
-340 92 0
-327 0
-989 0
-598 -174 0
-46 -610 0
433 -461 0
89 -982 0
366 -658 0
-704 -545 0
-582 -462 0
-57 0
-982 -932 0
-122 0
134 -97 0
508 -738 0
-671 233 0
-74 439 0
-256 0
907 -579 0
-357 -780 0
-871 0
-784 0
-478 -22 0
-802 0
-910 0
-161 0
-438 260 0
-871 966 0
-630 -612 0
-183 338 0
-475 0
-78 830 0
-443 0
-827 0
-502 0
-195 0
-612 0
-374 -932 0
202 -154 0
-989 -876 0
-755 781 0
-822 0
-260 0
-88 -204 0
-462 0
-166 0
-57 0
-932 -179 0
507 -788 0
-848 69 0
-943 0
-48 601 0
-663 -4 0
-462 0
-167 -222 0
-421 0
-437 0
-939 0
153 -236 0
-756 -27 0
-166 0
320 -833 0
-22 -401 0
-99 0
-54 -930 0
-392 0
-937 0
-545 -697 0
-467 -178 0
378 -505 0
-637 0
-566 972 0
-315 0
-696 0
-469 0
-730 0
-948 783 0
-953 0
-875 0
693 -793 0
-57 0
-823 0
-586 0
265 -738 0
80 -135 0
-495 0
-195 0
-133 -465 0
-413 0
-319 178 0
868 -867 0
-839 -345 0
-10 0
-935 942 0
-51 0
-431 0
-924 -387 0
792 -392 0
-886 0
-105 0
-378 0
461 -554 0
-966 -969 0
-866 -633 0
684 -539 0
-554 0
-542 659 0
-677 0
-246 0
177 -300 0
-964 0
-573 0
-977 0
353 -454 0
345 -415 0
873 -153 0
-854 0
-566 -894 0
-373 0
41 -35 0
-248 0
-854 998 0
-247 69 0
-283 0
-418 0
-846 106 0
-521 0
-815 0
-879 762 0
-720 0
-115 0
-864 -602 0
67 -378 0
-684 0
-845 0
-254 0
-178 0
-227 0
-665 0
101 -355 0
-259 446 0
-449 127 0
821 -163 0
-470 0
80 -642 0
-472 0
-304 -668 0
-783 0
-990 478 0
-233 0
-995 -363 0
-382 195 0
81 -65 0
-94 267 0
-263 0
-503 75 0
-723 0
-466 0
-104 0
-101 0
-482 991 0
-816 0
480 -65 0
-460 0
-843 0
-182 0
-153 0
-114 207 0
-437 702 0
-86 0
-228 0
-104 207 0
621 -177 0
-890 0
-760 -983 0
-568 527 0
704 -65 0
-479 0
-740 0
792 -838 0
-868 52 0
770 -604 0
-888 -645 0
-520 711 0
-274 -506 0
309 -777 0
67 -675 0
-640 -516 0
-951 -20 0
-157 -44 0
-261 807 0
881 -285 0
521 -23 0
-572 0
-791 -530 0
-451 541 0
-379 534 0
-393 0
-872 -79 0
900 -835 0
-875 0
-613 0
-812 0
-602 0
-421 0
-852 999 0
-798 0
-675 -249 0
-494 0
-780 0
-691 0
-190 0
-457 0
219 -273 0
-301 0
-992 0
-890 0
-873 -361 0
-483 0
-399 -99 0
-460 -931 0
-360 -606 0
698 -177 0
-94 711 0
-113 0
-824 180 0
-437 -461 0
-866 0
-123 735 0
-856 370 0
-688 836 0
-543 -690 0
986 -340 0
-754 0
-868 0
-963 0
-269 0
-711 -502 0
-476 366 0
-766 0
-102 0
497 -49 0
-32 0
-198 668 0
-462 0
-583 626 0
834 -923 0
-532 0
-590 -811 0
-584 626 0
-650 0
-992 228 0
-872 43 0
-960 0
-71 -723 0
-661 -412 0
-791 0
-525 171 0
-671 0
-246 423 0
-117 228 0
-702 235 0
-24 -787 0
-645 0
-82 0
-839 -452 0
884 -98 0
154 -981 0
-853 -708 0
889 -365 0
937 -214 0
304 -747 0
-830 0
-722 0
-176 0
-989 0
-655 619 0
-480 -36 0
-533 -108 0
-462 751 0
-704 142 0
-117 0
-433 0
-457 0
833 -277 0
-290 0
-831 0
-444 0
-828 0
-754 0
-866 -393 0
475 -739 0
-312 240 0
-842 -986 0
-893 0
-395 0
-567 0
-101 -571 0
-525 405 0
-395 0
-717 0
-359 -294 0
-684 0
-162 0
-596 -299 0
-457 0
657 -867 0
-826 0
-538 503 0
-847 46 0
-677 0
-288 0
-855 -809 0
-678 0
85 -962 0
-28 548 0
-228 0
-560 0
587 -573 0
-250 0
-663 727 0
624 -647 0
-881 0
-104 0
-908 572 0
169 -460 0
-180 -610 0
-246 891 0
-209 0
-423 991 0
938 -697 0
-96 713 0
198 -154 0
-295 -978 0
-808 0
-682 0
363 -187 0
841 -537 0
-479 0
-821 877 0
-598 0
117 -739 0
-63 884 0
-631 687 0
-340 0
-752 660 0
-932 -761 0
-101 -747 0
-397 0
-722 0
-319 0
-149 0
-935 -89 0
-932 669 0
-638 646 0
-423 -497 0
220 -739 0
-856 235 0
-62 0
-798 -42 0
-112 457 0
-417 0
-431 815 0
-479 -978 0
-376 -615 0
-751 715 0
-544 -930 0
229 -978 0
-112 866 0
841 -806 0
-660 -522 0
757 -474 0
-863 0
-663 0
169 -932 0
520 -572 0
-426 0
-526 0
-395 -971 0
-988 -273 0
-759 0
-455 0
-723 -434 0
-887 989 0
-652 0
401 -797 0
297 -436 0
607 -585 0
292 -994 0
194 -481 0
-414 0
-82 0
-474 0
-63 0
328 -767 0
-507 0
-251 0
513 -743 0
817 -225 0
-727 -209 0
-664 461 0
-104 -692 0
784 -215 0
-387 0
927 -489 0
-261 0
-342 -331 0
-998 -366 0
-758 -20 0
-74 0
-334 -721 0
938 -660 0
-31 -442 0
190 -857 0
-496 651 0
-391 0
-975 327 0
-281 0
-776 0
-82 0
-179 -883 0
496 -506 0
-906 -393 0
-637 -738 0
-162 0
690 -388 0
-95 0
-984 544 0
-133 0
-537 -17 0
-535 -10 0
-763 0
-307 0
-448 -778 0
-432 -232 0
-296 823 0
-651 -674 0
-362 0
-397 726 0
43 -538 0
-582 -513 0
-533 -604 0
781 -114 0
-785 0
-678 -747 0
-470 0
-246 0
-181 -642 0
-41 0
512 -141 0
241 -122 0
-317 0
-552 0
712 -193 0
-240 0
827 -2 0
-759 602 0
-316 0
-744 334 0
354 -821 0
-182 0
755 -938 0
-182 0
-964 934 0
-34 895 0
-952 954 0
-623 -338 0
-592 845 0
-310 0
-440 482 0
-598 92 0
691 -755 0
-145 0
-23 0
-413 -922 0
-101 0
833 -814 0
-604 0
425 -994 0
-308 0
893 -633 0
-258 0
-918 -851 0
-712 0
-995 0
-464 -456 0
-892 -946 0
-443 502 0
-64 0
-75 0
-909 302 0
424 -100 0
-791 0
-284 0
-299 -361 0
-15 -325 0
-656 0
-845 -412 0
-543 0
-750 588 0
321 -188 0
25 -494 0
-560 -735 0
-406 0
-294 -949 0
-342 -741 0
312 -969 0
-238 467 0
120 -699 0
-26 0
-805 591 0
-318 754 0
-740 0
889 -516 0
-607 414 0
-16 0
-805 0
-840 0
-823 891 0
650 -669 0
354 -797 0
-430 -373 0
992 -169 0
484 -658 0
-943 861 0
-205 0
-24 -631 0
-322 0
-652 -657 0
-816 254 0
-142 0
523 -562 0
-943 67 0
-667 0
-424 -652 0
365 -273 0
97 -182 0
-710 751 0
-746 -313 0
344 -911 0
-767 895 0
849 -534 0
-519 -141 0
-45 407 0
-306 0
-721 0
-320 -308 0
-462 0
126 -754 0
-801 0
-760 598 0
602 -196 0
-168 -745 0
-514 0
-277 0
-536 -148 0
801 -769 0
667 -66 0
-848 -932 0
-672 545 0
-784 0
721 -513 0
113 -821 0
973 -633 0
-263 0
-681 0
323 -9 0
-243 263 0
-378 0
-943 115 0
-118 -638 0
-606 0
760 -539 0
-366 861 0
-925 0
-567 -882 0
-546 0
-722 0
-263 972 0
-16 0
883 -609 0
-690 0
-432 328 0
915 -651 0
-108 0
996 -994 0
-999 435 0
-421 0
-860 205 0
-849 0
-287 52 0
-551 0
-427 0
-551 -149 0
620 -75 0
-594 590 0
-913 0
-783 0
283 -49 0
-904 125 0
-150 486 0
-303 0
-657 0
-40 998 0
-839 351 0
-815 0
-215 0
304 -805 0
-128 0
-376 0
-962 0
18 -345 0
501 -83 0
-782 0
-999 0
-783 249 0
-546 0
-809 0
-473 0
330 -177 0
-408 319 0
154 -308 0
-852 652 0
161 -309 0
-465 0
165 -682 0
-745 0
-556 0
-730 0
-476 0
-69 0
942 -722 0
657 -172 0
-106 343 0
-864 -961 0
65 -842 0
-981 0
-896 -891 0
-872 0
965 -746 0
-536 0
893 -331 0
-296 -915 0
-135 540 0
719 -929 0
-316 0
-180 471 0
-755 0
-864 0
-584 0
-804 268 0
-542 0
315 -569 0
-248 328 0
-455 331 0
408 -843 0
457 -997 0
-230 -601 0
-646 0
-82 0
-45 -754 0
-34 367 0
-772 0
-358 461 0
-476 -665 0
-26 0
-596 0
-679 710 0
-444 -226 0
-760 -387 0
-452 0
-954 -994 0
162 -300 0
-449 0
-271 0
193 -980 0
-756 0
307 -933 0
-321 0
-622 -474 0
-200 733 0
114 -836 0
-378 0
-687 0
321 -516 0
937 -781 0
-146 0
-72 -172 0
-306 0
-196 0
-607 0
-551 -862 0
-642 0
499 -573 0
-720 -365 0
-644 663 0
-555 -802 0
-83 0
18 -891 0
-631 563 0
-626 0
345 -227 0
-528 762 0
-639 -769 0
-141 0
-450 0
-6 -53 0
-739 0
721 -597 0
-614 507 0
-962 0
742 -881 0
-351 807 0
-181 788 0
-653 996 0
289 -329 0
568 -520 0
-104 -958 0
-448 -190 0
-272 0
457 -314 0
147 -805 0
-365 0
-766 0
-556 0
172 -867 0
-162 -650 0
-669 -81 0
-425 0
373 -419 0
-899 0
-133 0
-694 -21 0
898 -414 0
-739 366 0
-920 -330 0
-800 987 0
-120 751 0
-398 630 0
-800 0
-542 319 0
-772 -699 0
-724 0
-246 0
-611 0
-656 186 0
-592 687 0
-509 29 0
629 -203 0
168 -516 0
-206 291 0
-603 -506 0
-373 0
-296 0
-539 0
-502 0
82 -954 0
-694 0
-678 -252 0
-620 366 0
840 -921 0
-788 0
-852 0
-90 0
-65 0
98 -363 0
-127 -364 0
-76 0
-318 0
-173 -882 0
-664 -175 0
-862 818 0
-566 -429 0
-7 0
337 -757 0
723 -884 0
-607 0
-360 0
-461 852 0
97 -349 0
104 -515 0
-320 -629 0
-972 0
-73 0
-931 822 0
-282 0
896 -981 0
-770 535 0
-475 0
501 -475 0
-342 0
-912 0
-624 92 0
-718 -532 0
355 -163 0
392 -255 0
-950 0
-312 0
-287 701 0
-168 573 0
-538 0
-384 97 0
-676 0
-558 788 0
-584 0
-677 -441 0
-773 0
803 -459 0
-206 -771 0
363 -17 0
459 -692 0
-961 0
-378 0
264 -329 0
-235 0
457 -815 0
-21 78 0
-270 0
-257 0
-389 0
-771 -170 0
-259 0
-319 -561 0
-824 0
-400 -533 0
131 -698 0
-447 -805 0
-424 0
-951 0
-509 0
-23 -636 0
547 -410 0
-316 0
-98 0
-787 0
-846 348 0
-494 0
-757 0
-30 0
-816 790 0
-144 459 0
952 -364 0
-944 -129 0
-772 0
-566 -698 0
-952 274 0
-884 0
534 -409 0
-146 487 0
-48 975 0
-953 0
546 -107 0
-836 0
-206 0
-163 -945 0
24 -610 0
-671 0
-712 904 0
-171 0
-79 -339 0
674 -881 0
-734 861 0
532 -361 0
-256 -135 0
915 -26 0
-100 -698 0
-964 0
-800 547 0
-813 0
965 -81 0
-266 0
-184 -502 0
-644 0
-341 0
219 -434 0
-779 0
-736 -653 0
725 -258 0
-303 0
-614 477 0
-15 -427 0
-980 0
460 -738 0
-3 0
-459 0
-1000 430 0
-460 -449 0
634 -121 0
-23 930 0
-283 -930 0
-277 -314 0
608 -450 0
-482 703 0
-75 0
-524 0
-692 0
-687 -518 0
-469 0
-928 934 0
352 -284 0
-183 -60 0
-575 -825 0
-341 -882 0
-572 0
843 -545 0
-742 863 0
-11 0
-843 0
281 -347 0
-861 0
-58 0
-879 470 0
-383 975 0
-77 0
616 -320 0
-911 0
-888 -947 0
177 -301 0
-139 463 0
-375 -890 0
-342 -194 0
-304 0
18 -957 0
-854 813 0
-850 -642 0
-991 0
746 -414 0
-852 -123 0
386 -348 0
606 -194 0
-38 0
761 -159 0
746 -322 0
-959 0
-944 0
568 -625 0
289 -882 0
800 -6 0
-421 -217 0
775 -457 0
-692 821 0
-514 0
-606 429 0
-796 998 0
-467 -906 0
341 -394 0
-747 702 0
488 -401 0
-824 728 0
-111 796 0
-358 0
913 -177 0
-127 669 0
-383 0
-623 -202 0
-232 0
-208 964 0
447 -921 0
-904 -978 0
-125 677 0
-225 0
-86 0
544 -82 0
156 -130 0
872 -440 0
-764 0
-362 0
-904 0
-67 0
-223 -237 0
-109 0
-154 0
-19 -49 0
721 -548 0
-783 0
-315 0
-413 0
-79 -20 0
-333 0
-369 143 0
-56 0
-597 -124 0
-113 0
-112 -634 0
-886 -142 0
-904 0
-173 795 0
-231 0
-372 -684 0
-312 722 0
-414 -156 0
723 -196 0
-531 0
-36 0
221 -905 0
754 -102 0
-864 678 0
-275 0
-615 0
-822 -212 0
-63 0
-871 0
-295 0
49 -821 0
-845 0
-48 0
-39 -110 0
-376 199 0
-116 0
-677 319 0
-155 0
-671 -23 0
738 -666 0
889 -389 0
-872 -249 0
-51 454 0
-989 0
-36 366 0
-450 0
-212 77 0
13 -434 0
757 -75 0
-804 -172 0
-999 -241 0
-122 0
-274 0
-756 -770 0
-200 0
-917 0
-189 724 0
-701 0
-460 -753 0
-808 -493 0
67 -945 0
-477 567 0
-179 0
-924 0
-141 0
970 -28 0
-538 0
-732 -306 0
-774 -930 0
-876 0
-907 0
-450 0
-927 59 0
-355 0
764 -219 0
-664 87 0
-325 0
-64 -374 0
-651 0
-542 898 0
-262 125 0
-711 0
-1000 533 0
130 -244 0
229 -683 0
-629 252 0
-448 458 0
545 -787 0
-264 0
-901 -916 0
-579 0
-293 0
-151 714 0
658 -534 0
205 -234 0
-575 850 0
-463 182 0
-174 0
-536 -864 0
-272 0
-621 716 0
-364 239 0
-536 -529 0
-792 0
-59 0
-806 0
-305 0
242 -652 0
-810 -201 0
-692 950 0
-21 941 0
-653 -948 0
-224 0
-772 0
-421 0
100 -716 0
49 -446 0
956 -964 0
-63 -395 0
-439 0
98 -766 0
-677 0
-459 0
-349 0
489 -778 0
-208 0
-543 0
-487 -396 0
-422 -932 0
-267 0
-974 246 0
858 -947 0
-908 253 0
-267 0
-767 0
-66 0
-727 0
690 -270 0
-77 -634 0
-11 0
-559 0
-527 183 0
-622 567 0
-821 0
-715 0
-570 0
-439 0
-838 239 0
-638 -385 0
-153 -361 0
-987 119 0
-96 89 0
-133 597 0
-955 0
384 -343 0
-300 0
-868 0
-214 0
-960 0
-722 -610 0
339 -89 0
-459 511 0
990 -865 0
-519 0
849 -77 0
-971 967 0
-224 -288 0
-371 495 0
265 -841 0
-566 -890 0
-979 0
-36 -620 0
330 -245 0
-586 0
-209 -81 0
-104 -160 0
466 -106 0
-559 0
804 -953 0
498 -861 0
-712 -552 0
194 -29 0
-402 0
-614 727 0
-883 0
-702 0
191 -721 0
-253 0
218 -763 0
-929 0
-340 967 0
-603 0
-71 0
417 -526 0
-591 473 0
-992 601 0
-259 -131 0
-739 0
25 -18 0
-146 0
-135 -276 0
-140 0
-824 366 0
-311 0
-310 0
-34 0
537 -139 0
-536 -820 0
-899 -714 0
-858 0
-253 0
420 -732 0
-732 0
-1 0
-671 0
-492 0
92 -434 0
-886 0
-641 0
-521 0
-638 366 0
-17 0
-515 735 0
-65 0
388 -571 0
-983 54 0
-321 0
-766 636 0
-866 543 0
-24 642 0
-376 -453 0
-535 821 0
106 -121 0
-762 0
-74 0
-816 -327 0
175 -825 0
812 -658 0
-605 0
-852 0
-329 0
-527 341 0
-61 -939 0
-782 487 0
-31 879 0
-918 0
-431 530 0
-800 -658 0
-662 -513 0
-8 0
426 -618 0
-278 0
-93 0
-536 0
-223 0
-817 0
-535 -126 0
-203 0
-348 0
-530 0
-64 0
-459 0
-767 0
120 -678 0
840 -615 0
-230 0
-490 0
-716 0
-581 0
-587 0
568 -893 0
-824 466 0
536 -197 0
-879 -663 0
-335 806 0
-742 0
-794 0
-573 732 0
-821 -363 0
-442 0
-596 133 0
-535 975 0
-518 0
-516 0
-187 0
-165 0
-928 0
296 -778 0
-616 882 0
-148 383 0
-155 -443 0
-454 0
-456 0
-141 -291 0
-208 204 0
-325 629 0
-686 -307 0
-331 -426 0
-662 0
-958 0
-639 -211 0
-39 -362 0
-843 -714 0
-69 0
-598 0
-80 956 0
-704 0
-350 -981 0
-985 0
-231 -964 0
265 -206 0
960 -476 0
-106 0
-824 -101 0
-460 319 0
-480 -262 0
-436 86 0
-58 0
-90 0
-463 959 0
-962 -761 0
67 -51 0
-787 0
-563 0
-757 0
-452 0
36 -939 0
-476 0
-948 0
505 -741 0
257 -353 0
-485 0
-845 0
-272 -501 0
-592 0
-338 0
-990 -825 0
-680 -634 0
418 -273 0
667 -730 0
-310 -309 0
330 -756 0
-108 0
-300 0
-795 -882 0
-410 0
-67 0
-599 302 0
-886 0
-581 -156 0
764 -25 0
-805 764 0
-260 0
8 -732 0
211 -945 0
-576 26 0
-24 253 0
-494 655 0
873 -123 0
-383 -7 0
-472 -778 0
-675 0
-901 196 0
-501 0
521 -527 0
810 -81 0
-978 0
-86 0
-583 -179 0
-360 0
-419 0
-276 70 0
-487 0
920 -770 0
-592 -975 0
-556 -620 0
-703 0
-375 0
-236 837 0
-788 0
131 -450 0
-259 0
-475 -377 0
-918 676 0
-526 -715 0
-346 0
-669 0
-776 0
-64 0
-396 325 0
892 -649 0
-319 -670 0
937 -450 0
514 -409 0
-606 0
-341 -466 0
-978 0
-701 0
-768 -489 0
-275 285 0
-898 0
609 -571 0
-708 0
978 -702 0
-55 -11 0
-52 0
697 -2 0
-775 0
-710 -323 0
-875 0
-810 527 0
-187 454 0
-798 0
897 -905 0
-13 -113 0
622 -482 0
-13 919 0
-887 -962 0
-268 0
-468 0
-440 -973 0
-280 284 0
869 -387 0
-652 0
622 -785 0
-328 -684 0
-844 0
-519 0
-336 -957 0
-705 0
-111 355 0
202 -451 0
850 -978 0
-324 655 0
-151 190 0
-477 173 0
-859 0
-291 -962 0
-445 5 0
-575 -732 0
186 -213 0
-310 -345 0
544 -481 0
-192 -523 0
824 -492 0
672 -992 0
-675 799 0
-807 0
-266 0
-70 -750 0
1 -635 0
-620 0
-647 0
667 -763 0
859 -691 0
-600 551 0
128 -445 0
-204 895 0
415 -617 0
-830 0
-634 0
-714 0
-198 0
-269 0
-890 0
250 -237 0
-803 0
-610 0
-639 602 0
539 -90 0
472 -686 0
-159 0
-720 0
-550 763 0
88 -644 0
-16 575 0
-924 0
-661 0
164 -707 0
-296 -81 0
-903 132 0
-254 476 0
-227 -33 0
-811 351 0
-239 0
858 -885 0
-663 0
-748 0
249 -844 0
-996 -154 0
-184 28 0
-344 0
577 -333 0
-245 0
-668 -489 0
473 -661 0
-148 655 0
-568 0
404 -692 0
280 -505 0
-392 0
-440 247 0
-686 956 0
-222 0
-447 36 0
-930 0
-491 -810 0
818 -565 0
-621 996 0
-38 0
984 -802 0
-342 556 0
508 -476 0
-444 950 0
-551 0
-847 -841 0
-927 0
-381 0
-103 929 0
-369 0
-726 -30 0
617 -966 0
412 -897 0
-363 0
-647 -854 0
-591 790 0
-607 -557 0
-295 702 0
-540 0
906 -873 0
-168 -313 0
-635 -75 0
-439 -31 0
-229 942 0
-514 -137 0
-295 0
-673 0
-638 0
-448 -65 0
-629 -620 0
-171 -994 0
850 -805 0
-631 0
-186 0
-880 0
-134 0
400 -626 0
-350 -972 0
-864 -137 0
-455 0
-516 0
-440 0
110 -793 0
-199 390 0
962 -958 0
962 -914 0
-257 0
748 -627 0
288 -845 0
882 -673 0
-882 0
-318 0
-358 0
-768 -993 0
-728 0
-286 -140 0
-517 -53 0
-1 0
691 -661 0
-40 -173 0
-804 -706 0
614 -250 0
342 -577 0
-269 279 0
-622 -707 0
-185 0
-65 0
-878 -285 0
-339 0
681 -574 0
-208 301 0
-727 445 0
-151 0
-492 0
616 -581 0
-79 0
274 -860 0
-592 369 0
-507 0
-722 0
-296 0
-231 206 0
-790 0
-846 370 0
-5 782 0
-512 0
-485 0
-4 820 0
168 -361 0
-907 638 0
-926 -941 0
-786 271 0
-591 0
-211 -914 0
-239 36 0
-106 -681 0
-718 -417 0
758 -497 0
-683 982 0
627 -66 0
-303 0
-360 661 0
-649 0
-661 -362 0
-805 0
535 -721 0
-896 -687 0
-992 -406 0
233 -34 0
-9 0
48 -673 0
524 -105 0
-793 0
-602 0
-102 -259 0
-350 0
-811 207 0
321 -274 0
-975 188 0
-648 0
-180 -667 0
-434 0
-404 0
-805 -481 0
-741 -41 0
-936 209 0
-486 0
-568 0
200 -329 0
796 -442 0
-789 0
803 -298 0
-896 0
-685 -689 0
-992 0
-687 -180 0
-803 847 0
-143 0
-895 387 0
-542 0
-254 667 0
-684 0
-237 0
-214 0
-479 817 0
-330 -889 0
-1000 0
-852 0
-813 0
968 -738 0
-384 -275 0
251 -850 0
-625 0
-46 836 0
-142 -750 0
-353 0
-92 0
-576 -222 0
917 -154 0
-216 0
-62 -411 0
-768 0
584 -24 0
-222 0
-968 -498 0
-87 726 0
705 -364 0
254 -762 0
-399 742 0
-301 -169 0
-871 -196 0
845 -114 0
-792 77 0
-72 0
-487 0
-907 311 0
-390 0
-822 0
-909 996 0
-485 0
-745 0
88 -239 0
-120 -906 0
552 -455 0
-948 742 0
528 -389 0
-926 0
-540 0
-253 0
-971 0
-309 79 0
-728 0
-196 -602 0
168 -420 0
-134 -661 0
-786 0
-855 0
-892 -987 0
-117 -852 0
-31 0
-111 0
-7 0
-540 0
702 -401 0
722 -692 0
-134 319 0
-356 0
-516 495 0
-791 907 0
-515 989 0
-612 0
-652 -529 0
-703 -459 0
-20 -66 0
-623 0
-972 894 0
545 -822 0
-328 -315 0
-854 -925 0
600 -630 0
-393 751 0
72 -821 0
-62 291 0
-351 0
-794 0
89 -818 0
-251 0
161 -238 0
-234 0
-115 0
-185 0
-115 23 0
-334 0
978 -398 0
-936 434 0
-656 -212 0
-289 0
-418 0
-204 -186 0
-180 -194 0
-863 292 0
553 -173 0
-759 -25 0
-981 0
-208 0
225 -25 0
250 -325 0
-974 0
-844 0
-370 -841 0
288 -908 0
-79 46 0
316 -762 0
66 -156 0
518 -49 0
304 -526 0
401 -562 0
-672 -427 0
825 -791 0
58 -965 0
-679 -78 0
561 -313 0
-665 0
-744 0
798 -321 0
-617 -913 0
-452 0
-866 0
-4 989 0
736 -499 0
-568 -653 0
-979 574 0
-71 0
-792 0
-440 0
828 -834 0
624 -157 0
-454 0
245 -970 0
986 -123 0
-925 -292 0
-300 0
284 -699 0
-998 654 0
-311 0
-449 0
-963 0
817 -345 0
-785 0
-12 0
-964 0
-356 0
-175 0
11 -181 0
-926 61 0
710 -986 0
-164 0
-845 -505 0
-792 0
-596 0
945 -254 0
-980 0
-791 -347 0
797 -962 0
571 -580 0
-257 0
-278 0
-231 0
-597 0
204 -692 0
-56 0
-630 -35 0
608 -998 0
304 -593 0
-883 -561 0
-247 -786 0
-140 -690 0
-139 887 0
-160 0
-842 0
-784 542 0
-810 0
-852 0
-104 -247 0
-608 0
709 -481 0
-367 -350 0
-572 494 0
-804 0
-312 0
-455 0
970 -642 0
-879 42 0
-944 221 0
959 -913 0
-150 -891 0
728 -266 0
-908 0
-135 -441 0
-493 444 0
-184 0
-971 957 0
502 -73 0
-164 0
-642 166 0
803 -75 0
-993 0
-783 -603 0
-292 -91 0
-618 0
-580 0
-114 0
-866 0
-723 0
-878 -227 0
-602 590 0
644 -777 0
764 -689 0
-844 -523 0
725 -362 0
-56 0
-551 830 0
-331 -777 0
-580 -986 0
-735 -777 0
-577 0
289 -941 0
401 -700 0
-396 0
-754 0
816 -916 0
-10 0
-679 -463 0
-111 0
-488 886 0
-816 0
-134 -30 0
-483 0
-133 -779 0
833 -771 0
-891 0
-758 0
970 -747 0
184 -122 0
-708 -138 0
-900 0
-200 993 0
-664 0
489 -443 0
960 -338 0
-525 -441 0
-157 -322 0
730 -249 0
-26 0
-255 -473 0
585 -396 0
-974 503 0
700 -474 0
338 -206 0
-196 0
-905 0
-430 -309 0
-853 0
785 -298 0
667 -362 0
72 -154 0
-135 0
-96 989 0
-202 0
732 -466 0
-144 0
-368 -157 0
-95 671 0
576 -601 0
-752 -339 0
-261 847 0
-251 445 0
-38 0
-294 0
-631 395 0
225 -899 0
-887 0
723 -468 0
-15 -451 0
-379 0
-731 0
-885 507 0
-205 -866 0
-514 -145 0
-223 -757 0
-531 174 0
-623 -898 0
-48 553 0
785 -737 0
-607 -795 0
-496 0
-66 0
196 -683 0
513 -443 0
-743 543 0
825 -65 0
-58 0
-506 0
-56 0
-695 0
-279 0
-160 -323 0
-688 0
-63 285 0
-861 0
-779 -130 0
125 -475 0
-310 746 0
-261 -348 0
-557 0
-554 0
-782 -643 0
-452 0
65 -723 0
-519 -286 0
-25 0
-260 0
-39 370 0
-760 0
-919 203 0
-323 -370 0
-874 0
-791 421 0
-701 253 0
-698 -569 0
-495 0
-418 -537 0
-37 0
592 -767 0
-66 0
-906 0
459 -347 0
-941 0
-516 0
-437 428 0
-280 -42 0
-317 0
-730 575 0
-911 -50 0
-248 22 0
-422 -612 0
-614 621 0
-344 -754 0
-803 406 0
696 -288 0
-640 -434 0
-943 0
-753 0
-96 0
-847 148 0
-509 0
-238 988 0
-565 0
-189 686 0
-62 0
-349 0
-950 0
-579 0
297 -501 0
-545 0
-872 0
-876 0
-48 0
316 -187 0
-711 0
-341 748 0
-727 629 0
917 -690 0
-894 532 0
-240 -8 0
-413 -882 0
-630 -770 0
126 -58 0
-792 0
-415 0
-848 0
-802 0
458 -741 0
-845 -99 0
-860 15 0
-715 0
-349 775 0
-917 0
-718 -571 0
-575 589 0
-320 -629 0
-543 0
-527 755 0
664 -863 0
-656 884 0
-357 612 0
813 -506 0
-424 0
385 -94 0
-202 0
-111 0
-544 -439 0
54 -674 0
-593 0
-432 -876 0
-246 0
-359 0
-516 566 0
-813 0
-440 355 0
-947 0
-746 -881 0
137 -989 0
-756 0
-320 0
-91 0
193 -532 0
-320 -57 0
-454 0
-390 0
-917 0
-722 111 0
-867 -906 0
-749 796 0
-1000 0
-308 222 0
-685 0
570 -370 0
-526 614 0
-149 813 0
-472 -666 0
81 -289 0
138 -597 0
-448 -366 0
-968 0
-20 599 0
-971 0
-493 0
164 -364 0
-493 0
-992 -155 0
435 -626 0
-681 -273 0
-838 0
-620 0
-818 -618 0
-767 0
-976 893 0
-328 0
-628 0
-808 111 0
314 -452 0
-351 -38 0
-189 0
-859 0
-793 0
-879 0
-4 0
-876 789 0
-114 0
-361 0
-247 530 0
-566 0
-372 -977 0
-733 -546 0
801 -177 0
-1000 -961 0
-935 -126 0
-967 887 0
666 -925 0
155 -458 0
-84 263 0
-530 0
-724 0
-169 0
-152 0
-240 -691 0
-159 0
-907 765 0
-94 862 0
-691 0
-783 -375 0
218 -438 0
-814 -43 0
973 -97 0
-738 0
-956 0
-885 0
-710 -500 0
-728 686 0
-392 352 0
-222 -490 0
-360 0
-510 -557 0
-928 0
-963 0
-973 0
-826 231 0
-192 0
-99 0
-951 -825 0
-171 0
-759 23 0
-882 0
-11 0
106 -971 0
-72 0
-370 0
-838 -477 0
-478 775 0
-671 -766 0
-315 -99 0
-238 0
-423 61 0
-512 0
-303 -293 0
298 -185 0
640 -35 0
794 -723 0
-38 0
-326 0
641 -902 0
-110 0
-959 716 0
-952 356 0
-978 0
-365 -635 0
162 -885 0
393 -940 0
-688 0
-753 0
-112 0
792 -895 0
-912 -261 0
-29 0
-192 971 0
-551 0
-173 0
-576 -940 0
-890 -129 0
649 -994 0
-469 211 0
-594 0
969 -41 0
-870 0
673 -369 0
-970 30 0
-439 835 0
-174 0
-519 0
-40 0
389 -250 0
-846 -450 0
-936 0
-750 -45 0
-662 0
-836 -708 0
113 -441 0
-405 30 0
352 -33 0
-29 -986 0
-554 0
-400 -41 0
-897 0
-96 0
648 -794 0
-217 0
-731 -169 0
-366 0
393 -969 0
-448 -771 0
-370 407 0
-662 0
-409 0
-36 -51 0
-815 -146 0
-281 0
796 -314 0
658 -252 0
939 -969 0
-135 -180 0
896 -923 0
259 -884 0
-880 0
-82 0
-20 4 0
872 -99 0
-999 580 0
954 -554 0
122 -161 0
-956 -772 0
-949 580 0
-690 0
-719 0
-904 568 0
-224 -401 0
-701 -644 0
-632 437 0
-287 0
-519 0
-99 422 0
-679 407 0
-248 -14 0
-955 0
-552 199 0
-607 0
-543 0
-98 -977 0
-991 -359 0
-50 0
-968 121 0
-835 -969 0
257 -820 0
148 -890 0
754 -510 0
-541 0
-744 0
-550 0
-536 0
944 -635 0
-343 -150 0
-302 -827 0
-647 115 0
-559 0
-503 0
-79 -121 0
-629 -468 0
-364 -449 0
482 -602 0
-939 0
-158 -885 0
-567 0
-318 374 0
-774 0
-902 -764 0
-271 0
-35 -962 0
-560 -138 0
-613 343 0
-464 99 0
-480 56 0
-511 0
738 -825 0
-544 -265 0
-237 -613 0
-356 -170 0
-421 987 0
-163 0
-157 0
-686 -193 0
368 -794 0
-662 0
26 -381 0
-280 556 0
-605 -897 0
-485 0
-544 330 0
962 -547 0
800 -471 0
-989 0
-714 0
-293 -821 0
-376 550 0
-475 0
-390 500 0
-151 -387 0
-149 0
-404 333 0
-577 0
-317 0
-631 0
-844 0
-659 -339 0
578 -44 0
174 -906 0
386 -548 0
144 -921 0
-29 95 0
-731 0
-477 0
-337 0
-757 -772 0
-819 0
98 -564 0
-145 -353 0
-627 -810 0
-495 -369 0
-601 0
304 -994 0
-377 0
-169 0
-214 -561 0
-140 997 0
4 -724 0
-903 70 0
-949 -837 0
-704 901 0
-160 -565 0
-560 -892 0
-40 -682 0
800 -500 0
481 -89 0
-342 -196 0
-216 0
-328 -486 0
360 -710 0
-476 950 0
-879 0
-515 0
293 -505 0
-500 695 0
-309 255 0
-272 0
-527 0
868 -563 0
-664 -166 0
308 -283 0
-101 -891 0
-714 0
-995 847 0
-481 0
-171 0
635 -595 0
-22 618 0
-875 -569 0
-848 -398 0
-216 -61 0
-656 0
58 -645 0
-824 0
958 -994 0
-439 0
802 -653 0
-936 -26 0
-934 0
-94 0
-55 -354 0
-263 -962 0
-352 244 0
-810 231 0
-35 -721 0
-626 0
-847 220 0
-261 -564 0
883 -325 0
-348 -587 0
-912 0
712 -604 0
-843 0
-45 -258 0
-957 -381 0
-45 0
206 -273 0
-86 0
-780 0
-863 -225 0
977 -634 0
-527 0
741 -921 0
-345 0
-968 0
-850 -9 0
-665 0
-908 591 0
-944 352 0
-171 205 0
-978 0
-316 29 0
-824 -890 0
-731 431 0
-956 0
-383 -524 0
-879 0
-485 0
-758 165 0
-654 0
-70 399 0
597 -602 0
-406 0
144 -31 0
-136 -428 0
-317 -779 0
-656 -885 0
-456 0
960 -57 0
-590 0
-253 0
314 -212 0
-21 0
988 -563 0
-662 -89 0
-610 -738 0
-808 0
-516 0
-431 -108 0
-302 0
-522 0
-558 0
-374 726 0
-583 282 0
-43 957 0
-415 0
-240 0
-99 734 0
-447 11 0
-930 0
-776 -141 0
-791 0
33 -398 0
-308 861 0
-486 467 0
-288 -285 0
-7 -978 0
-565 443 0
-657 0
-329 0
-477 230 0
-940 221 0
-183 0
-695 359 0
608 -671 0
-226 0
-710 0
372 -362 0
-41 0
-207 0
-931 0
-613 0
-429 0
-281 0
617 -877 0
-765 0
-652 -675 0
-773 -116 0
816 -781 0
-53 0
170 -134 0
-943 0
-963 0
544 -889 0
867 -746 0
747 -948 0
-955 0
-642 -402 0
-169 0
-929 -705 0
755 -378 0
-372 -321 0
-840 -595 0
-206 0
-767 539 0
-708 0
936 -827 0
109 -274 0
-990 387 0
-208 0
-884 942 0
253 -395 0
-982 549 0
-150 204 0
450 -221 0
-48 -324 0
113 -265 0
-332 0
-912 309 0
-427 0
960 -81 0
547 -85 0
-954 0
-214 292 0
-555 0
-806 0
-580 -762 0
-520 20 0
-934 0
-396 927 0
-761 0
-7 483 0
-319 0
-77 -18 0
-161 0
40 -585 0
-456 316 0
-274 -377 0
-949 -805 0
-30 0
-989 0
-55 0
-302 0
312 -284 0
-656 -310 0
412 -305 0
-624 -796 0
-878 -132 0
955 -745 0
-430 0
650 -635 0
-995 0
-758 -196 0
-752 0
-228 0
-332 198 0
-430 -181 0
-351 0
505 -907 0
-479 -967 0
-400 0
-520 412 0
-559 0
-572 -457 0
-543 450 0
-39 -509 0
-337 0
-854 0
-932 405 0
-876 0
-408 0
-605 -108 0
-831 518 0
-520 -516 0
-880 743 0
-677 0
-618 0
-37 679 0
-680 0
-750 0
-829 0
-311 0
-416 -548 0
-34 0
-762 -121 0
-742 -955 0
-391 -188 0
-621 -641 0
-944 0
-510 -476 0
152 -371 0
777 -220 0
-322 0
-662 -997 0
635 -43 0
-719 196 0
-277 973 0
-280 0
-912 0
-255 0
592 -669 0
-275 0
180 -289 0
-533 -987 0
-101 0
146 -909 0
-880 412 0
427 -530 0
379 -129 0
-897 0
-695 905 0
-558 -163 0
188 -347 0
-536 -397 0
190 -50 0
632 -18 0
-666 0
-820 0
-51 0
-62 -117 0
-837 -298 0
234 -194 0
-736 0
689 -963 0
-652 772 0
-18 311 0
-579 0
-592 -813 0
666 -986 0
-561 0
-172 -978 0
-495 -857 0
454 -738 0
-476 143 0
-696 -741 0
934 -113 0
-847 0
-618 0
-501 0
-792 -376 0
704 -706 0
-227 0
-858 975 0
-496 -785 0
-891 0
-629 0
-759 5 0
-596 0
-100 429 0
-306 0
-837 -148 0
-745 0
-686 -649 0
725 -74 0
-165 -100 0
-995 0
907 -137 0
-920 -459 0
-553 0
929 -821 0
-462 0
-16 0
-431 255 0
-697 0
-479 562 0
-392 -739 0
-54 0
-791 0
-836 -65 0
44 -466 0
464 -262 0
-64 -102 0
-103 -419 0
-294 595 0
-516 0
-832 477 0
-93 30 0
-748 -683 0
-73 0
-94 109 0
50 -397 0
-356 0
-157 454 0
-284 0
-967 378 0
-993 0
-318 -700 0
-92 0
-126 39 0
-251 0
595 -220 0
-831 0
-704 0
-670 -533 0
-56 306 0
-286 0
-958 -299 0
-549 -476 0
-686 0
156 -217 0
-820 0
-260 47 0
-340 0
-399 -614 0
-672 -262 0
-566 0
208 -583 0
-385 0
164 -306 0
206 -961 0
-62 165 0
-432 0
-546 0
-324 -859 0
-879 0
-660 0
-464 500 0
-641 0
730 -44 0
-887 707 0
-392 0
65 -411 0
-811 559 0
-858 0
-216 -532 0
536 -148 0
258 -377 0
-548 580 0
-876 0
-160 244 0
-503 0
-984 0
-68 -451 0
16 -356 0
-938 271 0
-693 0
-870 0
-336 0
-760 868 0
-741 0
338 -315 0
-720 10 0
-280 0
-189 -34 0
-522 119 0
-158 0
-599 -379 0
78 -946 0
-470 638 0
-138 0
-319 -678 0
-344 507 0
626 -892 0
-756 -228 0
-525 0
882 -921 0
-926 644 0
-213 -369 0
-322 0
-341 -649 0
-800 -560 0
-783 287 0
955 -324 0
-318 164 0
-647 -635 0
-424 761 0
-916 -465 0
908 -17 0
-1 0
-41 0
409 -626 0
-886 0
-202 0
-135 75 0
-342 0
-15 0
209 -521 0
-396 -780 0
-887 0
474 -709 0
-739 0
441 -947 0
-282 0
-910 0
-498 0
-375 0
-289 0
881 -762 0
-446 -954 0
-382 -457 0
-880 -340 0
448 -445 0
-809 0
-458 927 0
-760 -428 0
-248 6 0
-285 -716 0
-953 0
-72 0
6 -778 0
-990 404 0
-336 481 0
-252 0
-229 0
-630 190 0
-302 723 0
-323 0
-983 314 0
-804 0
-16 0
-501 0
-572 0
315 -257 0
-595 -441 0
-607 0
-493 0
-317 0
-954 0
-812 725 0
-679 -597 0
-296 -68 0
-834 -49 0
-737 0
-87 750 0
371 -985 0
24 -413 0
-678 -339 0
-254 -676 0
-82 0
-219 5 0
540 -970 0
-171 -34 0
-604 0
17 -580 0
-37 -241 0
-380 0
444 -684 0
-775 0
-590 -894 0
-636 894 0
-880 743 0
-653 -649 0
-89 0
995 -530 0
433 -870 0
-161 0
-769 0
-498 0
-944 0
-672 0
-251 0
-29 -580 0
-959 0
-343 0
-68 732 0
459 -826 0
-669 0
-917 0
-190 0
190 -625 0
-640 -111 0
-93 -907 0
-991 -795 0
-579 0
-922 0
-264 916 0
-536 -531 0
-566 -84 0
-922 527 0
960 -165 0
-320 0
-715 0
-566 0
-741 0
-911 -146 0
992 -820 0
-22 3 0
981 -130 0
-375 -818 0
-263 0
-301 31 0
87 -873 0
-561 0
753 -121 0
-114 0
-592 -857 0
-419 622 0
-632 0
-655 -646 0
-939 0
-248 620 0
557 -233 0
259 -420 0
-154 -665 0
-644 901 0
-545 0
-78 0
-591 -962 0
184 -813 0
-152 0
410 -717 0
328 -860 0
-95 0
-479 671 0
-629 351 0
-664 0
-448 0
-213 -306 0
-957 -794 0
180 -289 0
-166 30 0
-374 0
-420 0
-803 0
-678 0
600 -253 0
-478 741 0
-434 295 0
-366 -61 0
-952 -980 0
-678 803 0
-488 0
658 -226 0
64 -183 0
-60 829 0
-789 0
292 -626 0
-400 519 0
929 -294 0
-536 -374 0
-114 -146 0
-844 0
-48 784 0
-288 0
-919 -733 0
-583 -526 0
-664 0
324 -801 0
-827 727 0
586 -522 0
-992 -451 0
-548 -484 0
-200 -72 0
-60 0
-422 0
91 -553 0
-837 0
-24 0
257 -785 0
-700 0
845 -66 0
632 -22 0
-142 -644 0
737 -324 0
-537 0
-407 -914 0
-612 0
-955 -466 0
673 -753 0
-907 0
-589 591 0
-589 -140 0
-536 -772 0
984 -859 0
521 -595 0
-108 287 0
-406 -756 0
-261 0
-66 0
-381 0
-692 0
-660 0
-927 0
420 -722 0
-226 0
738 -530 0
-850 0
404 -425 0
-100 0
-401 0
-295 916 0
730 -365 0
-86 -554 0
-566 7 0
-590 -450 0
-74 0
-352 0
-965 292 0
-438 -644 0
944 -786 0
-572 0
552 -890 0
-493 -453 0
-520 501 0
-645 -554 0
-950 -85 0
-616 172 0
-796 -618 0
-44 -721 0
-71 -193 0
632 -927 0
-934 638 0
-590 0
-512 462 0
301 -450 0
-361 0
-684 0
-734 -478 0
-422 -538 0
816 -44 0
890 -323 0
-524 213 0
56 -470 0
258 -956 0
-234 0
-890 0
-320 9 0
81 -967 0
-941 983 0
392 -826 0
-804 0
-152 176 0
-240 -470 0
-747 967 0
-968 103 0
-350 0
-513 0
-446 0
665 -772 0
-821 -427 0
-765 0
-900 -721 0
-66 -265 0
-919 -355 0
-502 831 0
-26 0
-720 531 0
-66 231 0
378 -201 0
-165 0
-959 4 0
-709 63 0
-6 -658 0
-883 0
960 -555 0
-118 0
-215 0
-974 77 0
626 -265 0
-65 0
-90 0
-863 -641 0
-986 0
-491 0
786 -939 0
963 -297 0
-749 853 0
605 -842 0
-384 862 0
-439 343 0
-198 974 0
-115 319 0
-672 837 0
-983 132 0
-328 0
-673 0
217 -446 0
-582 827 0
-612 455 0
-106 0
-736 168 0
-921 0
-893 0
-240 -85 0
-136 -829 0
-375 -363 0
-831 644 0
880 -458 0
-693 -157 0
-106 -105 0
-126 0
-314 0
-564 0
690 -84 0
-37 -308 0
-726 -883 0
-428 0
-746 0
-499 -714 0
-72 -571 0
-492 -716 0
-757 0
-149 796 0
344 -823 0
-31 610 0
-462 0
-88 0
865 -45 0
-222 -194 0
-902 0
-139 -825 0
-738 0
-192 738 0
856 -884 0
-325 239 0
-416 -749 0
-966 564 0
-447 0
379 -795 0
-782 0
-670 -538 0
-144 -522 0
592 -725 0
-589 -25 0
-792 490 0
-560 270 0
-271 -820 0
-27 550 0
-709 4 0
-703 884 0
-735 -676 0
525 -385 0
-854 0
-47 274 0
-728 368 0
-302 0
-107 0
-677 550 0
-98 -138 0
-545 0
-237 -523 0
-375 0
-109 0
-628 0
-392 -118 0
-800 872 0
403 -341 0
-288 0
-890 263 0
-989 12 0
-894 -353 0
-967 0
-179 646 0
-430 0
-959 444 0
-720 900 0
-750 0
-507 -281 0
-796 -858 0
442 -203 0
-962 0
-713 295 0
-585 0
-207 0
-62 -857 0
-703 0
-272 0
-745 0
-576 0
-111 482 0
-710 -126 0
-905 -817 0
-333 0
-350 0
-516 -315 0
-453 0
-640 0
-566 0
682 -235 0
-158 -130 0
-927 -915 0
-477 0
-525 -913 0
173 -137 0
561 -660 0
545 -983 0
-416 0
-47 0
765 -617 0
-471 0
25 -347 0
-255 0
-140 0
-876 0
-998 0
-701 -289 0
-415 -161 0
-325 0
-755 -993 0
-347 0
-597 0
-981 0
245 -33 0
-535 -619 0
-149 0
-761 0
-959 -20 0
-119 605 0
-815 0
-391 0
-311 106 0
-650 0
-773 0
-720 0
330 -716 0
804 -257 0
-948 0
352 -501 0
-197 -42 0
440 -195 0
-150 0
-406 15 0
-835 -745 0
-765 0
-961 0
696 -375 0
-582 0
-332 -387 0
995 -945 0
-260 0
890 -765 0
-792 299 0
310 -657 0
-783 231 0
-559 -772 0
936 -964 0
-389 0
-394 0
-113 0
486 -537 0
-564 182 0
-448 -426 0
-409 0
-603 -17 0
611 -281 0
-959 825 0
-380 -556 0
-936 642 0
-388 0
-824 -431 0
-522 0
-604 0
386 -77 0
-539 0
-612 0
-416 0
-431 -175 0
-642 111 0
-907 0
-583 -606 0
-80 452 0
-974 412 0
-310 -236 0
488 -992 0
-502 -211 0
-540 0
-590 -932 0
-638 0
-69 0
713 -99 0
-733 0
-983 886 0
-132 0
-684 351 0
-793 0
-343 0
-397 885 0
-614 564 0
-846 0
-94 -117 0
400 -437 0
20 -777 0
-602 0
-717 342 0
-200 0
678 -778 0
-843 0
-663 -763 0
-448 199 0
-304 0
-835 -82 0
-923 438 0
-910 0
-492 0
-722 687 0
408 -192 0
-340 0
-940 0
-743 -780 0
-374 0
-759 -278 0
20 -482 0
-230 0
-686 0
160 -637 0
-378 -705 0
451 -866 0
-160 0
-625 0
-892 0
-838 598 0
-916 903 0
-448 -330 0
299 -668 0
-698 -546 0
-2 0
-111 0
-688 -947 0
-535 -181 0
-962 0
800 -964 0
-376 0
722 -449 0
729 -539 0
730 -986 0
-555 654 0
-561 0
-631 -772 0
-502 0
-165 -107 0
-749 751 0
794 -891 0
-229 0
-236 0
-494 0
-208 0
-69 0
-630 0
-654 906 0
-752 201 0
-150 -650 0
131 -739 0
-105 0
-900 0
-882 918 0
-251 -258 0
-592 0
-266 0
-106 0
-460 0
-976 602 0
608 -720 0
-432 -370 0
920 -450 0
185 -573 0
-171 0
-425 0
-414 0
30 -761 0
-508 -507 0
-224 0
-712 -20 0
256 -583 0
-246 0
948 -715 0
-968 0
-871 0
-806 -898 0
-683 -858 0
-799 0
338 -462 0
-953 0
-697 0
-137 0
-475 -786 0
-922 0
697 -622 0
-605 0
114 -420 0
-942 293 0
-206 -373 0
-767 0
-41 0
601 -396 0
667 -628 0
-979 -721 0
-137 0
882 -906 0
-151 -511 0
344 -827 0
-140 -554 0
-704 0
-925 0
-917 0
-352 161 0
-129 0
-155 0
489 -610 0
-591 0
-911 667 0
-876 -267 0
-331 0
741 -617 0
512 -719 0
-636 438 0
-232 0
-277 0
-75 0
-352 386 0
-483 0
-914 -473 0
-215 -338 0
-102 20 0
304 -938 0
-91 0
-65 0
-902 -73 0
-702 -981 0
-783 453 0
-741 661 0
-478 983 0
-48 0
616 -879 0
618 -483 0
-358 -97 0
-159 989 0
-96 0
196 -538 0
-280 2 0
308 -875 0
82 -173 0
-637 0
-953 0
-544 617 0
72 -982 0
-587 -65 0
-596 -779 0
-528 707 0
-308 13 0
-162 127 0
-841 0
-599 122 0
392 -865 0
97 -911 0
-762 -353 0
-273 0
609 -363 0
-435 0
-839 -219 0
-792 0
-908 351 0
-352 0
-161 0
-959 270 0
-518 -954 0
-369 0
-685 0
-740 -353 0
-984 -174 0
-826 0
-880 0
-463 -774 0
-419 0
816 -761 0
-548 0
-465 0
-81 0
-481 0
-694 -246 0
-118 271 0
498 -291 0
-293 -724 0
-339 407 0
-929 -529 0
377 -593 0
899 -81 0
-503 0
-76 0
-264 626 0
-485 0
80 -261 0
272 -718 0
12 -369 0
217 -868 0
779 -875 0
-557 0
-310 595 0
600 -332 0
-944 0
-510 -793 0
-127 404 0
-242 0
761 -861 0
-249 0
-267 0
164 -842 0
724 -35 0
-375 -835 0
-44 0
-622 662 0
-280 582 0
-344 -54 0
-616 0
-5 0
-74 0
-888 539 0
-763 870 0
-851 0
-174 -122 0
-572 -211 0
-117 0
-797 0
-207 0
-460 -658 0
-814 0
-303 101 0
-191 0
-919 -111 0
-858 0
648 -774 0
-606 0
-234 -681 0
-201 0
-799 -850 0
-842 0
-777 0
-157 -457 0
-891 0
-129 0
918 -313 0
-888 325 0
-688 0
703 -993 0
-368 0
829 -809 0
-478 -522 0
-798 110 0
-607 -258 0
-981 174 0
970 -108 0
-391 0
-364 0
-712 -877 0
145 -50 0
307 -393 0
-896 0
-316 0
-599 -603 0
20 -740 0
690 -130 0
-6 0
246 -225 0
-425 0
610 -234 0
-702 0
-410 0
-717 300 0
-501 0
-229 0
-976 -225 0
-230 -970 0
-528 898 0
801 -172 0
-335 0
-998 0
249 -585 0
-292 -507 0
-381 862 0
-270 0
-368 0
482 -148 0
757 -161 0
-163 0
-240 0
-287 0
-584 0
-225 0
-799 0
-572 0
-692 0
-110 0
179 -660 0
-91 0
451 -713 0
-205 0
-725 0
-173 -617 0
-744 -201 0
-371 -897 0
-530 0
-479 0
-661 148 0
17 -186 0
-580 0
-214 0
-765 0
-61 -715 0
140 -819 0
-183 0
-290 0
-526 -67 0
-350 -573 0
-30 0
68 -330 0
-806 479 0
-103 0
-366 284 0
-636 0
-502 0
-247 -567 0
361 -111 0
353 -190 0
-240 584 0
-803 -489 0
-759 0
-854 -779 0
-776 0
-958 0
659 -153 0
-294 -209 0
-575 0
-563 0
-711 -774 0
-792 25 0
-681 0
-213 -987 0
-413 0
-666 0
-984 -432 0
-992 0
-815 -783 0
-323 846 0
-300 -771 0
-866 518 0
571 -580 0
-299 -441 0
-566 0
-440 0
-824 191 0
-77 0
-54 70 0
944 -107 0
-588 -441 0
-174 701 0
-854 10 0
-271 0
-459 0
-471 -907 0
611 -997 0
-209 0
-562 0
-866 0
-844 0
-33 0
-893 0
-7 0
261 -849 0
-189 0
-849 0
-741 643 0
-626 0
-622 0
-476 0
-606 189 0
160 -949 0
-104 0
-334 -203 0
234 -316 0
66 -377 0
-757 0
-565 373 0
-701 -691 0
-809 -449 0
280 -882 0
724 -322 0
-432 152 0
-968 0
-223 789 0
-577 0
-726 -405 0
-980 -595 0
672 -85 0
-815 0
950 -473 0
890 -652 0
-871 -78 0
-647 469 0
-847 -990 0
-531 0
-765 0
969 -18 0
-940 0
-574 0
-306 0
716 -602 0
-991 -117 0
-581 0
-832 0
-397 0
-54 693 0
-377 0
-867 0
-588 -275 0
-974 469 0
161 -529 0
-395 78 0
-277 0
-542 787 0
-507 447 0
874 -577 0
-93 -212 0
-781 0
-271 0
961 -722 0
-877 0
-331 0
-208 804 0
740 -170 0
-847 541 0
-771 0
-58 239 0
-174 551 0
19 -265 0
-71 -902 0
125 -27 0
883 -988 0
-477 703 0
-752 0
-359 463 0
171 -130 0
-712 0
-284 806 0
241 -246 0
-267 197 0
-614 567 0
-847 791 0
771 -197 0
850 -731 0
-684 0
-584 0
-622 0
-825 0
-675 0
560 -549 0
-831 -318 0
-36 0
-855 -993 0
-402 0
-986 0
-199 0
-547 0
675 -154 0
-585 0
-687 0
-484 -529 0
-600 0
-127 0
-67 0
-984 -76 0
-798 339 0
-437 0
-30 -198 0
-750 -393 0
-853 836 0
-992 0
-708 0
-439 -722 0
-775 0
-536 586 0
-296 694 0
-655 277 0
-662 283 0
515 -147 0
717 -995 0
-770 0
634 -969 0
-451 597 0
-409 0
-965 0
-710 -899 0
-126 0
331 -153 0
288 -207 0
-797 -852 0
506 -651 0
577 -450 0
248 -643 0
-710 -777 0
274 -177 0
579 -429 0
-327 0
-26 -721 0
-669 356 0
-144 0
-449 0
-694 -633 0
-100 79 0
473 -250 0
17 -435 0
-300 0
-574 -402 0
-943 0
-234 0
-233 0
-979 0
-784 -795 0
-297 0
-235 -497 0
-471 0
265 -411 0
-345 -809 0
477 -995 0
-311 -18 0
-164 0
-143 -550 0
-790 0
-919 -522 0
364 -211 0
-759 -866 0
-924 565 0
-453 0
-954 0
-640 -313 0
-324 -898 0
-60 295 0
-109 0
-520 -649 0
-957 0
-351 0
-222 -833 0
-191 -869 0
-671 -550 0
-397 -427 0
-976 -55 0
-492 5 0
-867 0
-514 0
-785 0
-448 -515 0
-388 0
-576 819 0
961 -556 0
-999 0
-318 -715 0
-88 0
-104 747 0
244 -988 0
219 -67 0
-418 0
300 -337 0
-43 0
-936 -617 0
-933 6 0
399 -329 0
-757 -748 0
-104 0
-591 -634 0
-783 -346 0
-708 -986 0
-103 -732 0
-960 0
-68 0
-690 0
-288 0
-209 0
-562 807 0
-260 0
-356 0
-652 0
-520 0
-973 0
-457 239 0
466 -923 0
-808 -22 0
-842 190 0
-558 0
705 -166 0
-262 -450 0
-519 0
-935 553 0
755 -746 0
-137 0
182 -914 0
-100 0
-903 0
536 -614 0
-172 0
-374 358 0
-307 0
396 -481 0
-263 930 0
-627 0
545 -141 0
-480 517 0
-345 0
-310 -60 0
-556 0
-675 0
-424 -610 0
113 -938 0
-709 295 0
-698 0
-348 0
-218 0
-744 0
216 -491 0
341 -193 0
-543 791 0
56 -671 0
-448 0
-388 966 0
-473 0
-180 0
-919 401 0
160 -667 0
940 -796 0
480 -811 0
466 -330 0
-884 0
-903 402 0
226 -194 0
870 -793 0
38 -873 0
-114 0
-145 0
-296 787 0
-816 0
145 -642 0
-127 0
-884 0
-830 606 0
-974 -747 0
-61 -963 0
-596 -962 0
-654 428 0
-987 30 0
-627 0
-766 52 0
973 -794 0
185 -633 0
-914 0
-699 0
-971 0
-308 -684 0
289 -710 0
-790 324 0
-334 0
-344 0
392 -373 0
-22 479 0
-15 0
-667 0
-790 0
-390 0
-14 0
721 -434 0
-389 0
-117 742 0
368 -145 0
373 -355 0
-77 -553 0
-445 421 0
-203 0
667 -458 0
-712 0
-136 -82 0
-938 0
-595 -561 0
-181 364 0
-327 -780 0
-706 0
170 -722 0
-462 0
-535 199 0
-670 0
-710 287 0
-645 765 0
-898 0
-183 0
-566 -65 0
-832 818 0
13 -401 0
-328 0
813 -850 0
-150 -605 0
-583 -718 0
-26 0
-600 -687 0
-64 -435 0
-683 0
24 -559 0
977 -684 0
-885 0
-317 0
-620 -434 0
825 -610 0
-473 0
-644 0
320 -563 0
-459 0
265 -938 0
-659 0
96 -493 0
-101 812 0
-861 0
-813 526 0
-824 263 0
-889 0
-354 0
-945 0
-652 -492 0
-838 -445 0
-238 0
-901 924 0
-107 774 0
-566 -292 0
-798 0
580 -587 0
-317 46 0
-176 351 0
424 -484 0
-873 175 0
-368 103 0
-533 -779 0
-81 0
-568 -15 0
-445 167 0
-372 -753 0
-210 0
-965 -236 0
-882 0
-304 -314 0
-28 0
394 -961 0
-449 0
-949 0
662 -570 0
-604 0
-940 0
489 -569 0
-407 471 0
-742 11 0
-310 0
-968 0
-606 548 0
-1000 -585 0
875 -905 0
-164 0
-426 -105 0
-39 0
648 -700 0
-319 -95 0
-429 0
332 -842 0
-551 0
316 -649 0
-982 0
-402 0
376 -112 0
466 -948 0
-437 926 0
-295 -939 0
-597 -225 0
-856 0
212 -305 0
-992 621 0
-141 -659 0
968 -140 0
-663 -246 0
-539 783 0
349 -306 0
-102 0
-406 195 0
208 -695 0
-821 -283 0
994 -724 0
-253 790 0
-518 486 0
-407 -830 0
-698 -297 0
776 -139 0
-195 471 0
-514 0
-545 0
-352 39 0
-592 0
-335 -855 0
-55 596 0
-379 0
-949 247 0
637 -74 0
-250 0
-342 0
-236 0
-31 0
-882 0
-695 -234 0
-823 327 0
-455 -862 0
-337 0
718 -938 0
436 -915 0
384 -302 0
-534 -653 0
-741 -394 0
-334 -193 0
243 -689 0
515 -129 0
-792 -246 0
-319 -721 0
-340 772 0
651 -906 0
-738 0
-952 939 0
-115 30 0
-778 0
-997 0
-612 44 0
-542 941 0
-351 -284 0
-666 0
-741 0
-658 0
17 -214 0
-776 0
-336 0
840 -463 0
-511 934 0
910 -874 0
-552 0
-871 31 0
-316 0
-2 0
-137 0
-291 0
-387 -939 0
-503 0
-540 0
-986 0
-41 0
736 -626 0
-640 0
-200 0
-840 -3 0
-485 45 0
-81 0
-55 469 0
-891 534 0
-278 -601 0
-752 0
-25 0
-39 0
-528 479 0
-183 166 0
-492 0
-465 0
-308 0
-272 256 0
-318 906 0
-980 0
-537 655 0
-882 0
491 -577 0
-279 -789 0
-415 0
-675 0
-414 0
-724 -906 0
-864 609 0
-503 0
-644 0
-7 -514 0
-728 0
-860 911 0
-846 -980 0
-763 0
-329 0
-772 0
387 -353 0
-631 0
-333 -355 0
-790 934 0
457 -135 0
-560 335 0
-196 0
418 -674 0
-61 0
-55 0
-967 751 0
-406 -82 0
-93 534 0
-831 0
-602 647 0
-651 0
-599 0
-652 549 0
-305 0
-547 0
-224 0
-157 0
-388 0
-128 772 0
-264 -921 0
-204 -658 0
-121 -689 0
-234 0
-34 0
-404 0
328 -327 0
-567 0
-549 -220 0
-140 -227 0
-872 0
-319 -271 0
-845 668 0
-509 0
914 -538 0
-867 375 0
-927 -694 0
-102 -397 0
-778 0
-258 0
-771 0
-804 -306 0
-382 885 0
-858 0
-802 0
610 -491 0
-997 0
-943 796 0
-878 510 0
-736 -287 0
-236 982 0
-657 0
-723 0
-21 -533 0
763 -153 0
66 -329 0
-463 955 0
-356 0
-132 845 0
-845 -132 0
-608 -439 0
444 -361 0
-294 -557 0
-414 0
-619 -673 0
658 -116 0
-504 0
-502 -869 0
-675 0
-177 0
-39 442 0
-86 -51 0
-207 810 0
-246 0
-767 750 0
-376 933 0
250 -405 0
920 -800 0
-440 0
-3 0
605 -627 0
-279 252 0
-843 -154 0
-520 -41 0
995 -641 0
-588 814 0
869 -666 0
-65 0
-973 0
-392 513 0
-62 0
-303 0
-74 0
-631 719 0
-76 0
499 -114 0
656 -194 0
-310 0
-1000 201 0
-541 0
-306 0
905 -641 0
-292 -164 0
400 -870 0
-401 0
-311 0
848 -353 0
530 -764 0
-242 0
-346 0
-636 0
-782 0
-680 10 0
-268 -537 0
547 -60 0
-529 0
569 -350 0
-677 0
-648 517 0
-129 0
553 -309 0
-487 724 0
-31 0
-63 0
-743 0
699 -761 0
-406 108 0
842 -516 0
-374 406 0
405 -65 0
96 -165 0
-860 0
-596 0
-637 188 0
-145 0
-438 -666 0
331 -836 0
-475 -554 0
-920 0
-648 0
-84 0
-789 -322 0
128 -722 0
-598 -164 0
-604 607 0
-768 123 0
198 -753 0
-654 -470 0
-557 229 0
557 -202 0
-328 361 0
356 -268 0
-165 198 0
-368 0
-513 0
-218 0
662 -897 0
-649 0
-840 489 0
-540 0
-173 -315 0
388 -715 0
-692 -387 0
-158 470 0
-141 -747 0
-664 -105 0
-981 955 0
-192 0
-981 -324 0
273 -339 0
-424 -237 0
-531 0
-959 -509 0
338 -265 0
-599 -869 0
-347 0
-612 324 0
779 -589 0
164 -315 0
-270 -358 0
-632 752 0
-930 -498 0
-281 0
665 -902 0
-455 -925 0
-511 0
-624 345 0
9 -93 0
-599 283 0
-44 0
-855 -571 0
-998 -579 0
475 -76 0
-175 0
-709 0
-534 68 0
-684 260 0
-253 -289 0
973 -249 0
-222 -428 0
64 -410 0
-103 0
-445 -189 0
-159 0
211 -754 0
-759 -343 0
-904 -297 0
163 -700 0
-831 33 0
-819 0
-254 -394 0
-256 0
-197 -105 0
-944 0
528 -897 0
-635 846 0
-573 653 0
-823 0
-374 0
18 -804 0
-856 -243 0
-119 0
18 -689 0
-696 5 0
-308 0
-716 -194 0
-605 -92 0
-2 0
361 -134 0
-672 0
88 -180 0
-157 -874 0
-1 0
-47 0
-279 598 0
-643 0
-600 827 0
-507 0
-225 0
-905 0
-707 615 0
-663 179 0
-982 -381 0
-284 0
-665 0
-646 0
-109 0
-998 660 0
-375 249 0
-470 -226 0
323 -308 0
-693 0
-315 0
858 -204 0
-217 0
793 -734 0
-234 0
-15 -636 0
-475 0
-788 -577 0
-160 146 0
-627 0
-435 -65 0
-596 0
160 -820 0
-236 453 0
-329 0
-633 0
804 -2 0
276 -113 0
-906 0
-421 903 0
-909 0
-584 -75 0
-298 0
-505 0
-985 0
-870 516 0
-239 0
-440 950 0
-720 -541 0
513 -524 0
-242 0
9 -342 0
-738 0
-415 0
-736 0
-382 118 0
-808 0
-136 0
-787 822 0
-570 -777 0
-405 206 0
744 -92 0
-566 579 0
-365 -81 0
-968 32 0
-894 300 0
-748 0
-455 -290 0
-309 0
-472 0
-940 -891 0
-173 0
-979 879 0
-765 0
-294 0
-24 -998 0
-823 0
-197 -451 0
-681 0
-707 0
880 -814 0
-65 0
-671 0
-29 -545 0
546 -938 0
-964 -459 0
944 -38 0
-30 735 0
-303 -149 0
-153 0
594 -177 0
-626 727 0
-894 -212 0
-544 0
-728 0
-800 0
227 -666 0
190 -289 0
-336 -506 0
-112 -247 0
-190 214 0
-924 -746 0
10 -795 0
384 -771 0
-239 0
-224 -73 0
-979 0
-605 0
-440 498 0
-117 -779 0
-973 0
-791 957 0
-424 0
-807 -753 0
-221 555 0
473 -705 0
-309 293 0
-406 0
-446 0
-486 0
-331 0
-297 0
178 -697 0
-955 101 0
690 -382 0
880 -884 0
-680 0
942 -505 0
-604 -491 0
-886 -66 0
-888 0
-979 0
-381 0
-663 0
-63 851 0
-935 0
-755 454 0
961 -859 0
-98 351 0
419 -537 0
-990 405 0
648 -168 0
-935 -511 0
-413 0
-935 510 0
-759 0
-913 0
144 -325 0
-575 111 0
-240 0
-503 0
454 -601 0
-383 -245 0
-540 0
-343 0
-174 -996 0
-700 0
307 -980 0
-223 157 0
672 -364 0
-868 399 0
-998 -931 0
-763 -299 0
161 -483 0
-560 676 0
-788 0
-784 -378 0
-787 549 0
-415 236 0
-73 0
424 -898 0
-683 231 0
-943 0
-388 -681 0
875 -789 0
-57 0
-583 0
382 -834 0
-304 339 0
-981 0
-834 -162 0
9 -181 0
-471 602 0
-31 -619 0
-127 0
-396 0
-191 165 0
-732 503 0
753 -874 0
-771 -714 0
-752 0
-768 187 0
-677 0
-860 -777 0
-556 0
-782 0
-507 205 0
-962 -841 0
-710 0
99 -681 0
-722 0
-756 -811 0
-983 0
-876 567 0
-525 909 0
-39 -714 0
-298 215 0
-951 -554 0
-453 0
-100 -554 0
-480 259 0
-183 0
-667 127 0
-909 -578 0
-431 -859 0
-153 0
-639 519 0
-384 227 0
-28 0
-86 733 0
-613 0
-530 0
-187 0
290 -118 0
66 -573 0
-550 0
-752 754 0
-94 55 0
-708 0
-343 0
120 -728 0
74 -268 0
-938 0
-370 0
-999 0
-532 -131 0
-746 0
-969 0
-229 639 0
-39 242 0
680 -101 0
-600 -298 0
-415 0
-604 -513 0
737 -51 0
-702 277 0
-267 -842 0
-932 830 0
-37 -865 0
-549 -290 0
-467 0
-406 -213 0
145 -430 0
-998 213 0
-14 0
-934 501 0
-94 0
-712 526 0
-655 0
-860 0
-243 925 0
218 -298 0
-400 -210 0
-811 -482 0
-287 -403 0
787 -788 0
-100 -259 0
806 -273 0
-923 0
-672 -575 0
-993 0
217 -957 0
20 -547 0
-665 0
233 -669 0
-174 0
-445 436 0
-993 0
531 -124 0
-344 661 0
8 -969 0
-574 -57 0
-64 0
-734 -442 0
-387 0
-987 -323 0
72 -74 0
-991 713 0
330 -150 0
-276 0
-928 38 0
-347 0
-844 334 0
115 -57 0
-878 -314 0
-776 0
-782 180 0
-5 -36 0
-49 0
-191 0
-867 0
410 -795 0
-246 943 0
-323 0
-475 -883 0
-941 -20 0
-725 0
400 -620 0
-82 0
-123 927 0
-807 0
-528 906 0
-670 150 0
-800 0
-625 0
-181 -149 0
-739 0
-939 135 0
-510 0
-927 -780 0
-941 0
432 -958 0
-704 0
-642 0
-627 -433 0
-861 -563 0
644 -363 0
-151 -290 0
-920 61 0
-423 773 0
-891 -346 0
10 -42 0
-805 -484 0
-489 -889 0
-54 589 0
-627 0
298 -965 0
-431 0
129 -441 0
685 -513 0
-794 0
552 -1 0
658 -804 0
-87 0
-297 0
26 -171 0
-510 0
-291 -842 0
-80 129 0
-904 568 0
-522 0
-788 0
-182 -364 0
731 -169 0
-576 -562 0
-191 0
-355 0
-781 0
-239 343 0
-942 940 0
-832 -924 0
-293 0
-454 0
-238 -182 0
-861 0
153 -515 0
-992 647 0
-439 427 0
-901 629 0
930 -139 0
-987 0
-146 -921 0
601 -795 0
-700 0
136 -778 0
-459 0
-525 0
208 -183 0
-305 0
-942 815 0
-951 381 0
-506 575 0
-701 0
596 -234 0
-887 -674 0
-535 0
-191 0
-526 -533 0
-406 27 0
-916 0
-624 -601 0
-564 -75 0
-149 244 0
-537 0
-872 717 0
-21 0
424 -525 0
-313 0
-190 0
-4 -571 0
-987 0
-587 -258 0
-272 296 0
-782 898 0
-998 0
-615 359 0
-367 0
-269 -772 0
-654 0
-910 468 0
-373 0
-562 0
-108 0
-951 -578 0
-307 423 0
883 -381 0
-51 0
-647 -853 0
296 -662 0
-157 -460 0
-994 0
245 -250 0
-991 0
-311 -170 0
-262 102 0
-485 0
-632 748 0
101 -825 0
144 -236 0
-753 0
1000 -923 0
-688 -722 0
-551 0
621 -594 0
-602 0
-773 0
-126 -374 0
-813 0
-275 0
-854 708 0
-5 565 0
-233 39 0
-968 -746 0
-711 -877 0
-895 473 0
-517 45 0
-685 0
955 -289 0
-793 0
-318 298 0
-592 -505 0
-864 0
-392 -253 0
-258 0
944 -333 0
-396 23 0
-380 0
-896 0
-279 -58 0
-531 0
-625 0
-782 845 0
-551 0
-452 0
-348 -313 0
-6 524 0
-157 -403 0
-274 0
-688 49 0
-739 0
873 -45 0
-936 722 0
-273 0
-663 0
-92 0
450 -981 0
-979 958 0
18 -873 0
-230 -563 0
-225 183 0
86 -386 0
-583 777 0
-880 0
465 -708 0
434 -674 0
673 -973 0
-944 827 0
-455 36 0
-31 -741 0
-756 -954 0
-248 0
974 -929 0
-839 0
-768 0
705 -404 0
-814 -258 0
981 -297 0
-597 0
-294 0
-89 0
-624 0
-109 207 0
-950 -83 0
786 -237 0
-254 0
-520 -446 0
-920 0
954 -121 0
-548 567 0
-249 0
-780 686 0
-313 0
-934 -433 0
-64 538 0
-893 -309 0
-95 25 0
-888 195 0
-96 0
-707 -561 0
-784 0
-340 0
-549 0
-807 0
562 -557 0
-759 140 0
-34 0
-151 0
-120 0
669 -218 0
-884 0
-807 710 0
-386 0
-712 -340 0
-972 0
384 -369 0
602 -746 0
-836 0
-103 -180 0
-126 -258 0
970 -741 0
-671 0
-781 0
-484 798 0
-590 732 0
-93 853 0
432 -267 0
-695 -658 0
-207 -955 0
108 -890 0
-745 0
-308 0
-510 79 0
-572 284 0
-488 908 0
-391 -998 0
-820 0
48 -808 0
-855 0
916 -466 0
348 -772 0
-792 193 0
-30 0
-5 0
-178 0
-63 0
955 -357 0
732 -849 0
-198 759 0
-9 0
-309 -293 0
-195 0
-971 0
-595 -537 0
-417 0
-470 423 0
-909 236 0
-378 0
-788 -532 0
-918 0
33 -850 0
-638 0
-390 0
-416 -575 0
681 -327 0
-870 0
497 -386 0
-182 -452 0
-196 -83 0
-888 -21 0
-404 206 0
682 -389 0
992 -887 0
-175 0
-431 -619 0
-638 0
-1000 -745 0
126 -241 0
-587 902 0
827 -555 0
-557 0
416 -748 0
-367 0
-403 -51 0
-866 0
-96 0
-962 0
-856 0
-710 0
-857 0
-547 0
-653 -881 0
885 -634 0
-149 637 0
-662 701 0
-238 685 0
-196 0
539 -17 0
-61 557 0
-685 0
-656 0
968 -588 0
-741 0
459 -314 0
-606 -291 0
-85 -267 0
-925 -803 0
-95 -170 0
-292 0
-239 967 0
-326 0
-288 -214 0
453 -858 0
-235 0
-8 -106 0
-33 0
-879 0
-804 0
-136 0
-901 0
-106 0
-507 0
-526 614 0
-598 0
-77 -337 0
-845 0
482 -321 0
-911 0
-128 247 0
-409 0
-532 0
119 -121 0
-598 0
-741 0
298 -203 0
465 -398 0
-761 0
-605 0
-639 0
-251 0
440 -669 0
-20 0
-203 0
-528 29 0
-291 0
-405 0
-853 149 0
-328 -309 0
-909 -961 0
-912 582 0
-709 71 0
-549 0
-460 215 0
375 -185 0
-548 -875 0
-21 0
979 -731 0
164 -913 0
778 -577 0
-50 0
-596 0
-276 525 0
-887 740 0
-216 939 0
-335 0
-908 0
-824 -498 0
-669 0
-818 0
932 -713 0
67 -825 0
-653 -58 0
-475 0
-316 573 0
-742 -249 0
-589 0
-394 -722 0
720 -594 0
322 -905 0
947 -442 0
-45 0
812 -713 0
-484 847 0
-804 0
-618 0
-468 0
-81 -161 0
-955 -770 0
-735 -467 0
148 -412 0
-632 -251 0
-942 581 0
-528 0
419 -1 0
467 -434 0
-639 0
489 -220 0
-483 0
-928 701 0
-959 -902 0
-706 575 0
314 -729 0
-610 0
-255 -86 0
-453 -925 0
-677 998 0
-119 -17 0
-863 -998 0
-749 0
-726 0
-623 134 0
-156 0
-500 679 0
-982 0
-289 0
-352 0
-517 0
-447 179 0
888 -904 0
-840 -70 0
-934 -738 0
430 -681 0
450 -619 0
-10 0
-339 -242 0
475 -964 0
-404 0
-516 0
-589 0
-486 445 0
-621 -690 0
-780 0
-248 -62 0
-916 0
993 -324 0
-595 -817 0
-494 0
-536 450 0
-319 390 0
-232 0
930 -661 0
-352 426 0
-493 -389 0
-362 0
-255 -610 0
-946 0
-680 0
-828 173 0
-97 0
-575 0
-484 0
-432 -236 0
-462 -73 0
-645 0
-83 -347 0
-492 326 0
-383 141 0
-590 -306 0
-144 -778 0
-172 0
-678 117 0
364 -964 0
-496 0
204 -10 0
-414 0
-77 0
-356 0
-944 -643 0
-696 756 0
-981 0
497 -82 0
-594 0
-631 43 0
-233 0
-447 0
-892 655 0
-944 -346 0
561 -371 0
-406 -382 0
-606 0
-364 0
-446 0
949 -809 0
-989 315 0
-692 359 0
-175 565 0
-632 418 0
-773 277 0
-160 0
-113 0
416 -328 0
-296 -445 0
-214 0
-152 160 0
-568 -537 0
-88 -298 0
-68 0
-292 0
-490 0
-531 0
-16 -463 0
-853 0
-424 293 0
-968 -763 0
-965 549 0
-61 0
-504 -252 0
-959 708 0
105 -195 0
838 -482 0
-331 -513 0
-624 0
-477 -860 0
-962 0
-181 382 0
-630 0
313 -693 0
889 -650 0
-63 -993 0
73 -393 0
638 -274 0
-235 -921 0
-975 -121 0
-918 0
-385 0
-435 0
-123 0
-809 0
-921 0
-14 0
-445 0
835 -644 0
-14 -659 0
241 -565 0
-846 -662 0
-253 69 0
-332 0
-461 436 0
-95 -234 0
371 -148 0
421 -50 0
626 -653 0
977 -457 0
-781 0
-563 -995 0
-918 0
119 -329 0
-552 -372 0
-632 0
-572 -194 0
-30 229 0
481 -541 0
-114 -569 0
-100 -594 0
-157 -146 0
282 -949 0
-444 0
-790 0
-343 -468 0
-626 591 0
289 -366 0
-102 380 0
-742 0
-185 0
-876 853 0
120 -927 0
-559 0
-380 -492 0
-362 695 0
952 -770 0
-167 0
-843 0
937 -803 0
449 -986 0
-402 0
402 -305 0
-289 0
-752 0
-53 -883 0
-334 798 0
-557 0
-682 0
-116 0
-525 0
-45 0
-475 -473 0
-942 727 0
-878 0
399 -233 0
-631 0
-756 0
-942 -492 0
-976 -441 0
-309 0
-269 781 0
-381 471 0
-326 666 0
-444 0
-904 0
-308 0
-728 -375 0
-973 0
-660 287 0
481 -149 0
-789 0
-52 0
-398 686 0
-47 -483 0
-918 0
217 -455 0
-647 827 0
-338 0
-916 -890 0
-576 754 0
-383 0
664 -915 0
-137 0
-462 -260 0
-627 0
-655 749 0
-678 0
-872 0
-153 -337 0
-886 174 0
-64 -27 0
-486 0
-955 -689 0
555 -858 0
-95 -466 0
-103 -531 0
-816 0
-412 439 0
-618 -866 0
-821 0
-42 0
305 -661 0
117 -954 0
488 -134 0
-579 0
-104 -236 0
-382 -26 0
315 -313 0
-333 0
-357 0
-799 0
-825 0
67 -125 0
178 -150 0
220 -914 0
-728 -710 0
70 -905 0
571 -109 0
393 -412 0
-496 -849 0
-843 0
-975 0
-518 0
24 -963 0
969 -150 0
-917 23 0
-719 0
-607 -460 0
-301 0
-138 518 0
-305 0
-175 -450 0
-875 -793 0
-761 -961 0
-947 0
915 -389 0
-543 0
-432 0
-36 -450 0
-628 -780 0
921 -879 0
-811 0
-294 0
-797 0
-463 0
-830 130 0
-568 490 0
-716 0
-965 663 0
-436 0
-269 0
-276 0
-648 -811 0
-988 0
844 -386 0
-770 0
-422 0
-518 0
-837 0
-457 0
-888 783 0
-102 111 0
-540 902 0
-615 0
168 -217 0
-299 0
561 -871 0
-341 0
-387 -546 0
131 -573 0
666 -675 0
-431 -293 0
-710 222 0
185 -516 0
-783 159 0
-366 -506 0
344 -871 0
-140 0
-553 0
-454 0
969 -442 0
-86 548 0
-311 665 0
74 -356 0
-51 0
-635 214 0
808 -63 0
-702 0
674 -822 0
-596 0
-456 703 0
-110 0
-447 -669 0
-972 -865 0
-35 0
52 -707 0
-676 0
544 -869 0
-726 0
-696 -310 0
-93 972 0
-918 796 0
-562 0
-434 0
-440 201 0
-390 0
-88 -423 0
-494 0
790 -97 0
-853 0
-124 0
-197 0
44 -537 0
-29 0
484 -210 0
-447 153 0
961 -410 0
-778 0
-443 0
-360 0
-650 0
-950 -355 0
-139 0
856 -389 0
-526 0
-914 0
-109 -739 0
658 -953 0
-400 483 0
-295 0
106 -908 0
-507 0
-155 559 0
309 -65 0
-914 0
723 -362 0
-590 655 0
-239 611 0
-428 805 0
-808 0
-162 0
-985 559 0
-960 0
-493 0
-585 0
-349 0
-312 283 0
-439 0
-624 839 0
-725 -629 0
-995 0
-580 0
-159 893 0
-916 -769 0
-34 0
50 -5 0
-957 0
-799 -54 0
-616 -241 0
-152 954 0
-788 -347 0
741 -969 0
985 -398 0
-59 525 0
-177 0
-919 -205 0
-32 -1000 0
-461 0
-573 0
-458 0
-518 0
-951 180 0
892 -42 0
-297 0
731 -371 0
-96 211 0
112 -215 0
-346 0
-479 -244 0
-632 0
-853 0
-288 -291 0
-796 0
-300 38 0
170 -483 0
-63 0
197 -738 0
281 -221 0
-854 0
842 -99 0
-839 -444 0
-777 383 0
-437 0
560 -742 0
-841 0
-376 623 0
-502 942 0
-885 -140 0
-349 -322 0
-199 -419 0
-198 901 0
-95 0
-646 0
-919 515 0
-390 -781 0
-872 0
-344 -676 0
-540 -522 0
-976 0
-969 0
-940 0
-772 0
-481 0
-986 0
436 -721 0
-574 -236 0
-517 0
-452 758 0
-712 0
352 -97 0
-309 -69 0
553 -598 0
-500 -401 0
-574 -934 0
-939 -913 0
136 -316 0
-612 -498 0
-293 0
-694 638 0
843 -956 0
-450 0
-367 0
-71 -84 0
-248 0
-336 -231 0
427 -85 0
176 -166 0
937 -66 0
-806 0
-325 0
-576 0
-5 0
56 -672 0
-936 0
-530 0
-860 0
-347 0
899 -547 0
-614 975 0
-24 0
-538 0
-993 0
-127 60 0
-884 317 0
227 -900 0
-907 -321 0
-912 0
-903 0
80 -213 0
-790 0
-926 0
-608 -622 0
-704 0
-424 761 0
-158 0
-599 0
-125 0
-863 0
-586 -801 0
-829 470 0
220 -73 0
896 -354 0
-423 251 0
-514 0
600 -492 0
-223 228 0
-906 -809 0
-232 0
-163 0
-710 -61 0
897 -845 0
-610 0
-446 -651 0
-467 -705 0
240 -736 0
-762 0
-604 910 0
-155 0
-175 671 0
996 -756 0
-972 471 0
-112 518 0
-785 0
-658 -178 0
-907 0
724 -531 0
-379 0
-611 0
-275 -586 0
-198 0
-533 0
-181 605 0
-65 0
-993 0
-144 0
-117 0
-51 0
-779 0
-646 460 0
-759 -948 0
-835 614 0
-742 260 0
-702 0
-734 -548 0
-966 0
-688 -542 0
-140 0
625 -415 0
-366 587 0
-429 -339 0
-437 0
-370 830 0
-901 532 0
-8 125 0
-583 0
-710 -474 0
-672 -865 0
-67 743 0
-543 877 0
441 -290 0
-62 172 0
772 -764 0
-920 122 0
-519 0
311 -281 0
-931 0
-289 0
-951 -909 0
-55 -654 0
-138 0
985 -485 0
-989 836 0
-620 0
-382 716 0
-392 657 0
-176 0
-10 0
-78 -401 0
-734 863 0
-543 -17 0
-642 0
-978 0
-63 -398 0
-262 0
892 -809 0
-685 0
-482 0
-512 -856 0
-120 -220 0
-290 0
-749 0
-324 0
330 -66 0
-804 0
-884 0
-88 885 0
-604 541 0
-467 445 0
-194 -322 0
-290 0
-738 0
522 -708 0
-421 52 0
-893 0
-250 0
-850 319 0
406 -794 0
499 -861 0
-77 0
-441 0
-867 0
-391 319 0
-821 -177 0
-710 0
-40 667 0
-388 -572 0
-47 203 0
-889 0
899 -817 0
89 -26 0
588 -379 0
-712 914 0
-183 -911 0
-760 0
-739 -219 0
-102 0
-159 813 0
-213 414 0
627 -141 0
-758 135 0
-37 -533 0
-982 0
-557 597 0
-453 0
-852 0
-864 644 0
-815 0
-446 0
288 -336 0
13 -457 0
677 -682 0
184 -33 0
-950 427 0
-243 423 0
632 -978 0
-118 445 0
944 -267 0
-355 0
-65 0
-142 751 0
-927 0
-322 0
-29 -393 0
210 -974 0
-246 630 0
-182 100 0
-76 0
-846 -117 0
-989 987 0
977 -74 0
-586 0
-606 -649 0
533 -730 0
-582 -35 0
-200 809 0
-133 0
16 -674 0
40 -925 0
-104 779 0
-888 -486 0
-910 0
-876 0
612 -740 0
-67 -545 0
-626 215 0
-140 102 0
-102 -314 0
-750 0
-616 590 0
-218 -690 0
-472 210 0
-883 118 0
712 -314 0
-74 0
449 -727 0
-802 0
322 -210 0
-723 0
-505 0
-328 0
-111 0
-27 151 0
-487 0
-358 -523 0
-551 0
-827 133 0
675 -565 0
-22 0
520 -2 0
-219 0
-83 847 0
-526 927 0
-870 0
-666 0
-903 0
-200 466 0
-365 725 0
-354 0
-298 0
-64 -13 0
-211 0
851 -521 0
-497 0
561 -467 0
-220 471 0
-502 0
-93 0
-111 0
-437 981 0
808 -73 0
-492 0
-388 0
-902 -321 0
587 -635 0
-641 0
-742 0
-720 -326 0
-72 0
-7 -617 0
-652 0
-830 469 0
-768 0
-754 0
618 -482 0
956 -579 0
-864 0
-1000 0
-808 -170 0
498 -937 0
-986 391 0
965 -611 0
72 -120 0
-317 789 0
-256 -939 0
-325 -2 0
-356 0
515 -241 0
-142 -369 0
-703 107 0
-334 -401 0
-488 0
-971 -682 0
-893 0
-52 0
-516 -467 0
-935 0
-588 0
-139 0
-145 439 0
-28 254 0
392 -952 0
-109 -563 0
-468 -524 0
-373 7 0
-667 399 0
981 -346 0
-567 -242 0
-520 -836 0
-618 0
-697 -217 0
-47 -812 0
-959 0
-159 -129 0
329 -649 0
-850 0
421 -90 0
-940 0
-415 819 0
-422 0
-364 533 0
-687 0
-322 790 0
-599 817 0
-816 0
-104 0
-443 598 0
-891 0
-854 890 0
-439 0
-512 18 0
-500 0
-441 0
-408 836 0
-332 -43 0
-107 0
-921 0
-988 93 0
752 -144 0
254 -506 0
-712 0
680 -57 0
-945 0
-831 0
-436 0
-413 478 0
-681 0
-15 0
-229 684 0
-117 -467 0
-389 0
-479 703 0
-183 -686 0
-519 227 0
-199 -745 0
-42 0
-880 -186 0
-761 0
-510 -467 0
-454 0
-88 -347 0
-999 126 0
-12 0
377 -766 0
672 -494 0
-70 -675 0
181 -970 0
-701 -661 0
-108 0
-919 629 0
258 -315 0
-700 309 0
-295 0
-311 382 0
-627 -233 0
521 -782 0
-213 0
699 -579 0
-56 361 0
857 -463 0
-832 618 0
-942 0
-160 0
368 -263 0
-864 965 0
391 -713 0
-961 0
785 -254 0
-469 0
-380 0
-775 164 0
-154 0
-186 0
-159 -838 0
-478 0
-62 -442 0
-45 0
-110 0
-452 0
872 -622 0
-505 511 0
-470 742 0
500 -523 0
-878 -515 0
-776 339 0
-487 925 0
-516 -162 0
-423 95 0
-877 -715 0
704 -530 0
-784 355 0
-74 655 0
-487 967 0
-214 0
-727 651 0
-660 -235 0
-569 0
-959 -725 0
-793 0
-336 0
-943 0
-761 0
213 -674 0
-979 0
-716 807 0
-693 652 0
-787 166 0
-103 -247 0
-535 114 0
-781 0
261 -458 0
-792 806 0
-875 0
-792 858 0
-653 -403 0
-658 -617 0
-136 -119 0
-292 0
-292 -219 0
-525 -84 0
-653 348 0
-187 -106 0
-229 0
-582 0
371 -937 0
-957 191 0
-101 -427 0
-565 0
-159 0
-21 0
672 -256 0
-72 788 0
-303 0
-350 -940 0
-125 -714 0
-292 0
-808 -661 0
-282 455 0
-894 -65 0
979 -441 0
-415 907 0
194 -33 0
-237 667 0
-794 0
-51 0
-884 14 0
-143 0
-792 847 0
136 -762 0
-423 0
-317 0
264 -735 0
347 -113 0
-911 0
-593 0
929 -317 0
-595 0
-806 -426 0
542 -353 0
-952 -75 0
126 -417 0
-960 329 0
-637 0
-586 839 0
-646 0
-456 -638 0
-3 0
-562 0
-231 -322 0
-926 -249 0
-439 -773 0
-391 570 0
-211 -257 0
801 -981 0
-80 0
-296 -55 0
168 -283 0
-6 645 0
-752 0
-699 0
-812 0
-81 0
-553 0
-254 0
280 -999 0
-490 135 0
-458 0
-640 -410 0
180 -626 0
-437 -851 0
-5 455 0
69 -442 0
-102 823 0
528 -422 0
-559 -215 0
899 -394 0
-17 0
-736 571 0
-98 983 0
-479 -215 0
-955 -379 0
-21 0
-749 -611 0
-111 354 0
-640 0
-788 0
-87 0
-648 411 0
771 -379 0
-207 362 0
-428 245 0
-609 -969 0
-989 -988 0
457 -805 0
-907 775 0
-269 0
-266 0
-604 0
466 -86 0
-874 0
-79 -302 0
-816 664 0
-407 471 0
-562 0
-533 949 0
-754 255 0
-536 -494 0
816 -799 0
874 -228 0
-282 0
-692 0
-679 0
266 -218 0
94 -585 0
-740 0
-290 0
-534 870 0
-184 579 0
-397 0
-988 0
-354 -937 0
-920 0
-376 0
-352 0
-192 0
476 -905 0
403 -267 0
-95 0
-718 -306 0
-7 362 0
-496 750 0
-711 0
-360 -943 0
688 -775 0
-80 812 0
-754 0
-152 0
-160 0
-744 0
396 -393 0
-834 0
-855 346 0
-66 0
533 -771 0
-307 0
-192 665 0
-479 107 0
-553 0
-979 567 0
-279 0
-829 0
-439 0
-337 0
938 -609 0
864 -230 0
-39 -964 0
-468 -9 0
-189 0
-969 0
-169 0
-23 0
-589 125 0
-206 0
-857 0
-400 -629 0
-888 -626 0
-430 174 0
529 -772 0
8 -859 0
-964 0
899 -220 0
-338 -202 0
-8 -51 0
-436 0
-461 870 0
-541 0
-510 298 0
-808 943 0
826 -797 0
562 -860 0
-747 421 0
-500 0
-964 0
832 -596 0
-242 -305 0
-305 0
-316 0
-510 -148 0
-362 0
-187 0
-213 0
-299 -898 0
-966 -443 0
922 -754 0
537 -318 0
476 -393 0
-858 0
-636 -524 0
-193 0
-752 0
261 -665 0
154 -565 0
-892 0
-140 -339 0
-256 -610 0
-391 -855 0
-128 890 0
-598 -894 0
346 -245 0
-11 -723 0
907 -833 0
-331 0
77 -323 0
-923 0
915 -426 0
-194 0
-749 0
808 -851 0
-462 -875 0
680 -778 0
-388 0
-316 -290 0
-476 0
-58 0
865 -621 0
-415 -300 0
-377 0
-812 0
85 -706 0
-72 0
-369 0
-726 0
-726 6 0
-368 269 0
-277 0
-305 0
3 -618 0
-326 -194 0
-555 0
130 -146 0
-174 0
-590 899 0
-238 10 0
-529 0
784 -118 0
-324 -2 0
-109 0
-673 0
-535 0
-432 -412 0
-312 757 0
-290 0
-837 0
-807 851 0
-183 654 0
805 -633 0
-295 -609 0
-575 -359 0
728 -207 0
-444 349 0
-128 149 0
-426 0
-140 220 0
-225 0
315 -738 0
802 -188 0
-41 0
-677 0
-644 0
-547 0
-311 -276 0
993 -554 0
-200 403 0
-736 0
-626 542 0
-566 820 0
-263 0
244 -747 0
-861 -42 0
-441 0
-64 -999 0
-540 0
-551 0
-141 0
-967 -551 0
-476 0
981 -698 0
-895 -516 0
-895 0
-511 -41 0
-516 -827 0
137 -262 0
-267 0
-496 -635 0
-32 0
-660 0
-806 727 0
-717 382 0
-623 683 0
-566 103 0
217 -277 0
-416 0
-902 0
-768 300 0
603 -499 0
4 -530 0
-318 0
953 -539 0
530 -685 0
-819 0
-63 0
666 -502 0
-538 0
-664 0
-779 -595 0
1 -147 0
-184 0
-736 0
163 -211 0
-948 0
-954 0
318 -905 0
-604 884 0
-764 -666 0
-93 0
514 -874 0
-590 586 0
-622 0
-167 0
-576 0
-501 709 0
944 -613 0
328 -387 0
-643 0
-150 669 0
-446 0
-845 -114 0
-487 660 0
-424 0
-260 0
-430 0
-316 0
-808 -883 0
-167 -654 0
-46 0
-564 0
-164 0
-537 0
-863 0
-984 -550 0
72 -505 0
-967 -379 0
-582 0
-71 0
-936 390 0
496 -434 0
-520 -539 0
-248 -977 0
-597 180 0
-69 0
-289 0
-695 427 0
-374 0
-296 -854 0
-840 0
-592 0
-731 0
305 -538 0
-784 -75 0
-342 -436 0
-24 -411 0
-94 -538 0
-190 0
705 -278 0
-933 861 0
-168 0
-212 0
-62 -982 0
-447 319 0
-501 0
-755 0
-13 125 0
-230 -285 0
-838 388 0
-90 0
968 -933 0
579 -59 0
-71 370 0
801 -573 0
-375 0
-558 599 0
-123 382 0
-157 0
-560 0
-623 598 0
-380 324 0
-256 0
-794 0
-567 0
-262 -289 0
409 -359 0
-335 638 0
-85 -133 0
-408 90 0
-77 380 0
-624 -569 0
-960 -549 0
-812 0
282 -353 0
-720 0
-879 454 0
-701 -402 0
152 -431 0
-175 0
-775 -615 0
-886 -395 0
-861 -682 0
-282 0
-167 0
-907 0
-268 0
-556 -538 0
403 -12 0
-124 0
-595 54 0
-248 0
-166 734 0
-32 -726 0
-205 -325 0
556 -891 0
-129 0
-380 0
-760 -916 0
235 -786 0
-268 0
-208 0
932 -75 0
-14 0
-18 0
507 -531 0
-240 0
-20 429 0
-229 171 0
-576 -586 0
-914 279 0
-826 0
-321 0
-737 0
669 -361 0
-631 951 0
-966 -93 0
-987 0
-39 11 0
-392 137 0
298 -953 0
-88 896 0
-657 0
-948 0
-19 782 0
-111 71 0
-308 0
-13 0
-562 486 0
-824 0
-734 0
590 -305 0
-213 -322 0
-628 655 0
-125 527 0
-242 0
-336 470 0
-246 0
-27 166 0
-385 0
-190 0
-710 -205 0
-1000 550 0
-622 0
-8 0
-816 286 0
-732 773 0
-605 0
-14 301 0
265 -369 0
523 -273 0
-342 0
-614 325 0
-900 0
-471 190 0
-858 0
-454 846 0
-469 -265 0
-983 0
-316 0
-730 735 0
-860 -73 0
-441 0
582 -801 0
-981 0
-95 0
-683 0
616 -419 0
-625 0
-828 0
-569 -897 0
574 -777 0
-165 687 0
-28 0
763 -987 0
-128 0
-845 0
-55 39 0
-792 777 0
-535 189 0
-111 -861 0
691 -499 0
-561 0
632 -857 0
-445 0
-543 0
-984 97 0
938 -547 0
-549 0
-684 0
-906 0
-774 0
-908 533 0
-288 91 0
-937 0
-153 0
-713 0
-468 -761 0
-28 0
-13 0
-120 -897 0
-166 0
144 -880 0
-471 -299 0
-868 0
-769 0
-457 0
-148 0
-810 71 0
-400 478 0
-510 0
-650 0
-362 -689 0
818 -961 0
-598 0
-618 0
-46 0
-869 -171 0
-743 67 0
-584 0
618 -460 0
-221 79 0
-766 -827 0
-304 -72 0
112 -798 0
-684 0
976 -87 0
-606 0
-913 0
330 -613 0
-653 0
-61 0
-446 0
244 -161 0
-17 0
-956 -97 0
-967 0
-686 0
-299 0
-485 -117 0
-677 -683 0
-590 -973 0
-532 -27 0
-97 0
-421 0
-894 322 0
-415 -900 0
-166 683 0
-999 150 0
-894 -125 0
-833 767 0
-900 0
-477 0
-440 0
-257 0
-504 0
-852 95 0
-483 -617 0
-194 0
-645 -603 0
-520 0
577 -540 0
-195 0
-307 -754 0
736 -93 0
-30 -178 0
-633 0
-279 0
-694 -132 0
-379 0
-754 0
328 -278 0
978 -89 0
-986 0
-288 0
81 -969 0
-7 0
-93 -745 0
-379 462 0
969 -922 0
-268 0
-748 87 0
-22 851 0
-608 756 0
-611 0
766 -665 0
-397 -84 0
696 -462 0
915 -281 0
492 -971 0
-867 0
32 -235 0
298 -430 0
-91 0
972 -979 0
-856 0
-957 0
-402 0
440 -698 0
-94 467 0
989 -265 0
-20 0
817 -811 0
-668 0
-366 0
635 -61 0
-213 0
-80 -683 0
906 -869 0
-176 80 0
-232 0
-142 -662 0
-651 0
722 -369 0
554 -173 0
-988 0
641 -444 0
472 -540 0
659 -67 0
-543 0
-720 -245 0
-27 0
-112 -639 0
-557 0
-859 0
-230 0
-800 0
-575 0
-479 0
232 -684 0
-486 0
-953 0
-120 55 0
-380 237 0
-664 921 0
-265 0
18 -220 0
434 -433 0
-267 0
-388 172 0
-202 0
-942 660 0
-506 0
-184 -471 0
-922 0
-896 838 0
82 -739 0
-688 98 0
-928 43 0
10 -701 0
-560 293 0
-693 -593 0
-487 -525 0
-767 0
-948 829 0
-273 0
-655 466 0
-181 0
-447 -804 0
-24 0
-454 0
-348 0
506 -685 0
-448 152 0
-42 0
-626 0
-976 940 0
321 -934 0
-279 0
-942 183 0
-872 0
-295 0
-477 111 0
-55 894 0
-295 667 0
-881 0
997 -539 0
-21 -187 0
-449 0
-976 0
-407 0
-273 0
-604 -68 0
-266 0
769 -591 0
-273 0
-849 0
296 -217 0
-936 0
-474 0
-606 -954 0
-4 695 0
-809 0
-428 0
-847 0
744 -697 0
-997 684 0
-846 951 0
16 -642 0
-526 495 0
-449 0
924 -90 0
-94 0
-868 -50 0
-950 0
632 -329 0
729 -397 0
-433 0
-571 0
-892 0
90 -172 0
-219 0
795 -2 0
-222 621 0
-868 0
-575 -452 0
369 -874 0
979 -291 0
-55 0
-99 -569 0
8 -818 0
-899 -465 0
729 -621 0
-446 0
-668 0
-78 0
-696 0
-167 0
-980 -193 0
-239 -66 0
-803 647 0
584 -287 0
952 -610 0
-566 -53 0
380 -274 0
313 -343 0
-45 0
674 -979 0
-428 0
-20 836 0
-967 0
-382 362 0
1000 -769 0
-695 -335 0
-958 0
-999 107 0
-132 -427 0
-504 0
-591 367 0
-13 0
-845 0
-243 0
-484 -690 0
-619 0
-62 -370 0
873 -353 0
-998 0
-768 -149 0
-560 -844 0
-751 0
217 -877 0
176 -794 0
-982 0
-789 300 0
37 -426 0
-469 0
-719 876 0
-557 0
-792 0
398 -10 0
895 -529 0
-449 0
75 -506 0
147 -172 0
-71 -4 0
-538 0
-757 0
-408 175 0
-827 95 0
-160 72 0
-919 -414 0
-380 0
-43 -139 0
-691 0
-761 0
-431 0
-845 268 0
-824 -928 0
373 -313 0
-739 0
769 -292 0
-480 0
-478 0
-161 0
-836 -833 0
-790 738 0
-218 0
-29 0
-83 0
761 -169 0
-682 0
-860 -378 0
-678 0
-363 -497 0
21 -145 0
-29 0
-771 0
-112 -636 0
-728 0
-666 0
842 -940 0
-873 0
-491 0
-78 -174 0
204 -97 0
-799 0
-56 -551 0
-689 0
-365 127 0
-815 -310 0
-317 0
-463 -60 0
-276 -83 0
-151 0
-316 0
-531 0
-558 20 0
-45 0
-693 948 0
472 -935 0
-552 0
-40 -456 0
-503 0
-415 0
-877 -164 0
-184 0
112 -883 0
-856 24 0
-384 0
-559 597 0
-952 0
-415 -833 0
-550 -874 0
-957 238 0
-574 -923 0
-415 0
889 -660 0
-81 0
-347 0
-75 -169 0
10 -531 0
-413 36 0
-855 0
-247 -737 0
-372 0
489 -926 0
-520 -47 0
800 -82 0
-453 -225 0
-599 -337 0
-46 63 0
-164 -930 0
-59 158 0
-159 533 0
-758 0
978 -130 0
-397 0
-340 588 0
-524 0
-720 -802 0
-641 0
-790 0
-935 -93 0
-130 0
-80 985 0
-259 0
-947 0
-932 -866 0
-838 786 0
-395 533 0
-455 678 0
-7 -82 0
-598 -206 0
-176 0
-709 -675 0
-80 -328 0
860 -722 0
-416 185 0
-102 0
-744 0
-836 -370 0
-377 0
-565 -506 0
144 -175 0
-693 731 0
-891 0
-856 0
-911 346 0
220 -530 0
-18 0
-727 -435 0
-869 0
-372 485 0
361 -170 0
-288 735 0
-680 -325 0
454 -601 0
-144 -369 0
-918 0
-332 -602 0
787 -572 0
-807 -390 0
-728 825 0
-908 0
-132 645 0
-496 452 0
-350 6 0
-409 0
672 -310 0
-594 294 0
377 -225 0
-616 0
-980 0
298 -481 0
-88 0
-762 -401 0
-86 266 0
-959 -350 0
-579 0
-510 0
-244 0
-709 156 0
-536 -950 0
-324 548 0
-751 0
784 -215 0
-992 -724 0
-99 0
-40 -211 0
-401 0
-31 0
-946 0
-808 740 0
664 -968 0
-120 263 0
-639 462 0
-596 -307 0
944 -457 0
-839 854 0
-277 423 0
549 -979 0
787 -161 0
810 -236 0
-748 718 0
11 -804 0
-877 461 0
-684 0
-840 770 0
-201 679 0
-99 78 0
-36 631 0
89 -355 0
-383 0
-630 259 0
-109 885 0
-436 0
179 -1 0
-173 78 0
-369 0
659 -10 0
302 -946 0
-293 0
394 -611 0
-704 -358 0
-104 975 0
-920 995 0
-173 -853 0
-372 0
-898 0
101 -609 0
-429 0
-519 -779 0
-948 -169 0
-742 587 0
-998 0
-605 -557 0
-30 646 0
-48 -885 0
-400 0
-420 677 0
-560 16 0
465 -116 0
-80 0
-108 0
195 -682 0
-176 0
-984 0
-868 236 0
-176 19 0
-452 0
-718 0
-595 0
-741 0
-122 0
-719 42 0
476 -435 0
-523 189 0
-39 0
-804 0
-995 0
-740 126 0
808 -236 0
-703 539 0
608 -420 0
579 -275 0
-951 459 0
-824 206 0
-798 0
-159 0
-284 0
-891 0
916 -425 0
-938 0
-64 -641 0
-130 0
-102 0
-635 846 0
-39 239 0
-728 598 0
688 -171 0
-320 -364 0
961 -833 0
-778 0
-581 -956 0
756 -825 0
-192 0
-236 0
168 -343 0
-839 0
618 -865 0
-697 0
-735 -547 0
-185 0
-768 -33 0
-318 0
-69 0
522 -174 0
-822 -766 0
-504 -194 0
-734 381 0
-677 0
363 -5 0
-58 -625 0
-106 -58 0
-481 0
771 -21 0
-975 0
-270 0
-525 -829 0
-703 0
-652 0
871 -105 0
-78 0
506 -948 0
-407 0
-352 -187 0
-472 938 0
-773 -291 0
-6 0
-639 -638 0
644 -987 0
640 -45 0
-79 111 0
520 -990 0
-348 700 0
-215 0
-948 -361 0
-808 -269 0
-799 0
-236 -818 0
688 -545 0
-886 914 0
-984 -115 0
-419 -9 0
82 -570 0
-612 0
-945 0
584 -953 0
-478 0
466 -317 0
-550 22 0
-592 100 0
970 -441 0
-435 -617 0
-397 902 0
-769 0
-417 0
-487 0
-691 -34 0
976 -307 0
-527 508 0
717 -913 0
-518 525 0
-671 0
-774 227 0
-86 -725 0
-870 949 0
497 -542 0
-75 0
-648 0
-307 0
681 -955 0
777 -772 0
-21 0
-143 -155 0
-46 0
-364 0
-566 -716 0
-533 -763 0
272 -440 0
-571 0
-560 -33 0
861 -786 0
-636 0
-28 239 0
-367 0
-812 0
-542 -549 0
-695 -334 0
-846 860 0
-563 0
-527 0
-702 222 0
536 -589 0
-983 -195 0
-413 -828 0
-215 0
-217 0
891 -129 0
-118 0
-714 0
-523 0
88 -858 0
-294 682 0
-902 -601 0
545 -983 0
672 -252 0
-78 -803 0
346 -5 0
-499 -201 0
-670 -958 0
672 -486 0
816 -422 0
-663 -395 0
122 -241 0
-267 0
-549 253 0
-632 0
-706 -721 0
-923 445 0
147 -251 0
-839 -701 0
643 -92 0
-546 0
-254 -211 0
58 -812 0
364 -833 0
-344 -298 0
361 -563 0
-159 -451 0
-823 0
-517 548 0
236 -435 0
-968 0
-984 354 0
417 -919 0
-144 0
-491 0
-119 -937 0
-746 0
-575 -116 0
-927 993 0
-455 -166 0
-663 -281 0
-895 644 0
-566 0
-462 0
-311 0
-415 -221 0
-787 -211 0
-710 0
-120 -911 0
312 -629 0
-114 0
-720 0
-179 0
-485 835 0
-736 0
-670 0
-373 0
416 -19 0
-1000 601 0
-871 -780 0
-374 567 0
-422 -74 0
459 -492 0
955 -316 0
-64 0
-930 0
-346 0
-293 0
-501 0
355 -145 0
-521 0
-360 -116 0
562 -74 0
-646 0
-19 -514 0
-694 -509 0
-677 366 0
-958 379 0
-808 -38 0
-549 0
-539 0
161 -422 0
-609 -233 0
-503 0
501 -114 0
99 -76 0
-951 178 0
-711 0
-792 -450 0
-117 598 0
-431 0
-730 0
-72 479 0
-268 0
-719 0
49 -725 0
-582 0
-758 0
-645 0
37 -697 0
-770 0
-804 0
-321 0
-548 -802 0
-101 -426 0
-949 0
-951 634 0
-599 38 0
952 -914 0
-89 0
677 -642 0
-445 655 0
-836 0
385 -523 0
352 -180 0
-338 238 0
-856 0
-328 786 0
605 -555 0
-885 0
-825 0
740 -4 0
-912 0
-997 62 0
379 -522 0
-31 718 0
134 -105 0
-916 0
-997 0
-198 175 0
-93 0
-958 -467 0
401 -689 0
-551 453 0
-944 0
-147 -753 0
-710 0
-710 -476 0
561 -825 0
-783 603 0
-816 -602 0
-670 -782 0
813 -923 0
-898 574 0
-776 -27 0
-566 -338 0
-926 0
-303 0
-474 0
-133 0
-459 349 0
-671 610 0
-454 0
544 -589 0
-543 -787 0
-839 0
-940 0
-728 -625 0
361 -237 0
-497 0
-464 194 0
-539 0
625 -717 0
-184 948 0
-500 0
-326 567 0
-502 0
-452 -251 0
-694 -172 0
-205 0
320 -2 0
-126 0
-222 179 0
-248 0
-61 0
-269 0
-293 -73 0
-845 695 0
-836 0
-20 0
-344 -481 0
-696 312 0
-949 534 0
-7 -914 0
-681 0
-717 0
517 -162 0
-328 510 0
258 -733 0
-471 809 0
-319 -378 0
-678 -403 0
-826 0
-669 0
939 -788 0
-289 0
-704 -69 0
-593 0
378 -561 0
-540 0
-779 166 0
-194 95 0
-8 199 0
-344 0
697 -293 0
60 -82 0
-897 0
-741 0
-22 0
237 -682 0
-652 572 0
154 -939 0
-664 955 0
-649 0
-190 82 0
-936 775 0
-906 0
-797 0
-323 471 0
-99 0
-863 -674 0
585 -470 0
-556 0
764 -212 0
-310 -369 0
-472 166 0
-336 -29 0
-77 -877 0
306 -569 0
-829 171 0
-301 -737 0
-471 -506 0
-503 0
-106 0
836 -402 0
-783 -419 0
-231 -918 0
-78 -459 0
-132 149 0
-630 -314 0
218 -466 0
-5 0
-649 0
-721 407 0
-53 0
-342 -605 0
171 -866 0
-515 0
549 -377 0
-89 263 0
746 -892 0
303 -881 0
-295 655 0
-958 -177 0
-921 0
35 -473 0
-472 0
-272 -946 0
-341 0
-72 -951 0
-248 -331 0
-766 149 0
-327 0
-171 0
-102 -452 0
210 -161 0
-851 0
-987 0
906 -341 0
-795 0
-396 0
-583 78 0
-997 -858 0
265 -508 0
634 -162 0
-69 -61 0
-676 0
-451 415 0
-477 0
617 -910 0
-348 669 0
-72 0
-174 -422 0
-328 21 0
-864 -181 0
-566 -878 0
-58 0
196 -643 0
-976 362 0
-686 724 0
486 -441 0
-509 468 0
-373 0
-237 -787 0
24 -309 0
830 -145 0
825 -489 0
-762 0
-892 -410 0
-11 574 0
-500 311 0
-44 165 0
2 -450 0
-44 -937 0
-684 -586 0
-94 0
-935 830 0
-811 -890 0
-935 -714 0
133 -489 0
-852 220 0
-40 -411 0
-694 0
-648 0
-244 -467 0
-997 0
-436 637 0
-359 -843 0
-319 -437 0
-894 167 0
-38 0
449 -727 0
-465 0
-49 -881 0
-527 671 0
-916 -682 0
-232 0
-313 0
-728 940 0
-700 0
-158 0
-62 0
-296 6 0
-879 605 0
-962 -881 0
489 -790 0
-488 369 0
668 -305 0
-493 -909 0
-944 0
-591 0
-501 967 0
-612 823 0
-703 0
483 -227 0
-183 413 0
-83 -530 0
456 -721 0
-848 232 0
666 -218 0
-512 637 0
-151 498 0
-831 0
-954 0
-160 -249 0
985 -505 0
-416 10 0
-557 0
-235 0
-315 0
-971 0
-37 0
519 -489 0
-471 -94 0
673 -86 0
-976 0
193 -155 0
-752 -241 0
-699 0
-749 0
-63 863 0
-796 0
775 -97 0
-911 0
-351 0
803 -66 0
-440 0
-388 36 0
-476 0
69 -202 0
-717 847 0
-352 404 0
-232 0
-539 -722 0
-140 694 0
-21 999 0
-663 745 0
-583 157 0
779 -289 0
-783 0
40 -237 0
-205 0
-512 669 0
-678 332 0
-539 0
-225 0
64 -41 0
-962 0
-472 221 0
-12 -281 0
-405 551 0
-182 259 0
-163 -9 0
-541 317 0
-344 0
-285 651 0
-711 0
82 -579 0
-396 0
-738 0
-206 90 0
-638 476 0
844 -907 0
-134 0
-16 717 0
98 -732 0
148 -818 0
-83 0
-235 0
993 -354 0
116 -490 0
-935 -14 0
-595 510 0
281 -860 0
-420 0
-190 0
-706 0
-263 901 0
-754 0
-984 -587 0
59 -533 0
955 -138 0
-672 0
-669 415 0
-397 0
211 -761 0
-933 700 0
408 -166 0
-23 -862 0
-549 375 0
-988 0
607 -289 0
-368 0
-333 0
-807 318 0
-313 -89 0
-392 -15 0
-444 239 0
-559 0
-180 0
-317 0
-160 0
-807 860 0
-159 533 0
-775 0
-990 454 0
57 -804 0
-749 0
816 -959 0
-856 -447 0
-854 0
96 -477 0
-599 0
-416 0
-380 0
-592 -16 0
-598 0
-986 0
-132 -779 0
-180 -634 0
-903 0
214 -273 0
555 -769 0
-832 287 0
-295 0
-645 791 0
-802 0
-951 327 0
-44 348 0
523 -629 0
-469 -445 0
-674 0
-342 783 0
-192 68 0
-644 -164 0
995 -381 0
782 -201 0
-822 0
509 -802 0
-220 0
-192 0
-605 0
-829 677 0
-24 -107 0
-399 54 0
-536 -729 0
-24 913 0
-496 450 0
476 -748 0
-414 -163 0
-847 -108 0
978 -526 0
-479 0
-916 0
-159 0
-477 412 0
-472 0
-524 0
-169 0
-138 0
-340 669 0
-60 15 0
-168 -639 0
96 -385 0
-975 106 0
-245 -861 0
-717 557 0
-74 -729 0
-516 -433 0
-293 0
-928 0
-764 0
-795 0
-60 0
401 -212 0
157 -594 0
-509 0
-468 0
-891 143 0
-586 0
-759 0
-355 0
-281 0
-420 0
-976 39 0
-582 -734 0
-420 349 0
-215 30 0
-129 0
-354 0
-216 222 0
-672 -958 0
123 -813 0
-457 0
-24 -461 0
-916 375 0
-51 -290 0
339 -249 0
-764 325 0
-717 0
-524 0
-947 53 0
-453 284 0
-906 0
378 -220 0
-916 766 0
-673 0
867 -796 0
-259 -194 0
-577 0
626 -429 0
-134 0
-965 0
-746 0
361 -877 0
-534 0
-78 -28 0
-289 0
-600 177 0
833 -84 0
612 -833 0
-400 -458 0
-705 0
-669 -115 0
-353 0
-642 439 0
-575 0
-771 357 0
-911 -918 0
-478 914 0
-262 -892 0
-471 0
660 -530 0
-62 0
-219 0
-773 495 0
-515 0
-690 0
-156 0
-230 -467 0
-262 603 0
-168 820 0
-403 0
851 -61 0
-93 0
-423 535 0
-399 0
-589 0
-101 0
-746 0
772 -859 0
208 -387 0
-215 19 0
344 -513 0
317 -113 0
-929 0
-152 0
-839 0
-509 781 0
-608 790 0
-149 -917 0
114 -532 0
-265 0
-323 0
-835 0
872 -38 0
-126 0
-198 -554 0
-370 -321 0
-692 0
-515 0
-828 661 0
-698 0
-904 -976 0
-230 -585 0
-650 0
-303 -886 0
685 -682 0
257 -399 0
554 -835 0
-207 -739 0
416 -141 0
-969 0
-858 -658 0
-303 -237 0
-927 621 0
265 -386 0
254 -369 0
-239 0
-189 646 0
794 -411 0
-162 0
-311 0
-76 0
-282 0
216 -370 0
986 -405 0
-503 0
-143 615 0
-393 0
-417 0
-456 0
-116 0
-55 0
-551 0
-459 0
-502 0
-207 -722 0
-627 0
-476 0
-33 0
-721 0
-6 0
-559 622 0
-996 0
722 -610 0
-342 130 0
-464 -997 0
-414 -649 0
906 -81 0
-148 0
-941 0
-768 -956 0
648 -293 0
-689 0
612 -962 0
-991 643 0
269 -417 0
-450 -545 0
-155 646 0
-28 0
-952 -850 0
-584 198 0
-399 -727 0
-664 0
728 -562 0
-768 747 0
931 -193 0
-92 0
-493 0
-569 0
-799 0
259 -155 0
-931 -113 0
-8 -748 0
-672 -864 0
-240 0
-480 -431 0
-605 907 0
-136 0
-192 -33 0
709 -89 0
-640 -739 0
-470 0
400 -931 0
-830 350 0
-520 -996 0
173 -649 0
-406 -763 0
-826 0
-335 99 0
-940 -625 0
484 -522 0
-917 675 0
377 -204 0
-596 0
-606 0
-698 0
-366 0
-646 -609 0
-202 0
-608 888 0
-808 -638 0
256 -752 0
-376 442 0
-896 575 0
-616 483 0
-126 0
-836 141 0
-134 -196 0
-743 -597 0
-600 -834 0
-45 0
-390 45 0
-789 0
-151 389 0
-440 -877 0
873 -522 0
-647 229 0
-791 0
-677 751 0
-336 512 0
-137 0
-672 -259 0
174 -425 0
-114 0
-971 -906 0
41 -285 0
-308 382 0
792 -741 0
497 -757 0
-848 371 0
-673 -585 0
-754 0
-96 735 0
-99 0
-847 746 0
-375 0
-192 0
675 -907 0
-56 -730 0
-318 -698 0
-789 0
-794 0
-544 235 0
-213 149 0
-247 -133 0
-949 156 0
-723 -91 0
-44 0
-333 -349 0
-54 0
734 -729 0
-358 29 0
472 -23 0
-863 -899 0
-560 -272 0
892 -530 0
-376 -233 0
-852 574 0
-964 -9 0
-560 -761 0
-877 -51 0
-23 -86 0
-399 0
475 -987 0
121 -22 0
-421 491 0
-116 0
-869 0
729 -763 0
-823 0
913 -251 0
-133 0
-450 0
-311 0
-637 -621 0
-351 733 0
604 -491 0
-333 0
-775 972 0
-265 0
-800 -90 0
-672 0
-292 -267 0
-668 0
201 -391 0
-713 0
-883 0
-591 -533 0
-423 654 0
-439 -355 0
20 -473 0
-23 82 0
849 -796 0
-701 -50 0
769 -523 0
627 -876 0
-39 -309 0
-526 0
-584 899 0
-108 405 0
881 -78 0
-382 -996 0
458 -858 0
-199 0
337 -326 0
-106 0
386 -717 0
-943 -99 0
553 -689 0
-816 -210 0
-360 13 0
-489 0
-200 0
-422 787 0
-110 0
769 -601 0
-419 63 0
-611 0
-171 0
-438 805 0
-264 929 0
-982 0
-326 -929 0
-311 0
502 -665 0
-348 388 0
-677 0
-125 -476 0
-135 0
-622 -58 0
-48 -338 0
-630 0
-863 699 0
-904 0
-629 -684 0
-423 -166 0
-942 -249 0
-581 0
-445 629 0
-776 -589 0
-231 0
-912 -354 0
-124 0
-448 -363 0
-974 0
-508 0
-238 0
-742 0
-557 895 0
-405 0
-453 0
-181 0
-985 -9 0
-199 306 0
-621 0
-385 0
-883 0
-684 0
309 -217 0
-213 -148 0
-24 -532 0
-750 0
-52 0
361 -366 0
-80 201 0
-311 0
-129 0
-278 419 0
-469 -628 0
178 -770 0
-510 0
-846 835 0
-182 -657 0
-741 -653 0
-837 205 0
-751 0
-50 0
176 -546 0
928 -901 0
-257 0
-741 0
-167 870 0
-349 0
-553 0
-645 0
-840 85 0
-992 -991 0
-136 0
-454 636 0
-358 -571 0
-597 0
-695 -622 0
-757 -658 0
-740 0
-496 -375 0
-101 0
9 -450 0
-360 0
-901 0
-951 -655 0
-791 317 0
537 -573 0
-589 687 0
-406 -466 0
-200 -402 0
188 -35 0
633 -162 0
563 -977 0
-254 0
-1000 -474 0
-649 0
-464 0
-870 -826 0
260 -236 0
-116 0
848 -363 0
-942 0
-384 828 0
441 -154 0
368 -516 0
683 -308 0
-244 -930 0
24 -823 0
-756 0
-369 0
-221 739 0
57 -553 0
-266 0
-758 798 0
-289 0
598 -913 0
-229 0
-791 0
-267 0
-871 99 0
440 -191 0
-460 23 0
-973 0
-677 0
565 -682 0
835 -700 0
453 -186 0
-936 -518 0
-989 749 0
-175 0
-357 -867 0
-68 0
-275 0
-586 0
-547 695 0
-313 679 0
612 -410 0
264 -589 0
-884 0
454 -657 0
-672 0
-412 0
-847 0
-73 0
-280 283 0
-705 0
480 -72 0
-820 0
-810 0
-625 0
-183 -847 0
-762 0
882 -973 0
-404 0
-310 0
760 -819 0
665 -127 0
-945 0
-69 0
-249 0
-165 0
-480 -108 0
-336 4 0
-376 0
-293 980 0
328 -649 0
-89 0
-44 671 0
720 -575 0
994 -436 0
-527 0
307 -93 0
-229 -331 0
-559 0
-629 -227 0
-556 0
51 -618 0
-655 -421 0
618 -770 0
-723 -379 0
550 -297 0
329 -701 0
-258 0
-295 123 0
508 -938 0
539 -77 0
-234 -361 0
-412 -28 0
-230 -666 0
-350 -870 0
-388 0
-312 0
-219 -579 0
-879 0
537 -594 0
304 -284 0
-236 0
-662 0
-818 0
-833 0
-48 -944 0
-30 0
-684 125 0
-494 -420 0
907 -819 0
-699 0
-498 207 0
642 -724 0
768 -688 0
-483 773 0
-472 0
-739 -906 0
-880 459 0
-890 -721 0
-543 116 0
-586 367 0
9 -684 0
-375 -855 0
-539 0
-80 633 0
-994 0
-954 -953 0
-630 -34 0
-414 437 0
-430 -997 0
-160 646 0
-714 0
476 -193 0
-71 -54 0
-523 -241 0
625 -933 0
507 -627 0
-656 -491 0
-324 -483 0
-882 246 0
-720 277 0
756 -457 0
529 -706 0
421 -241 0
-646 204 0
992 -889 0
-159 0
-693 0
189 -610 0
-716 797 0
-717 925 0
412 -523 0
-177 0
193 -381 0
261 -786 0
316 -673 0
-564 -907 0
203 -748 0
-164 -244 0
-87 -277 0
736 -679 0
-759 0
-295 0
-803 0
-536 99 0
-429 854 0
-46 0
-228 0
-672 291 0
-240 -223 0
-534 0
-138 0
356 -603 0
-82 -753 0
-639 0
-103 -645 0
-854 -979 0
-696 0
-539 863 0
352 -54 0
-687 649 0
734 -433 0
-54 501 0
368 -197 0
-198 0
-771 0
-919 -393 0
809 -86 0
-460 0
-625 0
-866 0
-773 0
-624 0
-826 0
-414 0
818 -653 0
-965 0
-312 662 0
-87 -614 0
-432 -882 0
-838 -626 0
-410 0
-842 263 0
-499 0
-767 0
-409 0
-628 -211 0
-809 0
-82 0
-719 0
-601 0
-133 -563 0
-929 0
524 -107 0
-456 -875 0
-861 572 0
-335 0
-779 0
-485 687 0
-469 0
-302 -413 0
-691 0
274 -371 0
-375 -780 0
-177 0
-579 0
-740 0
-975 107 0
243 -76 0
-508 0
-880 -559 0
-146 0
-540 -530 0
-197 0
-708 0
-994 591 0
-399 0
252 -603 0
-324 789 0
-890 0
840 -623 0
-488 60 0
-921 0
-20 0
-884 796 0
-491 -986 0
-799 0
-981 -489 0
722 -230 0
-780 0
-301 -637 0
685 -538 0
-301 -211 0
-132 0
-726 -65 0
-868 -716 0
-327 0
-815 0
-495 0
-445 -781 0
-28 0
-966 0
-667 0
699 -996 0
-615 0
836 -169 0
-80 0
11 -499 0
-757 350 0
-974 453 0
-988 0
-732 0
-128 352 0
-977 0
-847 0
-374 0
234 -645 0
-413 0
-946 286 0
684 -217 0
-363 0
-300 0
-617 0
-876 -379 0
56 -810 0
448 -833 0
-713 0
-863 0
-407 932 0
-150 0
-128 0
-447 0
-440 7 0
-182 0
-402 0
-856 -329 0
-902 0
-149 0
395 -164 0
907 -67 0
-320 964 0
-716 0
-545 647 0
-272 0
924 -161 0
-109 0
-192 94 0
225 -428 0
-284 0
-813 -234 0
-565 0
-702 -522 0
-731 0
-604 -196 0
489 -409 0
-504 -116 0
-311 0
-81 0
-995 -811 0
-402 -817 0
-515 0
-599 370 0
-539 -235 0
-479 499 0
84 -233 0
-285 443 0
-696 0
-435 0
592 -546 0
-555 -401 0
-421 997 0
564 -27 0
-625 0
-863 0
-550 0
-119 -390 0
-775 510 0
-611 0
-879 0
-708 0
-8 958 0
-973 260 0
-580 287 0
-440 0
-539 -122 0
-322 0
-697 0
-810 0
-539 0
-858 0
-827 0
-640 0
-791 715 0
660 -113 0
-509 -834 0
-133 0
-622 406 0
-757 -282 0
-340 0
-909 0
-648 227 0
-415 -973 0
416 -346 0
64 -500 0
-674 0
-229 0
-1 0
-448 740 0
-425 0
-204 -906 0
-998 -836 0
-424 -173 0
-232 0
-373 0
-695 599 0
-594 0
-765 0
-420 734 0
-322 -226 0
-596 -587 0
312 -662 0
-849 0
-159 -445 0
128 -622 0
612 -996 0
-61 0
-318 -665 0
-964 0
-341 333 0
-297 0
-445 -267 0
-910 -418 0
379 -10 0
-640 469 0
-47 0
634 -549 0
-311 487 0
-336 0
-782 299 0
964 -675 0
-495 -218 0
208 -788 0
-516 0
-383 0
-614 0
-191 0
-667 0
704 -923 0
-800 0
-637 822 0
-806 -314 0
-84 -257 0
520 -877 0
-869 -83 0
-362 0
-7 0
-141 0
-154 0
-646 711 0
-363 0
-661 0
-467 543 0
-976 -502 0
-841 0
-722 0
-710 -772 0
-682 0
-887 0
-65 0
123 -547 0
-307 0
-364 0
-86 211 0
-972 0
-412 0
-376 436 0
-605 0
481 -229 0
-492 0
-988 0
713 -796 0
-230 -788 0
160 -614 0
-805 -346 0
914 -459 0
-183 181 0
37 -682 0
-725 -420 0
-295 737 0
152 -793 0
-623 0
-762 0
-836 0
-576 0
-838 -42 0
-968 550 0
-761 0
323 -531 0
-418 0
-951 -478 0
-875 -418 0
-390 895 0
-7 -89 0
-256 0
-255 -274 0
-92 -937 0
936 -614 0
-654 652 0
-591 0
-182 422 0
-81 0
-125 -578 0
-234 0
-766 0
-398 0
739 -659 0
-693 0
-876 -890 0
-902 0
-287 0
-815 -292 0
-770 -593 0
-239 0
793 -993 0
-452 -74 0
-144 758 0
-479 835 0
-957 373 0
-293 0
-823 0
-12 0
-50 -17 0
-212 0
-101 -28 0
-311 0
-437 0
-924 68 0
-279 -284 0
-953 -145 0
-180 309 0
-80 66 0
-714 0
-150 0
-232 0
-842 0
-659 0
-22 0
-34 0
-712 0
-908 0
-548 -827 0
-90 0
675 -801 0
-481 0
811 -155 0
-325 -620 0
-512 187 0
947 -657 0
-429 -50 0
-8 197 0
-63 0
-571 0
498 -59 0
-887 -5 0
-229 0
-813 143 0
368 -137 0
673 -821 0
-560 -285 0
-10 0
-876 0
-614 -341 0
181 -474 0
409 -649 0
-480 347 0
282 -305 0
-246 -131 0
148 -450 0
-159 -611 0
-947 0
-204 0
-95 190 0
-351 126 0
-739 0
-795 0
398 -546 0
644 -633 0
-420 -59 0
-755 -401 0
396 -803 0
-938 0
-769 0
-399 -709 0
-72 165 0
-813 0
604 -753 0
-505 0
-114 0
-475 0
-47 311 0
-477 670 0
-839 0
-793 0
-800 -433 0
8 -43 0
646 -538 0
-708 0
-144 0
-87 919 0
332 -66 0
-616 -107 0
-454 702 0
-947 -337 0
-616 0
-79 0
-750 0
-690 0
856 -741 0
-58 -506 0
219 -225 0
-751 -425 0
-435 0
-804 0
-896 -126 0
-312 0
922 -917 0
-576 0
-750 -366 0
849 -371 0
-27 0
-174 963 0
-150 0
-849 927 0
-655 -869 0
-342 -371 0
-262 733 0
-570 0
-668 910 0
-86 255 0
-22 0
-31 -790 0
-657 0
418 -585 0
-477 987 0
-774 534 0
-55 0
-594 0
849 -918 0
-438 524 0
-750 172 0
240 -301 0
459 -67 0
51 -699 0
-817 0
-351 -802 0
-804 0
-798 -809 0
-201 0
-37 940 0
-732 0
-608 821 0
-361 0
-79 -702 0
-317 -290 0
-437 -290 0
-197 916 0
-159 0
-151 44 0
-944 0
-371 0
-445 -626 0
-440 830 0
-498 0
-651 -43 0
-268 0
507 -931 0
-29 0
-95 0
-513 0
369 -57 0
-760 438 0
-950 405 0
-824 485 0
-682 0
-460 845 0
-964 438 0
769 -652 0
172 -609 0
-15 886 0
-855 0
-935 0
276 -386 0
-716 -338 0
350 -682 0
-566 0
-126 0
-68 0
-678 0
-251 0
-976 0
-452 -258 0
-336 -193 0
-199 -548 0
-896 0
-498 0
-212 878 0
-149 159 0
962 -222 0
-394 0
-563 0
-916 -498 0
-608 0
-648 -581 0
434 -561 0
-592 960 0
-563 -898 0
-288 0
-920 -332 0
-772 0
-995 0
656 -648 0
-245 372 0
-157 0
-144 -236 0
-226 0
-816 0
-450 0
468 -194 0
200 -762 0
-126 0
500 -609 0
-332 0
-389 -484 0
888 -171 0
-746 0
-662 0
-724 0
-430 119 0
-774 -396 0
-527 -158 0
-440 857 0
-344 0
496 -617 0
-143 186 0
333 -10 0
-684 837 0
-116 0
-559 -876 0
169 -451 0
-170 0
-712 442 0
-648 607 0
-33 0
-36 0
-963 638 0
-967 -877 0
-163 0
-224 -402 0
3 -737 0
-511 -181 0
-8 -526 0
-109 0
-538 0
889 -238 0
-840 0
-35 0
-181 574 0
-741 -637 0
-655 758 0
480 -765 0
129 -767 0
786 -466 0
-729 0
-726 -218 0
330 -298 0
337 -465 0
-797 743 0
-60 0
-873 0
-794 0
-37 0
-637 0
-975 -579 0
-516 759 0
-386 0
-743 0
954 -493 0
-73 0
976 -216 0
-900 0
261 -570 0
-589 0
-535 0
-82 0
-948 0
-64 261 0
-487 743 0
-453 0
-789 -756 0
652 -89 0
-931 430 0
-326 0
-470 0
-283 0
-836 0
-640 0
-159 -153 0
-456 0
-505 0
-274 0
-919 0
596 -450 0
-13 0
956 -475 0
-113 0
-397 0
385 -302 0
-60 557 0
-531 0
-216 0
-236 0
-528 -317 0
-406 0
-348 0
-920 -934 0
-978 0
-986 0
306 -938 0
790 -361 0
-815 -724 0
942 -865 0
-604 -793 0
-717 -649 0
-401 0
209 -409 0
-916 0
-850 0
-380 -532 0
-843 111 0
-756 -433 0
-921 0
-174 380 0
-400 -752 0
-122 0
304 -253 0
-897 0
61 -843 0
-710 0
720 -175 0
-6 -237 0
-312 105 0
-664 -502 0
-223 0
-966 0
-508 0
-676 0
-717 -458 0
-101 0
-893 -42 0
-802 0
-198 -619 0
-625 0
-815 -538 0
-463 681 0
-624 -206 0
-991 -194 0
18 -12 0
-1000 0
110 -249 0
185 -220 0
483 -338 0
-646 -977 0
-220 990 0
-134 0
152 -546 0
675 -731 0
-887 -147 0
-989 -595 0
-349 0
938 -526 0
-364 799 0
-810 0
-183 -838 0
-873 0
-796 0
-819 0
-735 -819 0
26 -804 0
-804 0
-467 -281 0
505 -199 0
-675 0
792 -341 0
-553 0
-629 0
731 -475 0
-5 -188 0
-785 0
-317 -450 0
-990 -98 0
300 -3 0
253 -545 0
-361 0
-423 195 0
-132 948 0
434 -491 0
57 -401 0
-549 237 0
-282 671 0
-165 0
-715 0
-488 0
-489 0
-536 0
-521 0
-707 391 0
-953 0
-823 83 0
-154 0
-255 470 0
-303 746 0
-910 -229 0
-518 -614 0
299 -393 0
62 -649 0
-139 0
-351 -755 0
-293 147 0
-725 503 0
994 -341 0
944 -575 0
-792 216 0
-944 657 0
-612 157 0
772 -418 0
-114 0
-487 0
-996 0
-51 0
-476 -841 0
-946 0
-177 0
-606 0
-942 675 0
915 -705 0
-903 882 0
-173 -746 0
-57 0
-622 0
933 -329 0
-625 879 0
483 -65 0
-847 -717 0
-419 0
-787 0
-275 -937 0
-367 -921 0
893 -267 0
-654 -363 0
522 -734 0
401 -763 0
600 -308 0
162 -876 0
-610 0
364 -226 0
-695 860 0
-115 -843 0
-804 0
-198 0
-302 -356 0
-607 0
-709 0
-437 275 0
874 -621 0
-287 -733 0
37 -657 0
-205 -717 0
-954 0
-351 0
-407 0
104 -418 0
-259 0
-765 0
475 -458 0
723 -169 0
-279 -844 0
-46 -385 0
-966 -579 0
-75 -938 0
-513 0
962 -906 0
-509 -971 0
-371 0
-541 308 0
-615 0
-912 -721 0
-760 -692 0
-563 0
-786 0
-502 -874 0
972 -444 0
-158 0
-540 -809 0
561 -857 0
-887 -820 0
-757 -19 0
219 -908 0
-606 -397 0
-920 -826 0
-862 924 0
-957 59 0
-31 -685 0
-357 -825 0
-505 0
720 -428 0
-550 -225 0
573 -954 0
-167 0
-241 0
934 -905 0
-766 0
791 -105 0
-972 0
883 -121 0
-508 0
-471 -74 0
-247 -379 0
-111 371 0
-269 494 0
-895 934 0
233 -887 0
-749 478 0
-566 365 0
337 -612 0
-496 -60 0
-232 0
-492 -980 0
441 -125 0
-548 564 0
360 -710 0
-394 0
-354 415 0
-405 0
-948 0
-982 -644 0
-518 0
-267 0
-893 0
-623 0
-717 989 0
-543 0
-520 984 0
-940 0
-246 844 0
-847 290 0
-919 0
-529 0
-747 230 0
-808 -633 0
-709 -458 0
-43 870 0
928 -278 0
-398 675 0
-574 366 0
-718 0
-294 -668 0
-31 495 0
972 -444 0
-333 -97 0
-906 0
-317 0
-376 641 0
-600 798 0
736 -437 0
649 -931 0
-155 0
-836 -306 0
-925 -18 0
-576 29 0
640 -659 0
-293 0
-6 -868 0
-913 0
-403 -273 0
-574 -213 0
672 -731 0
-841 0
34 -225 0
-833 0
-678 407 0
-9 0
-106 -345 0
-376 -738 0
585 -329 0
-728 -589 0
-516 -467 0
-472 772 0
-9 0
-792 -434 0
200 -453 0
-796 0
-32 -732 0
-348 662 0
-112 175 0
-420 -442 0
688 -787 0
690 -554 0
616 -206 0
-726 -850 0
-622 -122 0
227 -706 0
-262 75 0
-457 671 0
-861 -451 0
-707 0
98 -219 0
-907 495 0
-695 0
-370 0
-648 0
-378 0
-880 0
-638 0
818 -700 0
-443 0
-338 0
-615 436 0
-662 653 0
-455 -66 0
-663 635 0
34 -658 0
-331 0
-340 501 0
505 -20 0
-352 -761 0
-893 0
-246 -929 0
-264 0
-51 -217 0
-150 0
-548 0
507 -297 0
-438 0
-200 765 0
-664 873 0
-320 -581 0
609 -729 0
-164 0
34 -934 0
-237 0
-719 181 0
-936 0
-189 359 0
-799 0
-261 124 0
680 -104 0
-187 0
-853 -635 0
16 -123 0
-687 0
-333 356 0
-795 0
-648 0
154 -477 0
-242 0
-157 0
-534 119 0
-494 295 0
-881 607 0
-900 550 0
-478 469 0
-550 -234 0
-415 -958 0
-367 597 0
-859 0
-498 0
549 -442 0
900 -939 0
755 -716 0
-76 0
-141 -290 0
-844 0
-119 -102 0
-368 506 0
-996 518 0
-926 647 0
-847 0
-711 -654 0
-620 350 0
-886 798 0
-952 282 0
-222 -286 0
395 -361 0
-53 751 0
-751 -221 0
200 -947 0
-658 863 0
736 -918 0
-521 0
452 -403 0
-938 0
713 -557 0
-703 -751 0
-727 -750 0
-377 0
-632 -396 0
-335 0
86 -937 0
-988 735 0
834 -667 0
-111 0
-698 542 0
-789 0
-189 582 0
-196 0
301 -945 0
-518 406 0
-248 -367 0
-896 817 0
-973 -825 0
-640 861 0
-170 167 0
-60 518 0
-596 317 0
-137 0
-325 0
-102 -740 0
-696 -1 0
417 -876 0
-677 -315 0
-889 55 0
-494 958 0
-683 927 0
-557 0
-770 0
-822 530 0
-717 -805 0
259 -308 0
83 -458 0
363 -867 0
-941 -413 0
-982 0
-69 0
-487 621 0
342 -177 0
-604 0
-555 0
-845 606 0
-375 0
-797 0
-255 0
-577 0
-280 0
-433 0
-696 0
809 -861 0
-283 0
-290 0
-101 0
240 -575 0
-697 0
-23 0
-720 0
-250 0
-230 725 0
-37 -500 0
-674 0
-893 0
442 -42 0
-499 -513 0
-222 565 0
-477 -530 0
819 -171 0
-324 0
-318 -51 0
-104 0
-496 315 0
-894 181 0
142 -946 0
-229 -426 0
-672 940 0
-267 -729 0
99 -865 0
-769 0
-147 0
-87 -341 0
-25 0
-470 772 0
-824 -787 0
-774 -371 0
-54 0
-333 0
-909 -371 0
-783 0
421 -953 0
524 -314 0
-475 0
680 -450 0
-744 506 0
-751 405 0
-18 0
-471 -913 0
320 -255 0
-794 0
-769 0
-253 494 0
-551 0
-421 0
-760 933 0
-225 0
-246 0
219 -673 0
427 -841 0
-787 -41 0
-109 0
-432 649 0
-430 0
-69 0
-911 -922 0
-983 396 0
-43 0
449 -733 0
-760 0
-431 0
-960 29 0
-870 0
729 -289 0
-222 0
-55 886 0
-814 181 0
-97 0
-132 0
-131 0
-401 0
-891 0
-958 -917 0
352 -317 0
-155 -714 0
-684 -433 0
-902 -212 0
-477 755 0
-573 0
-599 530 0
-416 505 0
-55 -803 0
-825 0
-471 -181 0
-926 -827 0
-950 0
-796 0
-840 0
-164 445 0
555 -212 0
-577 0
-994 0
-966 0
898 -180 0
-665 0
-784 267 0
-297 0
-5 0
-261 950 0
-838 -142 0
-462 190 0
-945 0
765 -363 0
-749 636 0
-894 -714 0
-670 910 0
-738 0
-552 671 0
-710 -813 0
-791 681 0
441 -212 0
-706 199 0
-719 -237 0
473 -92 0
-883 0
-951 654 0
-51 0
-255 231 0
-800 0
-199 -617 0
841 -642 0
-27 0
-788 0
-952 -88 0
-350 0
-781 0
-310 886 0
-702 0
-684 0
-72 -606 0
712 -113 0
-784 994 0
-712 0
-712 20 0
-182 -246 0
48 -85 0
-852 0
-510 -421 0
-804 0
-98 0
-976 0
547 -179 0
-296 0
-364 621 0
-656 0
-450 0
-912 -826 0
-3 423 0
140 -83 0
681 -163 0
-247 116 0
-608 -235 0
-429 69 0
-518 263 0
-456 802 0
-687 0
-152 0
-859 -418 0
-144 -589 0
-244 0
-564 20 0
-693 -549 0
-381 5 0
713 -300 0
-840 -189 0
-726 455 0
-417 0
809 -700 0
24 -751 0
-335 -788 0
-396 0
-301 564 0
-860 -513 0
-55 -34 0
-709 -297 0
-742 -181 0
-924 0
395 -364 0
-925 0
-454 0
296 -164 0
-120 -921 0
-78 332 0
-695 97 0
939 -762 0
-283 0
873 -242 0
-143 -353 0
-440 -328 0
-665 0
-512 0
636 -722 0
757 -17 0
-52 0
-509 0
-361 303 0
857 -594 0
-407 0
-359 451 0
-471 0
-415 629 0
930 -462 0
-694 -805 0
-46 0
-183 -135 0
-789 0
-413 -187 0
-357 0
-371 0
-921 0
-28 0
-559 -665 0
979 -619 0
674 -203 0
-96 0
164 -556 0
-180 0
-212 -529 0
-119 390 0
-695 0
-699 15 0
66 -555 0
-433 0
-454 -377 0
-166 581 0
946 -785 0
-391 -461 0
-371 -841 0
-819 0
416 -658 0
810 -230 0
-247 0
-835 0
-872 0
305 -313 0
-156 0
-248 698 0
-766 -930 0
-711 0
-491 -107 0
-710 900 0
-278 139 0
-270 205 0
856 -804 0
-519 -221 0
929 -580 0
-862 34 0
-237 -41 0
-406 0
-198 0
-638 0
-953 0
-391 -250 0
-802 -474 0
-126 -587 0
530 -67 0
-760 498 0
-130 0
-435 -75 0
-922 0
-444 375 0
-525 -539 0
-114 0
-582 0
-63 -522 0
-792 627 0
423 -465 0
-423 0
-506 0
-143 0
-580 -323 0
-700 0
457 -855 0
984 -600 0
22 -81 0
-548 0
29 -217 0
-584 -95 0
-837 -850 0
-327 0
-628 685 0
-288 0
-365 0
-225 0
-280 658 0
-590 0
-330 0
-131 0
498 -4 0
66 -249 0
-622 0
-340 0
675 -865 0
-207 0
-668 0
-280 -533 0
-285 0
-214 595 0
-847 0
-62 0
-116 -850 0
681 -241 0
-446 460 0
920 -238 0
-481 0
-117 0
969 -972 0
-437 -99 0
-1 0
949 -538 0
785 -403 0
-321 0
-235 0
-758 -966 0
-900 -194 0
320 -7 0
699 -179 0
-575 0
-260 334 0
-616 -425 0
-79 -973 0
-940 783 0
-102 0
-123 502 0
537 -198 0
-572 0
712 -850 0
-623 -937 0
-716 0
-270 0
-966 0
-732 895 0
-213 555 0
-322 0
-547 677 0
-581 -18 0
-997 677 0
-992 357 0
-9 0
-768 -727 0
-52 -322 0
-519 711 0
-326 -204 0
48 -49 0
-218 0
-228 0
-732 0
-509 0
-759 0
-688 982 0
-84 -236 0
-638 0
817 -978 0
-457 87 0
-28 0
425 -757 0
299 -267 0
-648 0
-985 0
-763 0
-50 -993 0
-584 0
-758 902 0
-423 19 0
-589 0
-375 0
-450 0
-169 0
-174 420 0
857 -311 0
-368 -829 0
-516 -170 0
-958 -755 0
210 -683 0
-957 279 0
-944 0
-605 0
-960 268 0
-475 22 0
-583 322 0
-22 -77 0
-42 0
368 -410 0
-440 773 0
-582 0
720 -181 0
-179 0
-278 -532 0
973 -138 0
-103 275 0
-169 0
-248 356 0
-267 0
-495 245 0
-638 375 0
-365 0
-501 852 0
284 -266 0
868 -522 0
-154 -249 0
-699 0
-336 903 0
-724 0
-575 0
33 -819 0
-841 0
-563 0
97 -885 0
-540 0
-717 -172 0
-758 -349 0
-37 0
-862 106 0
600 -379 0
-768 -775 0
924 -420 0
-296 619 0
513 -572 0
-620 815 0
22 -233 0
-544 -282 0
-634 0
-247 282 0
-201 0
-534 -306 0
-683 -601 0
-750 0
-643 0
-280 0
-344 0
-495 0
-624 -158 0
513 -794 0
-367 0
-335 0
-250 0
-192 -862 0
-790 487 0
-300 580 0
-606 -438 0
530 -618 0
-901 93 0
-767 0
409 -677 0
-571 0
626 -932 0
-560 -165 0
-198 0
-714 0
-89 0
-857 0
-359 0
-403 0
-62 0
-53 0
308 -233 0
-930 0
906 -977 0
-498 0
-583 -874 0
785 -516 0
-993 0
370 -755 0
936 -38 0
200 -107 0
-394 -186 0
-405 -301 0
-491 0
-360 173 0
-898 0
-209 0
752 -437 0
971 -537 0
-94 0
-391 0
-634 0
-247 -289 0
-272 97 0
-318 -836 0
-471 459 0
-45 -818 0
762 -506 0
-540 0
-832 199 0
-540 0
-156 820 0
-138 0
-94 0
-810 0
-455 -106 0
-171 0
-600 0
-138 0
-934 267 0
-969 0
-280 95 0
-670 -849 0
-186 0
-428 583 0
-607 383 0
-232 0
-927 113 0
-229 0
-335 0
740 -146 0
-119 7 0
-748 0
-320 225 0
-863 27 0
-582 0
-343 0
-176 0
-438 -493 0
-800 0
-782 0
-789 502 0
-738 0
-980 0
-198 -779 0
-85 0
-45 0
-887 0
-680 -741 0
-135 867 0
-357 0
-97 0
-528 256 0
-584 -239 0
-888 -166 0
186 -260 0
-5 -348 0
-983 0
763 -522 0
-452 0
-914 0
-687 0
-504 0
-571 0
-280 481 0
-573 -43 0
-209 0
-587 0
-441 0
-708 0
624 -500 0
307 -60 0
-909 0
-348 519 0
-839 0
-367 935 0
411 -435 0
-885 0
568 -291 0
360 -228 0
-972 0
-975 0
248 -261 0
-822 259 0
-64 40 0
-44 0
-174 0
-645 103 0
-102 0
-885 0
-146 0
-227 645 0
-991 0
-964 0
152 -790 0
45 -595 0
-72 443 0
984 -417 0
-621 0
-878 -532 0
-505 0
-397 0
-562 0
-419 0
-575 -493 0
-599 -185 0
-893 0
-876 -873 0
-250 47 0
-444 653 0
-935 923 0
-98 0
-765 0
-703 -969 0
-898 215 0
-948 0
-670 0
-854 0
-457 0
-270 261 0
-334 0
-58 -514 0
-560 -154 0
-146 0
-493 -853 0
576 -964 0
-683 0
-526 0
-904 898 0
-687 -549 0
-531 143 0
56 -858 0
-993 0
-518 0
-592 0
-710 108 0
-108 -122 0
363 -988 0
-554 0
-54 37 0
602 -490 0
-231 -233 0
-146 710 0
387 -309 0
274 -701 0
-279 0
-88 0
-342 0
-383 -897 0
-868 0
458 -92 0
834 -700 0
81 -317 0
-736 0
49 -683 0
-118 0
-564 -297 0
-189 0
-899 29 0
-948 0
-854 0
-446 0
-989 0
-27 133 0
-264 -993 0
-791 236 0
-356 0
-639 452 0
-756 0
627 -449 0
-976 -7 0
-131 0
-375 301 0
-702 534 0
-893 -929 0
155 -956 0
-984 0
621 -826 0
-653 -874 0
-274 0
-722 0
405 -99 0
-983 0
-112 -601 0
-253 0
-839 430 0
-390 0
-238 0
-431 -73 0
-132 -732 0
-220 0
-49 0
-868 150 0
528 -847 0
-793 0
-967 -372 0
-335 -441 0
-303 807 0
904 -237 0
-80 854 0
520 -977 0
-76 -228 0
-133 -476 0
-636 -458 0
-221 796 0
613 -145 0
-959 -298 0
977 -426 0
-392 0
-887 534 0
-385 0
-794 -265 0
-341 0
-936 124 0
366 -777 0
637 -450 0
-945 0
731 -740 0
-824 954 0
-662 900 0
-894 0
-237 -644 0
-5 -882 0
-567 292 0
-997 727 0
-763 -49 0
-266 15 0
-664 0
308 -337 0
-729 0
-899 0
-488 925 0
-591 -524 0
428 -636 0
-176 812 0
-247 -622 0
291 -739 0
-392 573 0
-749 -292 0
-375 174 0
-695 -522 0
162 -387 0
-757 0
220 -243 0
-183 0
-224 0
-46 0
-889 0
752 -695 0
-512 -202 0
-991 0
-503 0
-740 0
-951 -281 0
-275 0
226 -601 0
-788 479 0
360 -540 0
-647 0
-72 -835 0
-878 0
666 -725 0
-40 89 0
-176 218 0
-289 0
-406 302 0
-500 0
-8 676 0
812 -827 0
-976 0
-651 0
488 -622 0
82 -513 0
-535 -126 0
675 -73 0
-120 78 0
-829 0
-64 306 0
-560 -581 0
-110 -13 0
-735 0
627 -397 0
-144 0
-69 -673 0
785 -637 0
-360 452 0
-680 972 0
-716 0
656 -113 0
-846 0
-173 39 0
-722 0
-654 -388 0
-530 0
-176 874 0
35 -12 0
-18 0
-288 -116 0
-220 0
-662 0
-772 15 0
59 -51 0
-659 -785 0
-671 -805 0
-849 0
-898 0
-543 0
-630 364 0
-40 -774 0
-783 0
744 -424 0
-551 0
-73 0
-483 -323 0
-485 -85 0
-526 422 0
-594 0
-115 183 0
-612 317 0
-447 0
673 -84 0
-632 -594 0
-600 -135 0
-680 0
-548 0
-338 0
-323 0
4 -705 0
-878 0
-798 0
-484 614 0
-311 826 0
-127 0
-504 -458 0
-974 877 0
111 -25 0
971 -329 0
-985 0
-625 0
-727 830 0
-201 0
-62 0
-475 391 0
289 -339 0
-501 -673 0
-650 -465 0
515 -660 0
-828 0
681 -386 0
-164 837 0
-663 0
-808 0
634 -884 0
875 -450 0
-789 -331 0
-439 -109 0
-675 734 0
-356 -475 0
-542 0
-632 0
104 -571 0
-957 0
-30 131 0
-940 0
-695 -574 0
-704 -636 0
794 -329 0
-759 844 0
-794 0
-776 0
-312 0
-709 -212 0
-997 -356 0
-912 -239 0
49 -446 0
-759 -791 0
-254 -109 0
-428 21 0
-155 -905 0
-472 -111 0
-944 -42 0
-732 0
876 -444 0
-356 -74 0
-506 0
-546 0
-342 0
-400 -80 0
-86 485 0
469 -434 0
-943 844 0
-446 -330 0
-253 483 0
-630 0
-867 -810 0
-338 0
353 -650 0
-152 -198 0
169 -466 0
-486 0
-487 23 0
-480 0
970 -629 0
384 -625 0
-506 0
8 -263 0
-868 0
105 -617 0
765 -777 0
-410 0
-167 854 0
-152 355 0
403 -837 0
-425 0
-48 644 0
-208 556 0
-997 0
-985 0
-860 0
-624 -143 0
-942 62 0
-799 0
-853 0
537 -514 0
-907 0
-728 0
-926 -993 0
221 -778 0
506 -381 0
-704 216 0
-755 134 0
-392 -603 0
-84 0
672 -902 0
-583 0
857 -551 0
-849 0
648 -735 0
-64 -778 0
-790 -421 0
-351 127 0
-903 0
-104 0
-510 0
-301 670 0
458 -819 0
136 -161 0
-915 0
-113 0
152 -893 0
-970 0
-679 210 0
-950 -557 0
-501 0
-439 0
-613 0
-782 0
808 -61 0
-984 865 0
-203 0
-724 837 0
473 -622 0
467 -307 0
428 -859 0
-712 -572 0
-756 -450 0
-603 0
-272 797 0
-530 0
-262 -69 0
-512 527 0
-892 596 0
-694 231 0
37 -761 0
-1000 0
-373 0
856 -810 0
-815 -726 0
-328 -32 0
-622 -980 0
-432 0
-723 0
-135 374 0
-57 0
-786 0
-709 -250 0
-19 0
-551 86 0
-606 0
-211 0
-366 -546 0
-373 0
769 -859 0
-34 0
-866 0
-445 0
-31 282 0
-832 0
-98 0
884 -468 0
-927 393 0
-340 -130 0
-904 -227 0
-267 0
-118 0
-850 0
243 -516 0
824 -201 0
-885 0
-157 0
-798 0
4 -19 0
942 -761 0
283 -905 0
-322 0
-199 554 0
-433 0
-967 141 0
-931 0
-809 0
-835 0
-764 -2 0
-381 0
337 -558 0
-461 0
-369 0
164 -19 0
-262 -193 0
-511 0
-354 0
-275 0
-298 0
-14 0
-698 0
-525 -514 0
48 -658 0
-159 526 0
-942 0
-701 0
-672 544 0
645 -970 0
-954 0
-862 0
-123 0
-255 0
-857 0
-120 -627 0
-781 -531 0
-669 0
-237 -324 0
178 -949 0
-900 -858 0
-961 0
-823 -809 0
-80 478 0
-430 0
-52 893 0
593 -423 0
-884 0
-820 0
-796 0
-646 -756 0
-701 0
-7 -865 0
-528 -974 0
-967 0
-311 0
900 -505 0
-372 534 0
-91 0
-568 -283 0
-503 211 0
-612 782 0
-332 0
-719 0
-557 0
-373 0
-908 -772 0
582 -865 0
-695 635 0
368 -156 0
-293 -993 0
-64 0
-378 -369 0
-993 0
-738 831 0
-148 -867 0
-419 0
-761 0
-854 0
-830 -876 0
-130 0
-706 0
-32 538 0
-525 158 0
-573 -827 0
-264 -243 0
-859 -657 0
-687 165 0
-713 0
-772 -67 0
-591 0
-920 0
-88 0
-446 406 0
50 -785 0
-920 56 0
-544 0
-688 0
-480 -478 0
-427 0
-465 0
-616 0
-172 228 0
-808 0
-660 0
824 -359 0
-268 0
-34 -601 0
-532 0
972 -985 0
-486 0
-930 0
-461 726 0
841 -711 0
450 -750 0
-339 0
-897 0
-686 198 0
-605 940 0
-110 -836 0
-456 400 0
-218 0
-761 0
-674 0
-221 387 0
69 -610 0
-7 -234 0
-283 0
-366 -230 0
453 -418 0
-694 -828 0
-790 0
-418 0
-77 0
-624 -454 0
-67 0
-46 0
-688 0
-887 -990 0
-483 0
555 -498 0
-752 858 0
-317 0
-790 850 0
160 -956 0
-394 0
-285 829 0
-43 0
25 -795 0
-23 0
33 -618 0
-886 638 0
-786 -490 0
-130 0
645 -362 0
-950 -131 0
-790 91 0
-491 -418 0
-663 0
706 -955 0
522 -33 0
-602 0
521 -883 0
-20 0
-475 0
-828 0
-610 0
-337 -713 0
-344 -256 0
782 -538 0
-995 575 0
-734 102 0
-554 0
-616 -235 0
576 -475 0
-54 0
-106 0
-574 -650 0
-751 0
-703 722 0
-834 0
-354 -497 0
-583 0
-389 517 0
-701 339 0
-840 0
456 -399 0
-133 0
-162 -961 0
187 -346 0
-848 0
-303 -290 0
-95 462 0
-432 0
-662 547 0
577 -121 0
-994 0
-866 -522 0
-267 31 0
-53 0
-191 -659 0
-710 -97 0
-550 -766 0
168 -186 0
-920 0
-319 180 0
539 -985 0
-171 -410 0
-614 0
-856 -550 0
-902 0
-784 -591 0
-459 -131 0
-214 0
-952 799 0
-494 621 0
-165 0
-47 169 0
-264 0
362 -309 0
-638 591 0
147 -379 0
698 -788 0
320 -531 0
-922 0
-240 322 0
-880 0
-273 0
-56 -87 0
-847 0
410 -386 0
704 -362 0
-15 0
-364 236 0
960 -763 0
-255 421 0
-977 0
-669 -227 0
65 -499 0
51 -36 0
-201 0
-931 0
-498 0
-348 877 0
-121 0
652 -921 0
-287 0
-961 0
17 -409 0
-685 0
-31 0
444 -210 0
-945 0
-222 0
-478 0
-218 0
-464 -991 0
-196 775 0
-896 0
-765 100 0
973 -883 0
521 -7 0
-813 0
-764 415 0
-908 0
874 -454 0
-165 174 0
408 -488 0
-256 0
152 -563 0
-287 852 0
-28 0
756 -163 0
-462 0
-63 0
-881 -473 0
-554 -953 0
-252 -179 0
-823 -89 0
-744 0
-970 0
-896 290 0
529 -499 0
266 -586 0
917 -90 0
-21 211 0
-983 343 0
-424 -632 0
962 -436 0
-877 967 0
412 -913 0
-656 894 0
-591 0
-410 534 0
744 -316 0
-367 -865 0
-801 0
-964 0
-296 0
-246 0
761 -444 0
-480 891 0
-788 0
-442 -530 0
-916 0
-119 0
-335 0
-924 -129 0
257 -363 0
560 -458 0
-837 375 0
426 -942 0
-396 0
-39 0
499 -162 0
-7 -898 0
-631 -273 0
-969 0
-181 -945 0
-65 0
-127 -140 0
-750 -82 0
-293 0
-296 0
225 -460 0
-394 0
-255 863 0
-189 621 0
-91 0
8 -507 0
466 -629 0
-41 0
-50 0
-12 0
-462 183 0
867 -891 0
-313 0
-940 0
-476 -505 0
-798 0
-580 0
-808 0
53 -833 0
-552 -263 0
-392 831 0
-52 0
-877 -483 0
-644 -812 0
586 -466 0
-519 925 0
-607 551 0
-182 -382 0
-835 0
531 -729 0
-157 -820 0
-727 -502 0
658 -996 0
72 -519 0
-398 -910 0
177 -861 0
-261 421 0
728 -541 0
-70 42 0
134 -362 0
417 -814 0
-831 870 0
-343 370 0
-312 -183 0
-735 791 0
-297 511 0
979 -172 0
-486 -894 0
-789 276 0
-195 -489 0
-752 0
-883 0
-77 374 0
-557 -99 0
-207 0
-594 0
-216 -36 0
-378 0
-398 853 0
-865 0
-400 801 0
834 -177 0
-191 0
-70 -190 0
-867 311 0
-465 0
-630 15 0
40 -708 0
-88 25 0
382 -290 0
-15 -45 0
857 -982 0
-178 0
-277 -365 0
-121 0
-291 0
-650 -394 0
-463 -470 0
-686 -926 0
-703 0
-519 0
-819 0
-565 -634 0
-507 319 0
194 -73 0
289 -250 0
184 -351 0
-127 0
-983 0
-591 0
-798 950 0
-291 0
-703 0
-536 -430 0
-709 0
-136 763 0
-632 424 0
898 -489 0
657 -548 0
-333 0
-1000 0
-38 0
-2 0
-924 0
-64 786 0
-335 947 0
-684 0
-606 755 0
-268 0
-445 951 0
-964 0
-509 -469 0
-655 0
-574 -91 0
-866 0
-172 -139 0
-60 0
-567 -268 0
-975 0
32 -8 0
-534 27 0
-341 485 0
-480 124 0
-716 -788 0
-314 -810 0
385 -668 0
-836 0
-43 0
104 -780 0
-831 177 0
-395 151 0
-823 0
-966 -293 0
-32 250 0
-376 407 0
-455 -993 0
73 -941 0
-132 0
-7 0
-296 133 0
-946 0
-830 53 0
-492 0
-2 607 0
584 -788 0
-839 -300 0
-355 -202 0
-779 0
-213 0
-203 0
-575 0
-598 423 0
-155 685 0
721 -341 0
707 -577 0
-699 0
-832 0
-710 0
-524 0
-661 -618 0
128 -873 0
-434 0
564 -489 0
-2 0
-318 499 0
265 -900 0
754 -604 0
-531 0
-975 586 0
-299 0
-813 284 0
-528 -940 0
482 -254 0
-726 372 0
531 -777 0
-471 -76 0
176 -486 0
-23 -70 0
-804 -331 0
856 -842 0
-190 -546 0
-851 31 0
-59 0
778 -977 0
-642 0
-90 0
434 -438 0
-265 0
-37 -771 0
-213 0
-112 749 0
-199 -898 0
-157 -818 0
-527 0
-964 0
-632 0
-611 0
41 -614 0
-617 463 0
-322 375 0
-880 -437 0
-447 0
-950 0
-248 0
138 -987 0
-799 827 0
-1000 -293 0
-492 -842 0
-304 0
-198 0
-453 717 0
20 -273 0
-570 678 0
-181 -619 0
833 -92 0
-85 -826 0
-668 -699 0
737 -129 0
-298 0
-534 731 0
-200 0
-712 63 0
-822 0
-638 0
781 -514 0
-308 0
444 -187 0
-782 -474 0
234 -197 0
-773 0
-79 0
-300 0
-1 0
-280 -724 0
-898 799 0
-688 -538 0
-733 -739 0
-497 0
-199 0
-312 938 0
-79 50 0
-455 958 0
-471 -508 0
120 -316 0
-143 0
-399 532 0
-331 0
-790 0
-903 0
-623 0
-624 0
72 -961 0
600 -421 0
988 -250 0
-272 -341 0
985 -683 0
-557 0
-940 0
-916 0
88 -4 0
-285 428 0
-993 -49 0
-719 47 0
-360 374 0
-188 -265 0
-268 500 0
-658 911 0
-191 0
-41 0
-503 -515 0
-214 391 0
-934 0
-69 -898 0
38 -602 0
885 -369 0
-755 0
43 -121 0
-24 564 0
-500 0
316 -35 0
-567 0
-154 0
902 -729 0
-796 0
-340 199 0
-588 0
-581 0
-510 380 0
-488 86 0
-949 -2 0
-839 628 0
-76 70 0
-807 0
-312 0
-271 153 0
-895 655 0
-492 365 0
-518 0
-31 -299 0
298 -257 0
-333 375 0
-819 542 0
-37 0
-687 -441 0
-791 0
-655 -670 0
-927 0
-595 0
-486 -804 0
211 -947 0
-460 0
-660 -292 0
-513 0
784 -554 0
-906 951 0
-439 0
-387 47 0
244 -91 0
-328 0
368 -483 0
-975 -779 0
-366 0
-773 0
-647 0
-354 0
-233 0
-16 825 0
-808 278 0
163 -869 0
-538 0
-424 -913 0
-113 0
-71 0
763 -194 0
250 -275 0
-398 -341 0
-479 0
-982 0
-830 428 0
-912 0
-655 0
97 -441 0
48 -900 0
-848 28 0
-526 0
684 -242 0
-844 543 0
-925 -841 0
-2 0
-596 926 0
-566 0
-108 717 0
-624 0
504 -101 0
57 -410 0
-326 47 0
681 -125 0
-491 0
-391 -113 0
59 -659 0
-279 0
-896 -106 0
-671 297 0
488 -586 0
-816 0
-55 130 0
-79 427 0
-372 343 0
320 -448 0
-536 266 0
610 -115 0
-555 -209 0
-759 771 0
-386 -585 0
-293 -204 0
-543 295 0
-398 765 0
-950 0
-349 -641 0
-139 0
-569 0
564 -227 0
396 -579 0
601 -19 0
-606 -569 0
-37 0
-982 395 0
-607 989 0
-202 0
-499 0
-262 -2 0
-112 136 0
-535 595 0
-181 123 0
-739 686 0
-800 -182 0
-832 0
-298 0
-548 0
-803 0
-40 -376 0
-230 350 0
-430 0
-946 0
-647 0
-995 0
-142 0
-534 606 0
-706 0
-574 846 0
-75 0
-664 -671 0
-359 0
-785 0
-461 -18 0
860 -931 0
904 -705 0
-104 0
-974 0
-408 -278 0
633 -94 0
-760 0
-594 0
-977 0
-752 -265 0
-391 0
472 -204 0
-221 -451 0
-943 -580 0
-631 0
-576 0
569 -570 0
-201 0
-351 0
-879 -941 0
-244 0
-456 0
-880 0
-126 494 0
-584 531 0
-854 0
603 -682 0
173 -619 0
-742 319 0
-392 108 0
-101 -906 0
-31 -905 0
-847 0
-190 -97 0
-280 326 0
128 -531 0
-951 0
-337 0
-342 828 0
-541 0
-915 0
761 -829 0
-40 303 0
-460 637 0
-543 0
-549 0
-600 -520 0
-36 -715 0
962 -699 0
-133 388 0
-579 0
-309 478 0
-183 0
-583 180 0
-951 -402 0
-416 0
-293 0
-853 -746 0
-338 -553 0
-58 0
592 -681 0
653 -9 0
-467 -345 0
-680 -518 0
-524 0
-552 267 0
-454 -433 0
-844 0
-686 0
-840 316 0
-960 85 0
-439 0
-550 -745 0
-458 0
-734 -452 0
-126 0
742 -73 0
-131 0
-78 923 0
965 -642 0
-984 465 0
678 -713 0
-616 607 0
24 -943 0
-969 0
-156 0
-454 0
-356 -779 0
-122 15 0
-984 948 0
-135 50 0
-868 0
-244 0
-784 316 0
-361 0
250 -33 0
-688 0
-96 121 0
384 -47 0
-661 0
-840 0
-107 0
-502 0
148 -10 0
-328 -198 0
-311 -474 0
-926 20 0
-663 -571 0
234 -532 0
-120 958 0
-193 0
-638 626 0
-708 0
652 -705 0
-945 0
-207 533 0
-505 0
-592 147 0
-248 0
-846 -595 0
744 -527 0
-184 0
-363 0
210 -283 0
-488 0
145 -915 0
-160 829 0
-224 -913 0
957 -962 0
-704 0
-886 382 0
-435 -881 0
-536 0
-979 0
-964 0
-374 895 0
-303 0
-959 198 0
-961 719 0
-303 0
-326 0
-251 -10 0
-888 0
-790 0
-229 0
-963 0
554 -747 0
-36 0
-163 0
-66 -961 0
316 -716 0
-436 311 0
535 -353 0
278 -273 0
-914 0
306 -966 0
-694 68 0
-557 -780 0
-589 796 0
-25 0
-957 0
-716 0
-648 941 0
-804 -644 0
-298 0
-99 0
-252 935 0
26 -749 0
-344 0
-603 0
-894 -515 0
-21 -450 0
-802 335 0
997 -506 0
-621 0
-63 -882 0
-374 -501 0
836 -626 0
-159 -833 0
-488 757 0
-271 0
-596 0
-392 0
-719 0
-17 0
-878 -69 0
-103 0
197 -545 0
-21 0
256 -492 0
-927 0
64 -648 0
-50 0
62 -370 0
66 -522 0
128 -530 0
-924 941 0
985 -540 0
-562 0
-56 0
-987 0
-756 565 0
-436 -993 0
-412 -57 0
985 -299 0
898 -470 0
-328 -43 0
-65 0
9 -99 0
-167 0
-231 0
-634 0
-296 -612 0
-800 0
-434 0
441 -338 0
-293 0
171 -788 0
187 -378 0
-710 581 0
-342 0
-914 0
-127 0
-284 670 0
-812 -497 0
-992 270 0
-576 -882 0
-826 0
-715 0
948 -35 0
-717 46 0
-942 -203 0
-457 -41 0
18 -635 0
-650 -154 0
-754 0
-111 0
-407 0
-987 0
-949 0
440 -352 0
-811 0
-266 0
-167 -173 0
-396 0
-384 0
-207 -836 0
-263 -749 0
-423 671 0
-535 798 0
-32 -3 0
-568 0
-28 0
-488 470 0
-672 0
-953 0
-499 0
745 -673 0
-762 0
-774 0
-773 0
-163 0
-511 0
-811 -475 0
-727 170 0
-16 141 0
-882 0
-810 71 0
-770 -673 0
-95 0
-607 -225 0
-496 85 0
-221 38 0
-359 0
75 -802 0
-271 -105 0
345 -807 0
-973 918 0
497 -586 0
-216 0
-444 5 0
-338 0
-152 0
-753 0
-374 773 0
-609 0
-927 -866 0
-297 0
768 -565 0
274 -261 0
-164 -275 0
744 -26 0
-356 0
172 -700 0
-983 0
-425 -833 0
-471 0
-380 -979 0
-952 18 0
-683 0
-338 0
-133 0
-878 -273 0
33 -459 0
-108 -10 0
-917 -169 0
-151 31 0
-807 0
760 -11 0
-696 0
-503 0
-987 0
-823 738 0
-117 -43 0
-788 -522 0
-636 0
-110 619 0
-831 -251 0
400 -806 0
-130 0
-24 879 0
-431 -406 0
-702 0
-326 -996 0
-614 0
-622 0
-953 0
-880 376 0
-904 0
-458 0
-360 0
-13 0
-829 0
-78 0
243 -452 0
165 -457 0
-910 917 0
-416 -819 0
345 -237 0
-878 0
-450 -913 0
248 -71 0
-493 0
-144 -930 0
-97 0
-413 0
-562 0
-299 0
-88 -350 0
-381 -297 0
-150 583 0
-62 306 0
-676 893 0
553 -549 0
-355 0
-432 0
-582 527 0
802 -761 0
-820 0
-895 0
596 -475 0
-383 -539 0
-295 0
761 -773 0
-559 0
-543 -590 0
-268 0
624 -952 0
-607 950 0
764 -586 0
-643 -153 0
409 -201 0
-624 -615 0
-660 767 0
-538 0
-824 0
-934 -514 0
-310 -366 0
-391 0
-180 -459 0
-27 0
434 -806 0
11 -211 0
-77 -233 0
-984 -180 0
620 -715 0
836 -529 0
-844 477 0
844 -449 0
-504 -276 0
736 -172 0
-300 231 0
-759 -767 0
-568 0
-550 0
-999 -582 0
-344 0
689 -810 0
-782 0
-915 15 0
-486 0
594 -883 0
657 -945 0
-829 0
506 -981 0
556 -10 0
-160 -970 0
-415 0
-507 0
-255 270 0
546 -325 0
-7 -239 0
-923 0
-14 0
-326 -594 0
-720 0
-732 0
920 -234 0
-869 -867 0
434 -773 0
-373 844 0
-414 0
-613 0
-702 -786 0
-752 -854 0
584 -507 0
-992 0
-440 0
481 -29 0
-919 0
-491 0
-932 0
-77 486 0
-745 951 0
12 -513 0
-717 0
-264 0
-997 0
-447 -175 0
-100 0
-183 0
-176 0
-846 -67 0
-41 0
784 -629 0
-774 391 0
82 -755 0
-488 0
-827 0
-652 0
-656 -159 0
456 -139 0
-687 0
57 -618 0
597 -282 0
-503 0
-286 -525 0
65 -507 0
-350 -60 0
-655 732 0
-107 0
333 -681 0
-51 0
-654 781 0
-555 479 0
-989 -962 0
-460 0
-838 -573 0
-636 670 0
-161 0
-230 -145 0
-158 0
-325 -498 0
-471 0
-427 647 0
-221 -653 0
-942 0
-625 0
956 -986 0
-954 839 0
-821 0
585 -324 0
-592 -29 0
-552 -263 0
-405 0
-392 0
-581 0
-468 0
960 -819 0
216 -574 0
-224 797 0
-670 759 0
-94 0
-937 0
-635 0
-396 469 0
-40 836 0
-530 0
388 -595 0
-613 718 0
-114 -529 0
-604 0
-108 0
-767 286 0
-336 0
13 -553 0
-390 0
-928 -433 0
-660 638 0
-839 758 0
-736 308 0
-509 0
188 -196 0
-472 -679 0
50 -953 0
-461 -259 0
853 -305 0
-475 0
609 -762 0
722 -124 0
-270 0
-149 0
-120 0
-403 175 0
-362 0
172 -707 0
-867 0
-916 934 0
-139 0
-236 -188 0
-211 0
-44 0
-321 0
-583 0
-45 524 0
-653 486 0
232 -511 0
-695 -735 0
-272 0
-556 478 0
-736 -402 0
-527 0
-98 0
654 -201 0
-751 963 0
-543 58 0
-802 -329 0
-593 0
-763 0
-80 0
-263 0
-310 0
660 -226 0
711 -65 0
-60 0
-320 0
-424 369 0
-561 0
-200 -740 0
-306 0
-623 0
-75 0
-40 0
776 -854 0
-77 37 0
756 -369 0
-32 -396 0
-512 708 0
-520 -89 0
793 -94 0
937 -62 0
-680 -565 0
435 -411 0
-990 -997 0
-632 0
-807 -10 0
880 -358 0
-783 358 0
-817 0
-6 -627 0
-166 -753 0
216 -689 0
-384 -38 0
-344 77 0
451 -580 0
-30 0
-380 0
733 -810 0
-248 362 0
-467 0
-45 0
-923 0
-565 0
416 -293 0
-470 0
424 -68 0
-589 0
-83 0
-799 0
-470 0
-911 991 0
41 -652 0
737 -169 0
-316 -202 0
-216 -562 0
534 -577 0
-112 0
-183 0
264 -253 0
-39 483 0
-447 0
-91 0
285 -435 0
-5 -787 0
-869 453 0
831 -721 0
-684 0
-597 0
626 -961 0
-73 0
-750 934 0
-120 729 0
-696 0
-183 100 0
-398 191 0
-58 0
-692 0
-86 -50 0
-513 0
628 -131 0
-414 -937 0
-280 340 0
-585 0
316 -745 0
170 -737 0
-334 0
-104 -169 0
849 -193 0
-918 -661 0
-194 0
-13 957 0
-464 -559 0
745 -874 0
-3 0
-964 430 0
-2 -465 0
-282 0
-376 -109 0
-799 395 0
-562 -1 0
-94 443 0
768 -185 0
-519 -855 0
-245 0
-127 0
-237 0
250 -508 0
-205 479 0
-45 0
685 -801 0
-225 0
-843 718 0
-527 0
-128 -426 0
-456 0
-744 379 0
-849 0
-983 0
513 -817 0
443 -50 0
-552 -596 0
-455 317 0
-519 -789 0
-207 0
-584 493 0
-571 -625 0
-878 0
-751 853 0
969 -287 0
-142 0
-623 0
-803 919 0
-271 23 0
-503 -149 0
-711 -914 0
-566 0
-484 0
-576 630 0
32 -242 0
726 -770 0
423 -409 0
-522 0
-120 0
-430 901 0
-430 0
-220 0
-766 0
-334 -646 0
-991 158 0
-257 0
424 -239 0
-750 0
-864 682 0
-360 -634 0
-982 0
496 -738 0
-958 0
-835 167 0
-551 -865 0
-332 284 0
-733 0
-791 -866 0
-968 964 0
-644 0
-248 -639 0
858 -923 0
-375 0
-480 475 0
-39 0
-748 -395 0
-686 0
-55 0
-763 -858 0
-867 0
11 -581 0
-906 0
-88 0
681 -435 0
-890 0
-320 -596 0
-491 0
-796 -49 0
668 -362 0
-214 0
-396 199 0
-484 0
-614 854 0
-547 0
-630 0
-748 -387 0
-213 0
708 -946 0
-478 852 0
-444 0
404 -409 0
249 -154 0
-870 477 0
-528 0
-982 -570 0
-458 0
-790 0
-349 0
686 -122 0
72 -325 0
-167 226 0
274 -130 0
-798 0
-213 443 0
-976 -855 0
-574 644 0
-331 0
-192 410 0
-778 0
-537 0
-817 0
-432 -841 0
-103 0
-197 147 0
-247 -539 0
-459 511 0
-699 375 0
640 -239 0
-398 226 0
-312 432 0
-579 959 0
-256 0
-267 0
-397 -515 0
-544 576 0
-863 0
-126 748 0
-783 -370 0
-335 139 0
-192 0
501 -113 0
-732 0
-876 0
-462 0
81 -955 0
-166 0
-882 -298 0
-382 0
-604 446 0
609 -651 0
460 -42 0
-708 669 0
-632 0
-938 6 0
-919 -514 0
-167 0
-381 509 0
-349 0
-274 0
-774 -289 0
-374 -132 0
476 -403 0
-820 0
-313 0
-423 -92 0
-322 0
-156 0
-398 0
-679 0
-446 0
949 -514 0
-278 -957 0
-248 0
-104 755 0
-406 74 0
-822 711 0
307 -947 0
-693 -545 0
-29 0
-190 0
-472 -493 0
-927 0
-392 0
-846 0
-322 0
-567 766 0
-195 0
-391 394 0
-870 -265 0
-567 0
-830 387 0
-817 0
-747 54 0
-686 11 0
242 -845 0
-620 0
-738 0
-41 0
-102 0
-133 44 0
-698 0
-121 0
927 -673 0
496 -543 0
-503 750 0
-753 0
-338 0
-279 0
-877 -315 0
-691 -746 0
-344 -567 0
-822 0
-548 -833 0
521 -978 0
-332 0
-798 -68 0
-381 -105 0
-495 0
43 -33 0
-715 0
-342 0
-351 0
-462 0
269 -658 0
-703 889 0
-153 0
-856 -687 0
-836 925 0
-986 0
116 -339 0
-368 -11 0
-16 760 0
-251 -409 0
-629 0
-419 917 0
-472 -348 0
-939 -315 0
-932 -9 0
-124 -993 0
650 -163 0
280 -814 0
-491 -121 0
-98 0
261 -874 0
-774 -173 0
-316 0
-557 631 0
-536 -18 0
-957 -45 0
-812 965 0
893 -561 0
-102 -915 0
-915 0
-368 -371 0
704 -333 0
-799 63 0
-484 0
-126 0
-918 0
-337 0
-65 0
889 -60 0
-182 0
705 -105 0
18 -850 0
-23 -394 0
-102 0
-724 -801 0
256 -302 0
297 -714 0
-611 0
-656 0
636 -764 0
704 -124 0
-543 885 0
-519 -641 0
856 -449 0
645 -234 0
-742 -900 0
601 -438 0
-808 0
880 -979 0
-649 0
-466 0
600 -765 0
-94 0
-22 887 0
-894 0
-942 0
-934 -306 0
-395 0
-73 0
-532 0
-477 0
-545 0
472 -805 0
-64 0
-28 453 0
405 -89 0
-502 -650 0
781 -905 0
-942 278 0
-816 -181 0
-221 -315 0
-632 0
490 -635 0
892 -811 0
590 -698 0
-142 0
-165 -90 0
-12 631 0
-203 0
-301 572 0
-929 0
-887 628 0
738 -145 0
17 -347 0
-688 0
192 -179 0
-907 -537 0
-629 0
-249 0
-533 0
-826 0
-669 0
579 -450 0
146 -649 0
-165 71 0
-980 0
-632 -901 0
-422 779 0
-904 38 0
56 -610 0
-454 0
-939 0
257 -45 0
-986 -265 0
-496 -269 0
-63 0
-12 437 0
-213 783 0
-742 662 0
689 -346 0
-351 0
321 -749 0
-240 -703 0
290 -997 0
-461 943 0
-567 0
276 -665 0
-124 0
-399 354 0
-172 0
-367 652 0
-741 -466 0
-17 0
-964 836 0
-104 80 0
792 -760 0
-659 0
-203 -425 0
-568 -158 0
281 -449 0
-874 0
-862 -442 0
-495 0
419 -489 0
-612 0
-126 403 0
-415 -625 0
-893 -66 0
-725 -978 0
-519 -1 0
-644 -643 0
-22 0
-360 51 0
-807 0
222 -417 0
-103 0
946 -813 0
537 -60 0
-33 0
433 -956 0
-55 0
-713 0
712 -633 0
881 -916 0
-579 527 0
-436 0
-510 0
-549 -770 0
69 -562 0
716 -860 0
271 -913 0
-378 622 0
-784 891 0
-769 0
-319 675 0
-463 0
-695 -994 0
-708 191 0
-325 0
-693 0
539 -908 0
-935 -209 0
-767 0
-800 934 0
-201 0
-169 0
-826 -25 0
-62 -734 0
-32 0
-782 331 0
-587 -474 0
-707 901 0
48 -502 0
-21 0
-348 -836 0
-606 -845 0
-522 -785 0
-814 623 0
-408 -981 0
-844 -123 0
-20 766 0
-488 981 0
-549 -93 0
-421 -601 0
-543 52 0
909 -658 0
512 -874 0
-362 0
-572 0
-85 -745 0
-733 343 0
-189 765 0
193 -693 0
-989 0
825 -716 0
-558 0
-715 742 0
216 -492 0
355 -587 0
-599 695 0
737 -629 0
-232 -141 0
-918 0
-706 -185 0
-484 -771 0
-30 711 0
-206 490 0
-856 0
-452 0
-760 0
-945 0
-974 0
-224 0
-533 150 0
154 -637 0
-740 0
-511 0
-727 750 0
-594 0
-634 0
620 -363 0
307 -691 0
-966 0
-480 -21 0
-606 -485 0
-263 0
-360 716 0
-432 0
835 -67 0
-965 0
164 -817 0
-510 0
-798 0
346 -453 0
-583 -538 0
-534 109 0
-944 -5 0
-489 0
-634 0
-64 0
-975 -956 0
-96 0
-462 -66 0
201 -765 0
-685 0
-453 0
-268 806 0
45 -577 0
-372 0
193 -713 0
-224 -387 0
-23 -437 0
-992 -523 0
-370 790 0
49 -540 0
-925 0
-293 0
-84 0
-423 -651 0
-965 0
-505 -833 0
902 -658 0
-739 -98 0
-734 82 0
-526 91 0
493 -305 0
-853 0
-262 -404 0
-455 -956 0
-232 0
482 -913 0
-167 -217 0
-511 485 0
-615 402 0
-892 0
752 -465 0
-340 0
-469 -404 0
-373 0
-711 -743 0
-689 0
-539 0
-493 0
-302 370 0
682 -12 0
-21 -962 0
-478 0
-908 823 0
-792 0
-82 0
-161 663 0
-262 0
-200 0
138 -809 0
-229 0
-31 0
-464 534 0
-348 0
-27 0
-479 782 0
-867 23 0
-310 0
-521 0
-467 38 0
234 -859 0
-719 263 0
-792 -723 0
-644 -953 0
-459 0
658 -553 0
-138 0
-210 487 0
139 -873 0
-448 662 0
-486 0
-270 0
-560 0
-639 0
-9 0
481 -603 0
-826 0
-117 0
-354 0
392 -700 0
-242 0
568 -626 0
-368 546 0
-994 0
-150 239 0
81 -596 0
875 -85 0
-307 -313 0
-650 0
-510 0
-174 -716 0
-305 0
-126 882 0
-616 864 0
-578 0
-443 -553 0
-230 -825 0
-773 -889 0
-281 0
650 -753 0
-70 0
1 -406 0
-976 -660 0
89 -13 0
-677 -268 0
-419 -1 0
-736 483 0
-448 0
-970 238 0
-627 -946 0
-442 0
-750 -1 0
-205 0
-740 0
-376 0
-688 0
-888 614 0
-712 503 0
-597 711 0
-954 0
505 -277 0
688 -746 0
-160 0
-418 -746 0
987 -210 0
-824 977 0
-684 0
-781 660 0
-455 111 0
-920 -988 0
-755 -529 0
3 -882 0
-63 -17 0
99 -897 0
-480 0
-256 250 0
-399 0
-85 0
-765 0
146 -605 0
-296 0
-190 -844 0
-418 502 0
-975 -164 0
-961 0
-580 0
-344 869 0
-327 -757 0
332 -401 0
965 -81 0
-336 -976 0
-836 0
-587 0
706 -819 0
-360 0
-806 -933 0
290 -545 0
-201 0
-39 0
-4 0
-940 0
-74 0
-533 -436 0
-128 -62 0
-276 0
-479 0
-714 0
458 -36 0
893 -905 0
-731 0
-533 -939 0
-805 0
-228 0
-93 0
334 -601 0
801 -516 0
681 -387 0
-592 0
-536 0
-704 -750 0
65 -180 0
-918 0
-765 0
-661 0
-627 0
-784 211 0
-627 0
-511 -453 0
617 -674 0
283 -131 0
-734 460 0
364 -508 0
-40 0
-803 0
-254 622 0
-532 0
920 -38 0
-4 0
942 -177 0
379 -153 0
-837 -474 0
-558 498 0
-6 -259 0
-730 982 0
84 -969 0
-658 0
-398 0
-381 0
-922 791 0
-768 826 0
-172 0
-124 0
198 -730 0
313 -314 0
-805 783 0
-476 0
-298 0
-987 0
-607 0
817 -15 0
-914 383 0
-64 -694 0
-964 0
186 -787 0
349 -139 0
-263 -797 0
-718 0
-216 -494 0
-868 -539 0
-4 0
364 -473 0
-256 -938 0
-672 94 0
-952 -381 0
788 -450 0
-968 0
-198 -810 0
-996 0
-327 -843 0
-378 0
-710 -860 0
-469 0
933 -138 0
-931 0
-432 875 0
-559 -340 0
-959 0
-688 139 0
-822 -460 0
795 -571 0
-477 0
-130 0
-275 0
-872 0
-121 0
-647 0
-607 -745 0
-192 -486 0
-530 -489 0
41 -910 0
-626 -250 0
-982 0
-142 271 0
-559 0
-274 0
51 -124 0
-702 447 0
-379 0
-830 637 0
-120 -540 0
-96 122 0
-99 0
-734 -1 0
-862 -870 0
-230 0
-36 0
-399 854 0
-593 0
168 -487 0
-415 -265 0
-92 0
458 -709 0
-702 0
-328 915 0
-608 -460 0
962 -949 0
-603 0
650 -674 0
411 -659 0
400 -600 0
152 -400 0
-79 303 0
-551 677 0
-842 0
634 -988 0
-848 -678 0
-104 682 0
-598 0
10 -149 0
-527 0
-130 503 0
-895 0
-864 819 0
-279 252 0
-701 0
-86 970 0
-987 0
-535 0
-310 923 0
647 -529 0
-359 914 0
-117 701 0
-62 -261 0
-509 0
-454 52 0
627 -237 0
-501 0
918 -81 0
844 -314 0
789 -305 0
-340 -747 0
-262 0
118 -298 0
-141 0
778 -369 0
-538 0
-314 -177 0
-135 0
-827 -553 0
-486 -341 0
-924 0
959 -569 0
-988 0
-956 0
-789 0
-968 -981 0
-891 0
-337 0
-263 -763 0
-388 0
-928 940 0
120 -882 0
-666 735 0
-888 0
-546 -802 0
-542 508 0
-12 0
-880 0
-470 940 0
-172 461 0
-92 556 0
-574 0
-376 0
-426 0
-828 0
620 -706 0
897 -717 0
-10 0
-679 188 0
-498 0
676 -873 0
-729 0
-470 182 0
-700 -772 0
-984 0
-165 0
-151 -574 0
-842 279 0
-836 0
-469 -596 0
-849 0
-541 -241 0
-16 702 0
-784 655 0
-3 0
-31 67 0
-375 661 0
-270 -865 0
-786 567 0
-364 0
478 -817 0
-56 0
153 -953 0
-864 -289 0
-110 598 0
-736 246 0
-214 118 0
-129 0
-680 -794 0
-669 0
-285 0
-117 0
-854 102 0
-768 0
-301 -362 0
969 -577 0
-687 -782 0
977 -502 0
-88 0
-780 -940 0
-914 -970 0
-985 0
-606 -418 0
10 -52 0
-272 -585 0
-113 0
-743 0
-237 -41 0
-96 392 0
-250 0
-588 -721 0
-126 255 0
-647 0
-173 -171 0
-937 0
-386 0
-147 0
825 -734 0
-775 -182 0
-504 569 0
943 -153 0
-400 -335 0
-659 -403 0
169 -254 0
-141 0
-957 0
-754 0
-110 348 0
-162 -313 0
-103 302 0
-573 0
-252 0
-652 452 0
588 -450 0
-680 -849 0
-181 0
-137 -489 0
-683 0
498 -474 0
-777 591 0
-228 238 0
-197 0
587 -497 0
-735 0
-471 -7 0
-704 509 0
-958 0
-623 335 0
-110 -355 0
771 -610 0
-14 567 0
-879 0
-562 0
-966 -29 0
-404 741 0
-670 0
-114 0
-39 930 0
-528 308 0
-51 198 0
-360 -238 0
-762 0
-342 428 0
-474 0
-613 0
-264 0
-21 -901 0
-215 -242 0
-263 0
-51 0
-131 -475 0
88 -251 0
-284 0
-849 0
539 -68 0
-974 0
-85 117 0
-260 0
-912 0
-1000 0
-790 0
-711 -500 0
-527 0
-366 -787 0
-495 850 0
472 -284 0
-806 99 0
635 -265 0
-855 430 0
440 -688 0
402 -877 0
808 -493 0
-580 0
-460 0
814 -746 0
-125 -161 0
-128 -613 0
-4 0
-924 -395 0
-958 -337 0
-381 143 0
-56 0
-56 -318 0
867 -460 0
-988 0
-188 -75 0
-801 0
-534 -990 0
-913 0
-496 350 0
-855 0
-248 -74 0
-554 254 0
880 -543 0
-799 0
757 -203 0
-715 0
405 -818 0
972 -764 0
616 -819 0
194 -877 0
785 -669 0
-973 747 0
-183 700 0
-372 0
-156 404 0
-346 0
-136 433 0
368 -38 0
-306 0
-784 -287 0
-94 -926 0
-21 -115 0
-750 0
-288 -347 0
-548 -714 0
-744 0
-697 0
-81 -273 0
-1 0
978 -525 0
-751 0
-327 -354 0
-301 0
-632 0
-350 -189 0
-615 643 0
-420 0
-927 370 0
-454 0
-303 0
-398 0
-390 0
-825 0
-876 0
-206 -947 0
-374 0
-557 0
-378 -578 0
-840 984 0
741 -522 0
-184 -572 0
-414 0
-436 0
-817 0
-708 0
-103 -798 0
448 -15 0
928 -983 0
-871 0
545 -945 0
-194 0
574 -362 0
-96 0
-950 0
985 -500 0
-250 0
-93 -817 0
-904 0
-506 -993 0
301 -578 0
-950 0
-216 431 0
904 -691 0
-106 0
-744 295 0
840 -51 0
-447 370 0
-334 0
-295 -670 0
37 -595 0
-863 -788 0
731 -346 0
-251 0
-48 0
-464 512 0
-917 0
-572 0
313 -225 0
-318 -874 0
321 -537 0
-940 0
-405 0
931 -337 0
-786 -865 0
-248 910 0
-141 0
-846 0
-762 0
-817 0
-36 0
-557 0
-157 861 0
-331 94 0
-966 0
-221 46 0
-556 141 0
505 -813 0
-976 -154 0
-16 0
777 -841 0
-119 -999 0
369 -549 0
-88 0
-124 0
-14 0
-280 -955 0
-3 0
315 -586 0
-553 0
179 -885 0
-644 0
-429 -845 0
-452 0
339 -684 0
-192 359 0
-876 -492 0
-759 458 0
925 -801 0
-982 0
-701 735 0
-533 428 0
360 -938 0
-147 255 0
-559 882 0
-528 734 0
-87 0
-799 0
-640 0
-197 -628 0
