p cnf 12276 52495
687 0
31 0
792 0
22 0
562 0
914 0
48 979 0
260 558 0
846 0
408 221 0
726 0
510 415 0
346 0
781 0
551 0
613 0
819 533 0
912 0
338 0
660 279 0
100 613 0
485 637 0
778 0
925 0
849 0
511 0
931 0
556 166 0
783 0
709 0
195 44 0
95 0
396 588 0
915 966 0
723 0
633 0
454 0
82 773 0
878 0
352 95 0
593 0
732 0
649 0
299 0
635 0
15 0
497 692 0
139 0
138 310 0
918 0
73 660 0
554 0
256 119 0
74 654 0
641 98 0
479 0
277 0
3 0
963 0
901 862 0
66 0
129 0
896 0
994 548 0
980 0
627 0
617 0
899 823 0
609 0
365 0
697 109 0
844 0
399 0
266 63 0
425 0
27 0
332 0
341 0
966 0
489 109 0
882 0
196 0
150 822 0
440 0
859 0
473 0
883 804 0
781 0
446 0
480 0
19 799 0
681 0
696 502 0
957 389 0
699 0
587 0
175 0
410 0
755 0
952 793 0
860 655 0
592 0
474 0
996 582 0
22 775 0
721 0
421 894 0
170 643 0
27 0
334 0
761 0
116 0
733 0
678 0
366 527 0
226 0
829 413 0
18 668 0
734 0
386 0
997 0
144 460 0
156 0
613 79 0
469 351 0
910 0
76 0
788 0
252 943 0
340 0
345 751 0
944 923 0
324 0
651 412 0
424 0
945 367 0
272 677 0
95 0
97 0
607 0
371 0
724 0
853 0
823 0
125 0
249 963 0
50 0
362 862 0
973 0
955 0
379 0
746 0
499 0
232 0
186 0
331 54 0
833 0
872 0
573 0
93 559 0
49 0
398 734 0
163 0
837 0
7 0
699 0
192 0
244 550 0
710 0
730 429 0
659 0
713 718 0
32 537 0
580 0
161 0
764 0
784 0
194 0
347 0
925 0
512 543 0
97 0
570 0
849 39 0
266 742 0
668 0
253 0
255 0
238 0
140 0
689 0
213 0
219 0
265 86 0
99 0
33 495 0
598 862 0
820 0
13 535 0
321 262 0
652 0
968 0
992 0
241 0
12 711 0
749 517 0
699 0
129 534 0
744 568 0
725 0
826 890 0
490 0
371 0
185 738 0
625 438 0
294 0
665 0
968 0
848 0
488 0
218 428 0
975 0
80 0
512 649 0
900 805 0
182 0
780 0
169 153 0
802 0
366 0
260 0
983 0
362 0
218 0
439 0
361 0
321 478 0
624 409 0
883 203 0
148 0
850 412 0
768 425 0
991 519 0
294 0
555 949 0
316 69 0
271 855 0
802 540 0
282 0
449 885 0
942 0
95 0
269 111 0
509 0
303 0
632 0
623 0
464 0
239 0
685 0
995 0
246 967 0
222 0
984 0
81 415 0
193 0
826 0
932 700 0
664 956 0
992 0
981 438 0
691 0
136 0
138 366 0
199 0
434 0
351 0
570 0
459 0
85 0
293 0
152 0
662 0
700 0
540 0
832 0
975 0
96 859 0
291 583 0
106 59 0
598 0
270 0
941 0
696 28 0
456 0
712 0
18 27 0
272 0
101 0
772 0
819 607 0
38 0
395 119 0
301 0
248 431 0
992 0
433 0
914 787 0
703 215 0
694 0
579 220 0
808 551 0
463 0
65 0
704 631 0
394 629 0
452 0
567 0
40 0
574 0
185 0
565 0
969 0
940 0
70 0
242 0
243 0
421 0
812 0
963 0
557 0
503 0
706 0
984 0
534 0
447 0
977 214 0
416 0
859 0
376 584 0
8 0
539 0
888 78 0
4 317 0
424 291 0
188 0
152 0
821 0
234 0
484 0
835 316 0
86 775 0
434 695 0
344 44 0
521 261 0
721 402 0
701 0
360 0
242 0
632 724 0
842 0
523 0
828 0
496 0
532 0
990 0
740 0
412 0
236 0
387 0
765 0
973 0
577 726 0
811 0
9 0
335 0
558 0
906 0
234 131 0
896 0
707 0
466 0
235 0
350 0
674 0
683 0
72 381 0
269 0
429 437 0
845 0
207 0
530 374 0
814 991 0
560 299 0
771 0
170 0
857 0
453 63 0
521 0
950 502 0
25 405 0
446 0
195 0
269 0
455 0
147 0
605 0
725 0
131 0
221 0
634 260 0
313 0
304 477 0
200 460 0
530 125 0
756 886 0
842 757 0
490 0
965 0
920 0
338 0
44 0
760 2 0
232 0
966 0
320 746 0
130 0
554 854 0
200 0
446 0
127 0
68 0
365 0
178 0
873 349 0
793 199 0
904 0
176 0
592 833 0
854 0
16 0
938 471 0
4 0
682 0
720 706 0
71 0
356 756 0
62 0
380 0
639 0
806 998 0
781 0
265 0
390 7 0
583 0
122 0
128 257 0
255 0
168 260 0
201 847 0
402 0
108 670 0
210 651 0
479 0
822 0
928 170 0
481 102 0
649 0
210 0
395 0
171 0
608 599 0
736 0
935 0
240 0
898 782 0
72 231 0
988 349 0
240 723 0
284 0
276 0
191 0
646 0
665 82 0
875 0
668 0
803 781 0
224 349 0
334 0
349 0
295 0
325 0
540 0
454 0
554 0
121 0
976 479 0
760 957 0
2 0
376 0
301 0
585 386 0
814 383 0
573 0
338 261 0
193 983 0
651 903 0
945 291 0
204 0
788 0
524 0
33 0
896 0
968 778 0
384 670 0
778 0
984 0
570 195 0
534 0
35 621 0
676 0
985 0
423 0
485 0
431 0
360 83 0
496 0
643 0
205 0
376 357 0
850 0
538 998 0
62 0
567 0
593 829 0
861 0
234 227 0
771 0
76 0
632 879 0
870 0
420 622 0
436 374 0
560 997 0
571 244 0
264 179 0
307 0
609 27 0
43 0
812 0
254 0
978 0
76 0
168 647 0
782 0
191 0
239 0
834 941 0
864 0
514 307 0
746 0
805 0
483 343 0
525 0
800 0
386 602 0
936 353 0
318 0
705 110 0
536 0
853 862 0
653 0
51 0
5 0
799 0
505 243 0
899 0
566 0
889 3 0
688 403 0
376 498 0
337 500 0
552 131 0
737 0
64 0
759 0
805 0
273 0
190 0
188 5 0
922 0
246 215 0
553 935 0
195 70 0
614 0
967 0
663 0
368 819 0
386 335 0
514 0
663 0
233 0
165 127 0
390 279 0
600 0
669 0
979 0
968 0
229 391 0
233 0
168 431 0
155 659 0
595 0
889 0
997 670 0
218 717 0
89 0
334 0
627 0
877 0
512 105 0
587 0
856 0
599 0
28 0
848 0
683 0
509 0
622 0
764 0
861 999 0
699 45 0
697 365 0
251 0
420 700 0
418 654 0
726 0
964 0
379 980 0
976 0
478 0
791 0
309 0
248 25 0
627 0
836 0
727 0
696 944 0
244 0
421 0
865 111 0
569 442 0
464 631 0
333 0
192 5 0
531 0
44 0
370 0
878 231 0
696 0
677 0
706 0
578 0
513 0
591 0
242 0
269 0
527 0
563 0
262 0
99 543 0
889 0
176 0
383 0
249 0
21 0
608 0
498 0
902 0
606 0
95 0
101 607 0
545 0
971 0
585 531 0
602 0
69 854 0
19 0
698 118 0
403 0
640 0
993 0
946 0
377 612 0
589 0
960 0
210 0
528 34 0
432 0
209 0
154 0
269 0
250 0
931 278 0
320 105 0
844 615 0
65 510 0
432 0
929 0
715 0
282 0
942 831 0
412 975 0
101 949 0
113 470 0
455 0
688 0
107 0
442 919 0
224 0
757 0
704 556 0
450 0
746 0
966 0
29 0
775 0
688 227 0
993 0
853 0
892 0
778 0
131 0
572 0
735 0
306 0
311 0
435 0
581 0
262 0
225 0
666 604 0
214 0
88 0
768 197 0
867 0
629 0
473 910 0
506 0
251 0
177 0
792 866 0
227 0
748 0
578 679 0
882 0
776 0
709 191 0
642 0
839 799 0
707 0
740 175 0
353 61 0
7 0
417 0
50 0
660 0
948 0
902 0
340 861 0
235 439 0
276 0
271 0
293 0
594 421 0
935 0
573 502 0
273 0
398 0
544 0
755 0
930 764 0
824 94 0
713 0
666 0
803 0
305 874 0
65 0
411 478 0
292 342 0
709 630 0
234 446 0
626 316 0
350 0
123 0
783 0
606 0
498 790 0
140 0
91 0
336 0
366 0
715 0
290 725 0
152 0
538 659 0
804 487 0
133 0
344 0
216 0
225 0
982 0
250 485 0
559 0
958 0
859 0
781 0
50 0
753 516 0
833 706 0
808 0
426 666 0
685 0
141 0
72 0
426 0
214 0
560 553 0
150 103 0
423 0
405 0
786 0
763 229 0
395 0
785 0
593 0
79 0
290 0
177 0
297 380 0
934 0
801 0
758 703 0
808 865 0
794 814 0
485 0
868 0
466 994 0
218 381 0
747 815 0
739 415 0
834 231 0
438 0
772 0
320 749 0
484 0
208 0
837 0
554 0
940 0
913 0
481 0
304 465 0
417 0
947 36 0
982 0
868 0
342 0
675 0
776 0
292 0
631 0
830 823 0
704 0
800 68 0
94 0
546 539 0
529 0
440 899 0
768 0
975 0
712 0
725 0
17 0
425 0
186 0
51 0
899 0
273 318 0
859 443 0
3 0
118 0
996 0
516 0
991 0
196 764 0
89 767 0
837 0
480 790 0
318 0
927 0
103 0
107 0
576 927 0
812 0
75 487 0
250 0
780 0
146 191 0
921 0
434 346 0
683 0
124 0
80 144 0
543 0
231 0
709 0
464 0
704 868 0
942 0
438 0
74 119 0
246 534 0
521 0
19 0
694 0
710 0
344 886 0
774 0
652 0
495 0
664 228 0
618 525 0
12 0
992 0
546 0
166 0
572 0
838 0
384 0
923 798 0
740 0
349 0
602 303 0
632 0
680 972 0
106 0
207 807 0
802 965 0
670 0
633 538 0
883 175 0
424 788 0
459 941 0
970 332 0
715 612 0
64 0
162 0
674 0
422 246 0
906 587 0
214 0
603 0
544 601 0
376 478 0
492 0
996 0
578 147 0
715 0
842 908 0
195 333 0
715 0
445 0
699 839 0
148 0
950 0
78 590 0
846 0
599 0
58 909 0
63 0
205 374 0
4 599 0
768 0
308 903 0
938 338 0
982 0
373 0
204 310 0
744 0
216 0
28 0
135 0
609 0
54 0
293 0
822 0
82 45 0
744 0
721 0
134 0
466 0
108 181 0
862 303 0
451 109 0
578 599 0
495 0
389 0
636 375 0
780 421 0
516 0
436 0
960 0
871 0
600 0
952 0
50 749 0
676 0
556 0
772 0
139 180 0
715 788 0
441 0
237 982 0
730 236 0
113 273 0
3 0
451 0
450 866 0
962 0
588 598 0
79 0
164 0
304 0
733 0
425 718 0
236 0
182 0
100 935 0
810 781 0
554 298 0
42 939 0
815 0
275 303 0
616 717 0
586 0
415 0
869 0
220 0
254 0
506 0
971 0
436 0
8 0
340 0
321 0
712 181 0
217 766 0
825 573 0
163 0
336 0
576 28 0
649 363 0
514 0
967 0
394 0
666 0
92 31 0
48 489 0
706 283 0
948 0
650 687 0
944 0
938 0
301 0
784 861 0
425 0
815 0
355 0
47 0
827 0
1000 308 0
362 0
541 0
403 0
393 142 0
744 0
573 221 0
70 0
744 385 0
662 0
46 158 0
462 0
272 0
762 38 0
873 0
776 0
398 0
990 0
474 157 0
283 349 0
730 0
530 47 0
726 0
679 0
917 0
55 0
9 0
180 0
276 0
292 829 0
799 0
99 0
199 0
901 319 0
569 0
434 991 0
125 974 0
945 0
612 21 0
512 0
498 0
909 0
949 0
672 0
449 0
826 199 0
568 37 0
360 0
713 811 0
993 0
344 0
755 0
324 0
341 0
916 0
289 292 0
883 750 0
15 0
160 723 0
577 282 0
433 572 0
614 0
892 877 0
126 0
408 0
156 287 0
345 917 0
669 0
826 0
154 270 0
976 0
364 508 0
782 0
828 0
401 714 0
250 0
708 0
154 0
452 332 0
180 0
742 0
356 0
352 984 0
613 0
611 223 0
601 62 0
876 510 0
896 0
15 591 0
450 371 0
33 0
824 0
34 0
1000 921 0
553 843 0
950 0
819 0
673 0
213 0
551 0
306 0
912 0
854 0
116 0
695 0
261 0
171 0
763 0
113 453 0
262 0
577 131 0
153 706 0
943 0
638 871 0
153 0
653 375 0
908 0
400 766 0
561 137 0
777 722 0
656 594 0
191 0
954 0
272 0
525 0
198 0
881 0
122 0
734 0
882 0
299 317 0
280 0
304 0
359 0
797 0
469 0
137 0
184 0
64 0
433 0
91 887 0
604 917 0
807 0
749 437 0
583 0
296 0
48 0
62 0
192 0
824 0
841 0
819 0
730 396 0
372 0
38 0
66 140 0
998 0
882 0
633 924 0
36 0
727 0
794 0
19 374 0
885 189 0
102 0
564 0
470 0
979 173 0
977 563 0
218 0
857 0
151 0
661 735 0
913 0
309 0
434 187 0
178 0
585 0
285 0
500 0
904 0
761 0
536 634 0
58 0
418 0
464 245 0
693 0
546 0
563 0
440 245 0
262 0
659 0
339 0
962 0
486 0
64 0
710 134 0
369 0
11 227 0
956 0
651 44 0
106 0
635 947 0
64 12 0
812 0
258 0
971 270 0
707 725 0
125 0
489 965 0
54 0
127 0
784 215 0
580 695 0
683 0
712 0
891 0
492 0
355 0
826 379 0
153 836 0
977 0
913 0
840 268 0
705 454 0
274 604 0
629 0
498 0
418 0
293 0
84 0
903 0
807 0
720 183 0
618 0
350 295 0
785 386 0
609 702 0
231 0
107 0
615 0
93 0
68 0
394 0
524 0
486 503 0
593 0
278 0
544 0
28 118 0
930 0
719 0
500 0
25 339 0
125 0
157 0
177 199 0
196 0
926 0
857 0
199 0
728 58 0
146 0
727 0
218 0
761 0
164 269 0
993 964 0
754 0
281 300 0
507 0
957 0
425 0
909 0
626 0
640 91 0
75 0
204 0
114 331 0
833 388 0
907 0
243 995 0
418 139 0
272 75 0
739 0
463 0
80 557 0
632 805 0
19 0
309 0
66 0
546 958 0
21 0
871 0
136 0
788 0
913 0
248 0
190 0
816 0
248 0
92 0
330 91 0
174 0
371 0
568 813 0
381 0
71 0
267 53 0
80 462 0
192 0
438 0
910 0
320 0
365 0
634 0
409 354 0
210 0
551 0
487 0
506 0
241 595 0
616 939 0
558 0
831 0
666 0
689 0
10 454 0
689 526 0
595 599 0
55 0
892 0
978 99 0
513 0
981 814 0
342 0
220 215 0
664 0
560 0
70 982 0
559 663 0
696 469 0
404 542 0
508 0
768 0
977 0
180 0
538 5 0
626 0
551 0
714 0
974 0
189 0
117 0
892 0
679 0
258 0
973 0
366 0
65 202 0
874 0
401 853 0
591 375 0
125 0
33 0
167 0
677 0
291 135 0
193 0
944 208 0
59 54 0
159 0
318 0
240 425 0
504 0
539 0
885 382 0
239 0
406 0
6 0
26 0
777 991 0
141 0
625 0
467 0
408 104 0
834 869 0
831 0
90 0
132 549 0
161 166 0
273 859 0
394 0
368 0
529 0
715 0
413 118 0
755 62 0
280 0
697 826 0
833 670 0
725 0
833 167 0
851 70 0
929 0
67 643 0
946 148 0
982 0
437 0
856 810 0
581 0
608 0
764 823 0
676 0
940 686 0
353 750 0
681 0
667 0
724 0
875 838 0
807 0
226 262 0
593 983 0
66 0
816 410 0
335 0
759 0
593 814 0
299 0
940 0
176 125 0
1000 0
609 0
646 0
25 0
307 270 0
921 0
611 0
78 0
211 0
891 0
416 71 0
69 0
584 0
227 685 0
71 0
48 758 0
19 0
19 0
171 623 0
539 0
931 0
109 0
995 0
842 189 0
530 0
122 741 0
595 0
497 0
251 0
355 0
684 0
878 0
365 782 0
799 0
74 893 0
472 0
473 724 0
92 0
846 0
495 0
683 0
735 0
275 479 0
828 207 0
923 254 0
180 0
237 111 0
863 215 0
864 33 0
80 0
824 997 0
637 405 0
418 364 0
786 0
440 177 0
109 0
88 0
536 0
676 0
63 0
95 0
714 0
983 0
592 0
318 0
26 0
539 0
501 0
185 0
140 461 0
226 803 0
77 887 0
515 0
722 0
426 106 0
38 0
9 0
767 0
985 0
888 107 0
78 0
165 0
284 21 0
960 816 0
67 0
169 0
538 83 0
126 0
537 0
412 655 0
341 270 0
467 0
72 0
405 0
620 492 0
650 630 0
388 0
166 0
918 0
749 0
329 401 0
849 124 0
694 0
372 0
136 214 0
36 677 0
423 0
242 700 0
654 0
590 830 0
342 0
71 0
487 463 0
363 925 0
168 0
395 468 0
550 0
305 0
227 215 0
782 0
446 0
536 0
923 0
640 699 0
482 0
495 0
753 582 0
381 0
740 0
241 798 0
573 0
148 838 0
289 987 0
422 0
858 252 0
96 0
58 741 0
451 716 0
216 0
930 263 0
546 0
768 0
260 0
762 0
410 0
728 0
693 0
923 0
299 0
535 0
880 278 0
945 668 0
749 0
557 0
970 374 0
395 0
415 0
209 292 0
335 0
490 887 0
730 191 0
827 0
488 0
378 445 0
198 0
391 959 0
896 93 0
572 0
445 0
284 0
776 139 0
425 755 0
242 394 0
404 0
960 0
306 546 0
197 0
433 974 0
824 457 0
138 0
276 133 0
576 0
528 0
962 868 0
647 0
986 327 0
956 0
91 0
241 567 0
612 0
744 0
894 0
551 0
793 0
821 0
404 0
629 455 0
330 0
480 184 0
709 0
99 0
438 0
681 895 0
836 0
24 0
838 0
845 0
640 937 0
75 491 0
212 0
885 447 0
237 0
353 68 0
263 0
891 956 0
41 852 0
248 38 0
367 0
512 0
848 0
805 0
735 0
702 0
559 0
601 0
954 908 0
705 0
503 0
166 0
771 0
103 0
191 0
983 0
330 0
888 0
23 0
590 0
199 0
645 0
918 0
684 0
326 0
797 0
395 652 0
345 0
411 324 0
394 0
441 678 0
403 724 0
675 0
175 0
856 416 0
538 0
79 0
705 0
830 0
198 686 0
300 0
496 372 0
29 0
427 341 0
744 0
515 614 0
294 0
174 0
113 348 0
284 0
506 470 0
386 182 0
132 494 0
609 662 0
664 0
836 0
196 0
551 0
268 0
132 965 0
193 0
267 0
2 797 0
373 0
545 0
528 0
113 343 0
555 470 0
684 0
761 401 0
760 663 0
99 0
570 283 0
532 0
925 0
936 490 0
586 0
796 0
989 0
905 0
37 0
579 259 0
517 0
44 0
983 0
77 0
88 93 0
763 0
690 588 0
643 805 0
280 0
25 729 0
418 0
348 919 0
733 0
666 0
731 238 0
466 0
387 0
137 0
628 300 0
358 0
7 0
960 534 0
745 229 0
833 879 0
342 0
628 0
658 926 0
169 549 0
560 0
390 0
815 0
987 243 0
596 0
916 0
175 0
249 914 0
327 0
925 0
817 0
472 121 0
352 0
659 0
881 951 0
523 131 0
87 0
656 356 0
237 0
937 762 0
939 0
365 0
221 0
603 20 0
147 687 0
27 0
20 0
958 0
804 0
171 0
171 0
913 0
627 0
218 863 0
466 0
970 0
193 132 0
284 669 0
663 0
128 0
416 585 0
530 735 0
702 0
396 0
299 0
803 0
532 604 0
581 0
960 538 0
172 0
421 0
27 0
123 0
939 0
167 0
686 0
879 0
916 0
535 0
896 969 0
108 0
284 0
592 151 0
163 957 0
157 0
642 491 0
192 0
698 0
869 0
242 0
848 0
858 0
663 0
573 0
813 0
884 0
19 211 0
441 956 0
160 0
197 0
793 843 0
371 0
720 0
515 662 0
89 941 0
956 422 0
978 0
235 0
115 0
159 0
958 0
620 0
105 3 0
678 215 0
302 0
568 0
855 0
593 0
611 483 0
206 0
497 0
888 0
843 0
383 0
381 663 0
11 637 0
785 0
268 0
251 0
536 0
770 0
317 0
33 669 0
444 0
450 812 0
852 0
347 0
351 0
988 0
972 286 0
196 0
466 0
785 0
161 764 0
888 106 0
686 0
503 0
538 0
932 0
315 901 0
210 0
484 0
640 0
653 0
571 719 0
80 940 0
57 863 0
107 0
770 0
914 501 0
111 0
979 229 0
620 790 0
758 0
32 475 0
846 0
148 364 0
785 909 0
975 0
962 0
60 0
980 0
368 671 0
2 771 0
198 0
578 0
247 0
897 842 0
785 0
400 0
264 0
314 0
492 207 0
618 191 0
2 742 0
715 861 0
74 0
822 359 0
821 927 0
571 0
513 79 0
244 0
139 0
334 246 0
970 0
128 0
373 0
348 0
732 0
598 238 0
536 0
120 246 0
923 478 0
108 0
65 0
343 0
907 0
604 0
363 0
792 0
272 433 0
504 277 0
184 540 0
774 0
388 0
786 0
784 0
664 0
532 213 0
11 422 0
219 310 0
43 0
852 0
739 0
233 661 0
354 71 0
433 0
596 0
391 0
928 0
33 526 0
500 0
178 0
803 0
449 0
39 0
618 0
375 0
256 0
664 663 0
883 277 0
339 436 0
852 0
35 0
415 0
693 0
56 610 0
386 0
681 0
136 676 0
438 0
615 0
717 0
75 102 0
28 0
369 765 0
666 0
568 0
664 0
936 694 0
514 0
928 0
561 0
952 407 0
735 0
544 0
131 0
634 0
105 0
5 0
31 0
696 0
781 0
852 637 0
541 0
590 0
370 0
213 0
381 0
718 599 0
530 326 0
993 0
412 477 0
980 614 0
21 0
91 0
244 0
855 0
610 402 0
179 0
233 0
746 0
21 0
837 31 0
911 0
827 492 0
780 0
504 323 0
335 0
633 0
178 413 0
162 85 0
879 0
317 0
11 654 0
697 0
705 0
191 0
10 0
773 0
395 0
584 618 0
289 689 0
378 180 0
67 191 0
149 566 0
998 0
625 0
338 0
227 203 0
561 0
472 333 0
434 0
349 0
300 654 0
417 165 0
324 0
578 0
650 482 0
82 0
346 668 0
488 893 0
933 774 0
60 0
620 0
381 0
192 0
56 0
561 0
225 0
90 0
705 701 0
978 293 0
852 0
572 0
166 0
272 0
886 0
626 0
738 111 0
329 490 0
307 0
954 42 0
925 0
241 0
208 385 0
467 6 0
44 0
1000 0
441 338 0
762 443 0
371 0
741 0
316 0
147 0
627 55 0
936 913 0
244 0
190 0
83 807 0
186 0
455 0
563 0
975 0
890 0
639 0
71 0
270 0
137 0
570 0
520 145 0
577 0
3 956 0
858 0
665 0
791 0
418 0
823 0
528 33 0
13 0
92 919 0
910 0
769 0
312 0
789 0
603 0
893 718 0
544 0
64 742 0
387 0
707 759 0
42 0
761 0
157 0
967 0
715 183 0
361 0
549 0
302 38 0
688 0
600 119 0
964 0
911 0
529 0
169 0
294 0
453 0
465 0
619 0
345 497 0
610 975 0
280 0
175 0
670 0
569 0
861 0
50 0
496 36 0
616 0
224 862 0
120 355 0
153 965 0
66 0
707 183 0
398 0
920 655 0
306 783 0
506 0
671 0
860 0
268 958 0
879 0
328 0
754 413 0
307 0
684 0
873 0
243 0
780 0
665 769 0
133 0
613 0
831 0
145 0
344 0
926 0
563 0
625 0
326 0
170 738 0
980 0
151 0
483 0
543 0
755 415 0
350 0
219 0
299 0
124 0
277 0
102 0
117 0
198 0
774 255 0
181 0
609 0
252 791 0
875 527 0
340 125 0
707 0
953 282 0
54 0
953 0
641 0
148 487 0
484 0
225 62 0
867 0
284 718 0
528 759 0
953 443 0
361 182 0
876 908 0
988 0
922 0
562 0
753 39 0
934 0
376 739 0
913 675 0
460 0
944 313 0
41 317 0
946 902 0
824 427 0
183 0
705 0
995 0
361 0
675 0
546 0
332 0
53 0
203 0
520 678 0
29 0
699 4 0
601 0
356 0
608 210 0
589 0
256 367 0
912 387 0
451 0
50 715 0
113 0
218 0
327 55 0
662 0
586 0
590 0
642 259 0
160 478 0
234 4 0
819 0
217 388 0
780 0
296 702 0
64 0
849 0
363 0
129 807 0
788 0
331 139 0
833 0
439 0
655 0
679 0
865 699 0
385 0
279 0
284 0
396 0
322 187 0
794 0
552 0
629 133 0
574 0
970 0
819 0
534 0
822 0
1 830 0
281 706 0
122 0
886 0
507 485 0
453 0
861 0
285 0
493 710 0
481 0
873 0
960 0
277 949 0
380 0
903 0
369 0
457 0
736 74 0
13 0
75 0
780 0
454 0
388 854 0
377 795 0
678 255 0
698 0
817 828 0
336 0
386 0
425 502 0
989 0
700 0
728 941 0
200 0
606 0
247 0
722 436 0
310 0
709 790 0
296 0
801 0
66 0
310 0
230 0
17 180 0
50 0
429 0
162 0
822 783 0
327 0
111 0
505 0
967 0
353 0
339 0
114 141 0
130 532 0
778 853 0
642 0
545 0
376 0
559 0
293 0
397 0
559 0
809 39 0
426 0
568 237 0
127 0
250 0
972 0
224 391 0
456 0
398 0
225 317 0
993 0
202 0
764 0
571 0
562 427 0
775 0
467 0
918 0
20 0
641 260 0
72 0
932 725 0
513 895 0
754 0
657 0
290 0
317 741 0
501 0
890 0
72 175 0
96 431 0
696 11 0
633 0
887 0
377 372 0
923 0
274 621 0
555 0
674 0
780 30 0
450 359 0
898 295 0
80 148 0
538 0
659 0
303 0
690 710 0
379 0
788 0
783 0
899 0
59 0
106 0
898 0
11 0
468 0
643 492 0
561 0
121 625 0
146 0
730 668 0
375 0
240 924 0
285 0
283 651 0
79 0
186 334 0
814 0
451 479 0
405 0
205 0
20 462 0
466 0
187 939 0
674 77 0
48 109 0
130 149 0
505 0
724 300 0
930 191 0
817 0
596 622 0
939 460 0
449 0
934 0
9 82 0
516 255 0
774 0
262 0
981 478 0
368 0
520 137 0
619 0
998 0
971 813 0
427 0
959 0
427 0
822 0
924 0
988 0
307 0
329 0
163 0
216 907 0
942 0
197 0
106 523 0
999 0
827 0
292 446 0
804 0
562 590 0
48 766 0
514 0
861 0
995 0
8 654 0
65 133 0
483 918 0
129 0
718 687 0
856 0
547 0
573 783 0
554 0
432 996 0
315 189 0
858 395 0
963 0
564 0
872 0
15 0
928 0
636 0
36 574 0
891 0
484 0
33 0
563 117 0
461 0
120 101 0
993 0
993 0
435 0
427 0
941 0
586 732 0
673 0
558 0
817 0
701 863 0
651 0
281 0
719 0
244 902 0
857 338 0
853 0
161 275 0
571 243 0
162 314 0
672 466 0
37 53 0
329 609 0
956 910 0
89 0
450 407 0
681 0
796 293 0
482 0
317 0
5 742 0
158 0
564 0
996 0
812 0
905 962 0
420 556 0
972 0
840 0
906 123 0
88 842 0
146 0
144 843 0
234 581 0
666 660 0
508 77 0
309 0
20 844 0
724 0
40 189 0
809 0
64 216 0
76 0
966 0
181 0
979 0
499 613 0
492 959 0
200 0
665 0
881 0
626 619 0
764 0
888 0
168 0
603 831 0
903 0
266 0
212 213 0
157 0
578 61 0
500 279 0
599 0
206 0
541 0
814 511 0
822 0
130 495 0
590 0
285 0
224 0
268 958 0
960 0
330 0
902 0
302 0
541 0
860 0
255 0
113 0
334 0
497 799 0
842 0
808 859 0
459 0
488 0
552 24 0
758 415 0
346 389 0
174 407 0
120 0
20 0
469 0
588 0
736 805 0
445 838 0
320 872 0
68 0
936 0
296 572 0
968 0
31 0
976 0
105 0
758 0
313 0
329 0
409 954 0
125 95 0
3 0
16 282 0
919 0
512 0
641 0
301 0
128 0
813 0
34 0
967 0
92 0
208 0
296 170 0
594 0
985 0
130 379 0
450 0
69 0
388 0
31 0
527 0
148 0
317 0
368 0
449 522 0
82 0
921 37 0
956 0
568 64 0
777 0
835 0
11 391 0
748 997 0
603 0
243 365 0
924 0
769 0
801 0
371 0
875 0
194 0
76 0
92 0
12 0
641 679 0
964 0
436 0
230 0
526 0
131 367 0
311 0
639 0
480 0
606 0
139 0
363 380 0
598 0
653 0
882 0
729 0
672 487 0
588 757 0
288 495 0
138 0
273 0
137 0
961 0
61 0
14 287 0
874 0
644 0
850 0
880 347 0
213 0
599 0
827 549 0
449 0
192 0
29 405 0
497 0
676 0
13 0
736 484 0
500 0
673 23 0
137 0
850 0
274 0
438 71 0
85 0
2 0
240 0
590 0
617 906 0
479 0
257 265 0
134 0
247 0
433 0
648 286 0
780 0
872 675 0
73 0
825 0
916 0
995 0
672 826 0
813 263 0
44 173 0
755 0
437 0
305 0
337 0
805 0
732 0
186 77 0
442 242 0
358 0
229 815 0
75 0
443 0
571 0
416 130 0
104 578 0
54 0
45 0
464 492 0
247 0
436 0
991 0
748 0
281 737 0
202 0
691 327 0
951 0
832 0
908 501 0
244 0
865 0
327 0
807 0
902 0
460 0
727 0
204 0
794 0
484 831 0
604 334 0
561 615 0
305 639 0
105 415 0
651 0
468 927 0
710 0
752 714 0
515 0
637 0
828 501 0
177 0
122 0
497 261 0
708 773 0
114 0
606 0
290 0
129 0
115 387 0
400 311 0
490 711 0
693 79 0
508 0
333 0
656 0
84 421 0
634 0
518 0
670 0
642 0
419 0
12 0
253 0
387 151 0
164 0
105 947 0
72 0
547 0
989 0
792 0
848 0
762 0
916 0
676 726 0
612 0
137 0
232 699 0
57 660 0
791 0
740 0
9 302 0
629 0
901 0
157 0
461 0
972 533 0
679 31 0
442 0
901 0
789 0
960 328 0
187 0
897 677 0
107 0
641 858 0
125 326 0
412 0
91 759 0
194 0
261 0
428 686 0
122 116 0
277 0
571 0
8 0
981 590 0
81 406 0
832 737 0
301 0
417 0
995 131 0
870 0
180 455 0
897 463 0
599 0
46 943 0
892 133 0
626 0
698 22 0
95 0
560 0
153 0
419 0
523 214 0
488 2 0
468 0
519 0
490 0
348 222 0
346 0
740 549 0
246 0
134 0
130 892 0
83 0
881 0
509 0
897 742 0
467 0
564 0
611 763 0
493 0
742 0
605 0
717 0
858 0
115 0
725 0
39 0
381 535 0
857 0
816 120 0
296 0
805 198 0
580 126 0
69 847 0
969 0
353 0
18 0
345 0
74 0
559 0
609 806 0
581 0
817 943 0
610 926 0
246 0
252 965 0
391 0
745 0
22 847 0
87 0
428 756 0
889 0
242 155 0
249 705 0
742 0
788 341 0
418 0
495 0
9 0
246 0
283 0
378 219 0
360 0
10 0
49 0
520 171 0
152 323 0
769 196 0
198 0
697 0
578 637 0
936 819 0
138 623 0
709 0
72 0
646 0
394 871 0
737 0
572 0
310 0
984 0
810 0
161 0
104 0
51 0
17 0
758 774 0
764 0
148 0
252 0
491 543 0
658 84 0
646 0
50 91 0
221 0
495 0
593 724 0
9 0
856 916 0
84 519 0
794 175 0
544 0
242 0
244 0
694 0
488 0
969 0
375 0
639 0
276 0
277 0
220 0
137 836 0
380 0
125 0
105 0
536 417 0
873 124 0
444 580 0
215 0
798 0
500 0
187 79 0
642 0
217 0
870 567 0
261 719 0
966 0
936 79 0
404 773 0
105 0
782 0
144 0
895 0
162 698 0
166 0
755 0
260 0
701 791 0
426 662 0
921 0
834 493 0
902 0
108 0
420 0
412 0
635 541 0
284 0
239 0
248 214 0
338 103 0
556 0
250 963 0
106 0
299 543 0
996 0
153 874 0
971 0
724 14 0
670 0
184 666 0
735 0
12 0
928 0
981 0
488 0
475 478 0
361 634 0
12 0
329 0
160 769 0
190 0
981 831 0
467 0
32 18 0
937 0
92 0
832 0
192 0
987 0
497 637 0
203 0
801 611 0
377 0
320 0
14 0
812 174 0
873 0
651 0
839 0
772 0
392 895 0
774 0
661 0
777 0
704 0
664 671 0
241 174 0
29 0
843 789 0
322 0
952 253 0
193 54 0
522 0
555 828 0
533 0
411 0
893 0
531 0
636 430 0
17 0
873 783 0
401 0
529 0
687 0
323 0
987 0
314 0
830 0
71 167 0
421 703 0
389 526 0
864 673 0
6 0
706 709 0
378 395 0
384 777 0
143 0
616 28 0
179 767 0
626 0
994 0
907 708 0
243 0
456 947 0
957 407 0
696 123 0
436 0
498 0
587 0
139 0
176 666 0
203 0
475 0
155 0
840 571 0
395 0
329 41 0
754 0
803 447 0
447 0
300 389 0
878 0
104 629 0
204 607 0
574 0
489 0
616 455 0
111 0
755 0
125 0
642 155 0
653 189 0
675 0
838 0
316 719 0
217 0
112 0
100 0
856 66 0
292 765 0
798 319 0
554 0
858 0
383 0
364 0
563 0
938 0
925 0
537 251 0
84 0
987 0
664 841 0
803 0
899 198 0
540 0
953 0
106 964 0
143 0
465 0
626 0
116 0
470 0
915 910 0
426 522 0
809 0
800 0
19 279 0
739 0
285 0
389 0
948 0
322 0
98 0
208 238 0
637 0
20 0
39 743 0
849 636 0
793 0
664 656 0
402 0
884 422 0
979 0
859 0
500 0
774 559 0
783 895 0
321 754 0
1 707 0
451 0
584 0
356 0
255 0
125 0
160 526 0
826 0
155 710 0
458 562 0
329 0
363 0
509 686 0
548 0
130 0
931 0
789 0
951 0
24 0
337 133 0
232 638 0
654 0
508 0
606 0
479 0
610 0
770 147 0
602 0
703 0
38 0
568 737 0
787 0
30 999 0
309 0
844 0
654 0
283 899 0
112 0
26 0
231 0
104 807 0
212 0
644 0
818 0
124 0
957 0
458 574 0
552 162 0
377 0
460 0
264 0
990 670 0
277 271 0
58 0
681 0
48 0
635 0
371 211 0
993 214 0
696 810 0
762 86 0
867 0
946 339 0
5 0
36 0
801 0
682 0
225 309 0
184 154 0
695 0
41 0
929 0
638 991 0
251 39 0
672 652 0
939 0
272 0
546 0
632 758 0
841 106 0
827 0
674 0
887 0
554 0
858 932 0
706 0
661 0
379 0
915 0
135 0
1000 9 0
927 0
719 0
429 0
300 583 0
956 0
830 0
424 0
10 628 0
304 0
585 0
708 975 0
579 0
346 111 0
678 0
895 0
615 247 0
996 0
558 94 0
515 123 0
614 0
888 357 0
613 0
138 0
734 0
566 871 0
484 694 0
284 750 0
896 0
555 0
172 0
392 235 0
460 0
327 0
863 0
390 0
766 0
695 0
8 783 0
921 689 0
432 882 0
130 0
60 0
8 0
628 260 0
30 0
924 0
620 0
189 0
93 0
161 0
748 0
851 478 0
323 0
348 0
262 0
922 27 0
649 68 0
57 0
139 780 0
458 0
275 0
108 0
793 0
537 0
298 532 0
127 0
126 0
366 0
51 878 0
793 236 0
201 783 0
709 0
314 530 0
678 0
371 0
708 52 0
897 0
250 0
741 0
925 0
254 855 0
12 0
163 0
427 0
354 0
546 971 0
326 0
808 145 0
248 474 0
154 244 0
756 0
766 0
182 0
534 0
792 398 0
333 214 0
818 229 0
434 171 0
406 0
998 0
129 0
366 0
20 0
401 693 0
316 0
861 0
185 201 0
169 0
895 0
573 821 0
467 0
164 0
280 0
344 993 0
948 0
979 61 0
570 517 0
840 994 0
594 0
149 0
509 0
236 0
840 688 0
864 117 0
845 0
558 0
608 0
474 0
637 103 0
986 0
699 0
230 0
861 0
724 0
262 0
27 0
168 667 0
971 0
681 0
848 403 0
390 351 0
342 0
386 0
408 129 0
173 0
859 0
500 453 0
638 927 0
490 0
463 0
204 0
828 0
929 0
837 0
656 951 0
642 0
209 0
232 428 0
940 0
786 0
865 0
121 558 0
265 297 0
697 0
52 623 0
512 0
706 0
582 0
864 189 0
82 0
279 0
825 461 0
21 0
450 0
644 0
747 0
366 0
862 0
177 0
483 0
456 893 0
912 0
149 0
832 0
512 42 0
681 0
912 107 0
668 0
250 755 0
598 846 0
666 0
304 465 0
961 0
765 0
849 742 0
534 0
123 958 0
942 0
366 831 0
604 0
314 0
404 0
145 0
384 0
32 433 0
124 0
61 0
579 0
481 461 0
370 0
134 0
48 0
968 331 0
340 590 0
700 511 0
916 0
736 0
657 901 0
28 663 0
362 0
483 0
699 0
822 0
898 0
707 0
252 551 0
483 557 0
339 147 0
491 356 0
619 0
897 0
938 0
429 0
91 0
715 0
494 0
571 0
581 0
88 302 0
430 279 0
698 0
883 0
909 0
904 81 0
300 0
249 0
341 0
955 0
824 0
724 239 0
18 635 0
766 839 0
989 0
415 0
706 396 0
270 0
493 239 0
949 0
915 0
245 0
120 489 0
465 0
135 0
278 0
519 0
990 0
609 499 0
811 0
520 174 0
832 0
334 0
722 0
445 0
931 0
242 0
758 0
229 0
696 0
603 0
338 0
618 0
405 791 0
643 0
76 0
453 959 0
777 641 0
825 0
831 0
556 0
33 0
235 0
324 0
956 775 0
98 845 0
906 398 0
783 0
928 512 0
501 135 0
352 441 0
149 382 0
795 0
812 0
892 0
489 0
79 0
152 136 0
813 0
417 109 0
974 0
994 77 0
841 0
504 427 0
772 0
81 0
772 0
234 0
4 373 0
40 0
1000 0
360 131 0
775 0
278 0
891 0
433 300 0
367 0
664 0
956 0
640 468 0
734 0
509 0
880 910 0
565 439 0
101 751 0
218 0
597 0
735 0
149 631 0
317 0
996 0
349 0
815 0
113 0
816 0
480 727 0
876 0
689 0
427 0
939 844 0
376 0
741 0
65 0
724 812 0
841 621 0
464 638 0
297 0
62 823 0
292 0
443 0
899 0
356 0
129 826 0
576 421 0
197 0
39 0
285 0
483 0
484 0
994 179 0
666 0
616 0
960 258 0
100 862 0
628 0
178 411 0
803 0
285 0
141 0
318 687 0
382 0
26 0
336 0
557 0
770 0
264 0
129 501 0
697 0
955 0
789 0
675 0
923 102 0
266 190 0
747 0
554 0
74 575 0
726 0
328 0
126 0
379 0
964 0
974 0
908 455 0
474 734 0
201 0
328 342 0
946 995 0
310 0
753 380 0
145 0
306 654 0
332 0
667 0
548 0
155 0
609 90 0
74 0
922 71 0
487 983 0
170 589 0
710 0
269 503 0
659 311 0
716 0
265 0
891 0
753 0
888 0
842 691 0
990 0
665 0
88 0
992 0
158 0
989 0
105 978 0
101 0
313 0
199 0
70 0
506 0
547 0
345 0
501 0
241 0
800 0
785 150 0
104 0
107 139 0
737 970 0
728 455 0
260 759 0
225 0
659 0
316 0
620 0
756 0
98 0
47 0
251 85 0
254 0
594 13 0
58 765 0
14 0
142 742 0
40 149 0
239 0
495 0
992 0
960 0
390 0
996 0
352 788 0
91 0
377 950 0
384 269 0
823 0
313 93 0
963 0
454 919 0
568 0
89 0
670 0
392 0
41 974 0
80 0
591 0
277 718 0
96 0
78 0
930 0
2 662 0
704 0
107 0
322 0
130 0
633 277 0
270 0
330 0
971 0
154 0
909 0
75 0
562 0
475 0
12 598 0
543 0
480 861 0
697 0
556 0
522 127 0
393 886 0
180 0
228 0
929 0
520 581 0
65 0
88 0
620 0
455 0
322 387 0
224 0
258 933 0
866 0
605 0
64 0
198 0
82 0
320 0
509 813 0
921 0
920 537 0
580 0
453 0
136 172 0
303 0
228 927 0
645 215 0
673 0
107 0
389 0
619 0
81 548 0
304 57 0
133 0
249 455 0
548 0
878 0
628 750 0
344 908 0
615 0
739 0
215 0
689 478 0
337 0
5 663 0
763 0
275 0
281 0
85 0
325 0
673 138 0
570 0
320 0
224 0
172 0
82 723 0
84 0
712 0
681 74 0
655 0
524 702 0
170 0
540 757 0
931 0
464 0
389 790 0
937 0
376 0
51 0
307 539 0
940 0
762 0
200 0
92 0
315 0
494 0
124 0
756 0
568 0
309 0
599 0
228 669 0
342 0
957 0
19 679 0
901 0
514 790 0
509 0
835 524 0
866 251 0
975 0
494 0
190 0
825 0
92 0
793 885 0
72 0
796 686 0
464 0
974 0
469 0
38 486 0
920 947 0
79 0
962 118 0
617 101 0
609 14 0
38 0
329 0
455 0
998 0
592 380 0
821 0
44 0
137 172 0
812 0
843 0
840 821 0
32 130 0
8 612 0
75 0
413 0
128 918 0
857 0
56 0
670 0
256 0
570 0
338 403 0
387 0
855 0
752 137 0
569 498 0
345 0
976 0
164 0
272 207 0
265 0
771 486 0
525 886 0
792 0
166 0
100 0
361 766 0
685 0
820 0
516 0
634 0
912 0
326 0
634 708 0
596 0
449 0
583 311 0
295 0
831 0
474 0
411 406 0
161 0
927 0
947 820 0
146 0
233 0
409 0
884 0
152 901 0
13 0
268 0
844 796 0
164 0
854 0
617 0
714 735 0
320 0
249 0
509 437 0
4 0
402 0
214 254 0
933 0
456 661 0
531 133 0
744 354 0
624 277 0
12 0
258 62 0
152 0
351 0
541 0
667 0
864 542 0
519 0
529 843 0
277 0
238 967 0
69 213 0
562 727 0
575 727 0
52 0
29 0
388 0
658 0
309 0
738 0
385 0
184 0
155 0
185 0
359 0
934 0
410 983 0
115 0
849 0
560 0
64 47 0
25 0
499 0
447 143 0
915 0
617 859 0
982 0
370 615 0
289 0
877 0
525 0
520 786 0
746 0
359 0
983 0
343 0
150 0
112 0
146 0
161 42 0
492 0
640 86 0
386 0
649 0
268 0
907 0
830 0
726 0
590 0
1 485 0
734 0
149 0
475 0
819 0
241 0
385 0
752 868 0
56 0
582 0
59 980 0
33 0
550 0
289 969 0
768 0
114 0
338 0
771 0
984 0
472 0
256 0
988 831 0
239 0
122 0
960 159 0
269 0
800 0
276 844 0
52 0
592 0
606 0
211 0
211 0
371 0
722 0
192 0
760 0
671 0
322 0
52 702 0
424 0
701 0
331 446 0
528 727 0
420 573 0
884 0
953 0
303 0
246 79 0
675 0
351 0
370 957 0
762 0
576 0
604 0
754 510 0
40 0
866 0
514 79 0
957 0
655 0
965 0
687 0
215 0
184 0
36 407 0
203 0
809 0
244 375 0
57 0
997 0
719 0
408 0
812 0
700 0
621 895 0
619 79 0
407 0
658 0
532 0
540 207 0
327 0
623 0
390 0
832 0
434 0
617 221 0
725 0
936 0
879 0
323 0
670 0
897 822 0
592 0
248 598 0
515 0
303 0
128 748 0
409 718 0
160 642 0
634 0
448 0
144 549 0
860 0
781 0
225 716 0
769 118 0
816 0
474 941 0
458 597 0
790 0
472 350 0
799 0
46 95 0
778 0
791 335 0
436 0
436 926 0
147 0
545 677 0
602 693 0
280 715 0
344 884 0
521 0
964 85 0
289 0
266 0
176 329 0
874 0
610 343 0
877 0
829 0
818 443 0
162 0
480 345 0
290 322 0
66 0
496 246 0
103 0
477 0
583 0
550 855 0
828 847 0
192 764 0
406 0
484 0
656 481 0
366 790 0
423 0
426 47 0
771 0
16 0
293 0
183 0
688 0
36 0
363 0
884 0
344 934 0
523 0
827 0
461 0
536 173 0
543 0
200 0
842 0
656 0
712 773 0
931 0
915 0
245 861 0
576 969 0
520 390 0
402 279 0
449 0
260 0
952 0
608 0
267 166 0
21 0
937 0
771 0
476 830 0
522 0
103 0
574 0
634 0
818 0
743 0
745 0
273 0
188 574 0
78 0
201 0
266 0
720 0
248 23 0
754 0
866 0
170 0
826 0
131 0
307 558 0
83 811 0
283 339 0
168 691 0
344 551 0
764 0
423 0
655 0
749 0
120 0
660 742 0
805 246 0
110 0
281 0
928 0
328 106 0
754 0
666 165 0
448 458 0
378 0
719 0
961 28 0
435 403 0
180 175 0
197 0
983 0
248 460 0
945 443 0
207 0
253 0
398 0
80 0
249 772 0
908 0
90 0
240 679 0
553 28 0
277 574 0
763 581 0
115 359 0
68 0
139 0
705 0
958 0
34 903 0
173 0
985 0
579 211 0
122 0
225 0
213 0
428 709 0
771 110 0
278 0
107 0
24 0
233 0
716 0
132 261 0
355 0
523 0
241 0
564 0
159 0
368 0
772 342 0
216 0
174 0
493 0
42 0
377 334 0
880 864 0
434 0
744 500 0
1 0
181 0
800 0
631 0
570 251 0
370 0
661 710 0
64 0
722 669 0
6 511 0
792 0
782 0
447 0
153 0
103 0
105 0
201 0
169 0
287 0
496 177 0
98 0
236 0
936 0
421 0
604 0
659 0
78 230 0
463 0
832 852 0
992 681 0
965 0
214 0
33 0
246 0
610 0
856 0
491 708 0
725 950 0
77 0
549 0
232 0
275 0
910 0
419 956 0
444 0
410 0
210 0
472 993 0
983 0
849 0
886 0
271 0
840 500 0
982 0
217 0
839 0
422 0
510 0
447 0
824 0
864 399 0
288 0
955 365 0
482 0
794 0
261 0
497 0
168 0
619 0
557 0
121 0
370 834 0
220 0
668 0
289 0
103 0
786 399 0
532 0
945 0
615 0
490 0
813 0
431 47 0
418 0
931 0
417 549 0
105 0
139 0
424 963 0
124 0
268 797 0
501 0
162 0
360 0
139 293 0
459 0
577 0
738 0
818 877 0
795 0
520 0
456 0
791 0
207 0
450 180 0
546 0
896 85 0
354 995 0
382 0
825 0
73 323 0
451 0
738 0
70 303 0
191 0
232 439 0
129 204 0
687 0
118 0
944 59 0
48 185 0
817 591 0
676 252 0
308 0
544 0
348 0
8 0
400 683 0
996 0
847 0
607 0
828 0
962 0
502 0
396 0
820 21 0
836 0
920 409 0
952 0
991 0
605 0
541 830 0
720 43 0
747 925 0
177 0
835 0
97 0
102 0
888 44 0
777 0
857 453 0
280 381 0
770 0
56 0
637 0
296 0
513 938 0
877 0
584 0
985 0
627 885 0
491 0
859 0
142 0
661 0
527 0
326 0
240 939 0
34 0
383 615 0
254 0
399 751 0
42 0
152 143 0
372 0
107 395 0
420 0
674 0
857 151 0
625 0
915 0
222 0
332 303 0
181 0
17 773 0
679 0
666 931 0
561 0
454 0
426 0
471 0
578 236 0
324 0
671 0
884 0
639 0
845 0
29 198 0
920 0
851 0
684 0
396 0
633 0
352 764 0
614 0
81 0
906 782 0
280 900 0
888 686 0
145 0
979 0
346 0
974 0
703 0
389 607 0
559 0
252 0
567 0
816 0
335 0
600 642 0
644 0
520 0
885 327 0
169 702 0
708 838 0
801 0
513 276 0
297 836 0
832 0
585 530 0
576 0
167 727 0
824 0
901 0
642 743 0
689 526 0
304 0
15 0
194 0
466 0
819 790 0
730 0
999 0
119 0
348 382 0
359 0
804 551 0
531 0
504 0
41 269 0
691 0
262 0
498 11 0
269 0
965 663 0
456 0
867 0
352 0
96 0
154 79 0
403 0
634 278 0
561 0
109 0
589 0
495 0
818 0
145 0
382 0
473 262 0
454 0
16 0
586 0
170 693 0
73 812 0
152 40 0
673 0
202 558 0
380 0
184 0
433 831 0
33 238 0
531 630 0
576 0
468 0
863 0
49 0
67 220 0
998 0
182 311 0
879 0
265 612 0
739 0
330 0
712 844 0
311 0
880 565 0
324 366 0
436 0
462 0
427 0
868 0
130 155 0
115 0
610 0
730 0
647 0
375 0
407 0
285 0
665 0
836 0
26 0
765 0
400 519 0
828 0
874 845 0
816 893 0
21 0
574 207 0
724 0
218 0
666 858 0
924 0
861 981 0
649 0
995 0
498 0
197 0
882 0
84 94 0
397 0
419 533 0
688 0
733 0
471 0
326 0
346 0
994 471 0
318 0
93 0
176 388 0
368 782 0
13 790 0
953 0
827 0
586 0
100 572 0
43 0
451 0
90 607 0
856 826 0
392 172 0
91 0
783 0
866 0
562 0
698 0
795 703 0
383 0
198 863 0
368 733 0
248 0
14 0
39 0
52 0
912 0
137 0
849 335 0
653 0
614 0
256 0
44 0
414 0
329 663 0
548 103 0
322 667 0
880 960 0
620 0
1 613 0
588 0
629 0
792 451 0
726 0
590 0
452 0
603 0
759 0
717 501 0
114 0
576 446 0
683 0
705 0
464 671 0
444 350 0
3 0
534 0
505 0
893 0
222 0
569 0
376 0
179 0
315 0
375 0
466 389 0
725 0
201 0
328 803 0
301 0
512 73 0
447 0
95 0
576 661 0
413 0
441 980 0
805 0
37 389 0
659 452 0
241 0
27 574 0
3 0
912 0
815 0
555 0
460 0
378 437 0
34 582 0
528 0
839 0
697 0
892 0
753 678 0
573 191 0
326 0
986 158 0
210 0
370 0
740 0
810 341 0
554 0
171 0
955 510 0
360 831 0
275 0
6 0
362 158 0
577 0
178 0
402 0
669 0
885 0
912 711 0
321 179 0
979 0
339 324 0
747 0
386 0
599 0
929 0
661 0
106 0
430 0
511 0
88 0
20 718 0
288 557 0
129 385 0
266 0
816 0
598 0
575 0
525 742 0
985 429 0
215 0
204 79 0
115 772 0
844 0
816 93 0
217 0
737 0
808 0
976 0
129 873 0
24 683 0
104 463 0
704 107 0
546 0
459 796 0
65 0
264 0
644 0
615 0
828 0
924 94 0
559 0
254 0
570 555 0
216 809 0
285 551 0
957 0
249 158 0
410 0
114 806 0
833 117 0
126 0
449 533 0
245 23 0
983 0
321 0
257 0
654 0
288 574 0
543 0
716 157 0
355 158 0
728 40 0
902 0
159 0
440 0
677 0
28 0
829 0
304 0
416 0
99 0
260 0
434 0
800 0
433 0
393 0
915 0
356 686 0
633 623 0
965 0
131 467 0
993 0
643 0
8 399 0
100 85 0
784 91 0
264 0
353 487 0
14 0
165 0
201 0
357 422 0
944 23 0
356 0
57 703 0
637 0
90 0
13 0
88 0
558 0
268 0
485 0
18 71 0
400 119 0
909 0
244 0
745 0
200 260 0
167 503 0
858 0
477 903 0
265 0
18 0
49 0
225 331 0
43 0
844 0
777 173 0
222 439 0
23 0
914 0
823 0
567 0
605 0
516 0
407 0
273 964 0
264 0
181 870 0
324 503 0
280 0
222 0
5 0
738 0
281 0
393 867 0
862 0
761 0
219 556 0
124 895 0
867 0
28 0
147 643 0
961 0
652 0
870 0
154 222 0
143 0
627 0
760 54 0
613 0
215 0
857 538 0
728 147 0
59 454 0
114 0
301 0
702 0
895 0
954 0
467 0
962 0
946 0
16 0
128 0
520 0
921 0
972 484 0
209 0
776 0
993 449 0
324 118 0
881 0
531 695 0
952 0
923 0
748 0
608 0
150 0
615 0
328 182 0
835 278 0
378 0
645 0
873 597 0
784 175 0
590 358 0
379 0
611 533 0
137 0
857 183 0
568 0
273 0
645 0
544 0
798 0
481 211 0
783 0
657 0
974 0
411 0
83 0
691 0
785 0
459 0
816 199 0
71 0
259 0
304 0
440 0
34 0
803 0
424 655 0
195 164 0
539 0
985 0
668 0
601 0
604 0
615 0
224 0
784 0
161 172 0
876 0
896 198 0
350 0
968 762 0
266 0
545 0
821 0
101 0
668 0
497 183 0
490 757 0
739 0
556 0
726 0
38 0
400 547 0
972 165 0
91 0
917 0
428 0
420 0
217 700 0
631 0
203 0
258 0
978 0
266 0
545 34 0
615 0
741 0
746 0
376 54 0
958 199 0
499 15 0
766 0
877 0
37 0
35 0
338 0
569 0
577 371 0
773 734 0
288 0
909 0
91 947 0
736 0
648 0
330 0
85 325 0
620 0
323 237 0
473 178 0
293 0
679 0
852 0
378 874 0
384 0
307 927 0
718 0
998 0
30 0
625 0
185 915 0
134 0
2 0
451 0
637 0
928 0
620 981 0
4 0
543 0
269 870 0
535 0
445 0
994 798 0
509 0
134 0
312 0
279 0
812 0
198 0
985 0
954 247 0
902 0
977 85 0
682 0
49 322 0
372 0
862 0
574 0
850 798 0
778 0
950 0
878 0
158 0
821 0
271 0
113 0
340 990 0
83 645 0
165 750 0
848 901 0
305 0
429 0
762 0
325 0
975 0
197 679 0
837 0
494 0
13 727 0
876 933 0
516 0
147 0
517 0
984 15 0
575 0
478 0
81 0
488 484 0
335 0
68 0
471 0
769 0
870 0
867 0
473 655 0
4 0
882 0
991 495 0
357 0
609 0
554 757 0
329 815 0
481 0
914 0
984 282 0
21 14 0
270 567 0
424 772 0
688 0
725 367 0
361 0
590 0
758 0
585 0
549 0
259 0
331 0
962 0
393 92 0
220 0
933 0
720 0
672 947 0
571 0
614 719 0
824 0
890 0
386 0
109 0
248 0
816 0
948 407 0
756 0
945 682 0
776 882 0
909 0
537 287 0
739 663 0
600 15 0
594 0
620 717 0
336 0
519 0
416 215 0
984 57 0
691 0
583 0
661 0
166 0
478 0
154 0
370 0
364 566 0
854 0
560 0
186 551 0
67 0
80 108 0
320 0
618 0
915 854 0
282 742 0
753 0
362 332 0
99 564 0
466 0
409 735 0
297 0
782 0
448 0
688 0
765 934 0
838 0
19 0
486 0
428 630 0
310 0
243 0
4 0
738 0
377 603 0
290 0
473 267 0
841 0
941 0
598 0
272 0
869 327 0
96 158 0
985 0
61 0
625 5 0
720 0
716 581 0
740 0
259 678 0
257 567 0
349 0
572 0
240 0
625 643 0
598 0
259 163 0
856 0
128 0
577 930 0
405 0
923 0
434 787 0
912 0
848 71 0
408 0
241 0
439 0
319 0
644 0
383 0
368 0
281 769 0
448 0
241 0
137 0
870 0
273 0
711 0
513 0
270 0
417 630 0
979 413 0
822 0
664 677 0
540 0
381 0
441 823 0
796 0
240 0
286 0
181 0
874 0
210 290 0
90 515 0
888 0
233 668 0
160 350 0
101 126 0
586 0
952 477 0
315 0
968 246 0
570 0
572 0
500 0
276 0
592 314 0
534 0
41 0
207 0
892 0
174 0
975 0
851 0
241 0
250 413 0
258 717 0
149 646 0
205 0
464 0
882 0
352 125 0
244 0
416 184 0
977 0
63 0
55 0
425 99 0
43 767 0
821 0
134 0
439 0
461 0
445 423 0
627 0
330 0
208 0
891 718 0
668 0
698 220 0
282 0
448 0
961 0
485 0
367 0
317 0
488 0
643 0
1 0
573 102 0
871 0
623 0
123 213 0
985 807 0
251 292 0
878 0
494 0
382 0
754 221 0
384 0
432 953 0
791 0
484 239 0
280 869 0
322 533 0
61 798 0
841 175 0
561 78 0
357 478 0
387 0
984 637 0
154 767 0
279 0
987 924 0
705 0
379 0
118 0
718 0
601 0
434 309 0
856 781 0
634 0
598 0
843 0
55 975 0
330 918 0
863 0
697 155 0
366 0
730 0
976 353 0
745 642 0
820 413 0
321 0
836 0
821 870 0
420 0
9 0
818 0
641 762 0
131 0
406 534 0
654 0
298 0
34 0
451 0
331 727 0
9 586 0
238 0
167 0
949 0
252 0
64 0
486 383 0
869 0
960 790 0
456 346 0
156 0
785 0
936 0
43 0
716 0
421 0
875 423 0
700 0
439 0
923 0
969 255 0
456 271 0
421 0
256 0
81 0
22 0
42 0
462 0
501 198 0
842 0
615 0
391 0
324 0
190 0
304 0
299 575 0
10 339 0
696 222 0
391 0
723 716 0
917 543 0
156 0
203 0
19 996 0
742 0
349 0
914 636 0
69 0
815 0
213 0
3 588 0
690 0
415 0
635 0
311 0
514 980 0
410 0
596 0
746 0
154 151 0
381 0
165 0
345 0
719 0
330 0
946 0
460 911 0
172 0
478 0
792 0
122 0
306 0
217 0
221 558 0
431 0
993 0
447 0
57 0
169 363 0
177 0
601 0
125 0
604 0
538 246 0
266 342 0
432 657 0
679 0
448 627 0
362 805 0
297 0
742 0
954 0
173 0
912 0
281 11 0
787 811 0
931 0
224 591 0
845 0
987 0
439 0
186 271 0
70 0
296 246 0
642 0
202 0
647 0
31 0
796 341 0
149 0
16 0
329 437 0
32 834 0
14 0
259 540 0
23 0
169 676 0
701 0
832 0
762 772 0
104 0
179 0
68 647 0
801 0
560 377 0
894 0
483 0
259 0
69 0
163 588 0
681 621 0
899 0
781 0
436 0
940 229 0
101 286 0
983 807 0
687 0
590 0
722 0
998 0
840 260 0
27 596 0
658 0
438 0
832 931 0
999 0
615 0
51 548 0
426 379 0
768 265 0
94 0
138 0
36 213 0
588 0
225 938 0
758 0
128 416 0
732 0
145 51 0
49 0
834 460 0
428 0
671 0
395 0
38 0
628 0
155 270 0
140 0
983 0
220 0
504 919 0
440 3 0
169 559 0
461 0
190 0
197 103 0
980 0
39 0
875 0
258 0
920 0
127 0
66 0
154 0
469 438 0
970 0
250 0
972 63 0
792 0
964 244 0
446 502 0
97 0
137 0
284 0
321 989 0
513 821 0
967 0
216 0
545 0
358 0
220 0
113 0
947 0
108 0
647 0
706 0
540 429 0
85 0
895 0
440 0
380 844 0
993 0
754 951 0
364 0
520 0
917 0
305 0
514 429 0
62 0
37 0
310 0
379 0
237 591 0
674 644 0
209 702 0
800 291 0
106 0
486 0
121 52 0
701 0
114 0
588 630 0
954 842 0
743 0
901 0
617 0
869 0
88 0
498 0
93 358 0
11 470 0
577 0
147 790 0
408 0
117 559 0
634 0
697 546 0
821 0
554 0
638 0
249 634 0
525 0
733 0
936 0
389 0
90 338 0
979 0
403 0
497 52 0
860 0
579 0
874 831 0
406 0
885 599 0
616 0
867 411 0
907 548 0
518 0
419 0
921 0
322 0
536 0
611 0
420 28 0
764 0
86 0
232 374 0
979 0
548 0
790 0
656 195 0
501 0
998 439 0
895 0
780 335 0
409 0
279 0
207 0
608 0
29 791 0
920 0
772 462 0
548 0
185 919 0
577 0
41 0
287 0
762 964 0
371 0
546 0
27 0
212 0
432 0
852 0
514 228 0
376 270 0
345 209 0
34 18 0
293 0
17 0
881 596 0
922 0
756 790 0
417 0
249 0
821 0
25 939 0
561 919 0
979 967 0
715 0
862 0
203 0
768 870 0
143 607 0
17 0
858 0
606 375 0
848 22 0
986 709 0
820 269 0
154 0
158 0
164 0
929 546 0
178 0
128 49 0
129 0
72 0
898 0
564 0
752 127 0
407 0
297 0
332 0
700 0
442 0
802 0
294 0
840 0
594 379 0
327 0
289 222 0
500 0
495 375 0
919 0
448 0
295 0
349 0
906 0
448 946 0
500 862 0
124 734 0
555 0
72 176 0
668 0
294 0
713 285 0
844 830 0
67 0
702 0
268 772 0
212 910 0
464 0
581 0
250 0
617 479 0
73 491 0
259 0
330 437 0
72 0
758 0
437 0
417 0
628 0
326 798 0
728 0
476 500 0
993 0
649 0
930 0
833 537 0
540 0
179 0
959 711 0
782 0
836 678 0
278 0
465 0
848 863 0
443 0
586 547 0
305 0
196 0
665 2 0
171 0
901 0
440 0
592 0
706 0
152 0
81 0
794 783 0
920 401 0
332 0
993 0
823 0
195 0
404 0
192 541 0
324 405 0
195 0
517 13 0
847 0
274 0
626 859 0
412 0
688 0
190 0
912 461 0
218 783 0
286 0
283 542 0
334 0
347 0
142 111 0
825 651 0
150 0
684 0
99 0
289 0
26 195 0
652 631 0
176 305 0
528 0
204 927 0
845 0
978 276 0
639 0
987 491 0
224 501 0
38 591 0
62 0
312 0
868 333 0
528 42 0
864 582 0
906 0
989 0
152 0
42 246 0
929 0
707 327 0
780 0
273 812 0
713 467 0
56 0
466 389 0
156 0
736 0
282 260 0
723 0
671 0
589 0
889 483 0
516 0
240 820 0
29 0
758 0
537 101 0
900 605 0
660 78 0
72 802 0
224 97 0
630 0
343 0
955 238 0
804 0
628 988 0
466 0
870 495 0
207 0
622 0
151 0
932 135 0
140 0
521 0
70 0
671 0
28 0
586 0
313 153 0
897 0
944 317 0
293 0
954 0
955 943 0
117 150 0
548 0
489 412 0
995 0
250 619 0
541 0
13 0
896 0
450 0
80 270 0
816 0
816 0
198 702 0
930 0
482 0
928 0
355 0
752 545 0
404 0
979 0
932 0
708 710 0
452 935 0
169 0
204 493 0
931 0
399 0
724 0
929 0
197 349 0
42 0
472 0
539 0
288 0
816 491 0
121 0
328 0
535 0
904 0
659 238 0
582 0
194 0
184 738 0
756 997 0
68 0
865 311 0
608 0
682 0
99 0
355 0
272 358 0
949 415 0
307 0
73 946 0
846 0
236 495 0
248 995 0
61 0
704 831 0
957 0
535 0
553 0
305 407 0
433 471 0
379 0
573 0
430 0
720 0
658 284 0
816 0
278 0
798 0
119 0
725 0
792 0
884 0
423 0
436 0
12 639 0
628 222 0
549 0
94 0
175 0
158 0
605 0
117 29 0
943 0
58 0
786 718 0
920 532 0
635 844 0
723 0
20 0
66 0
840 0
530 643 0
195 0
75 734 0
281 706 0
153 807 0
909 0
738 0
333 30 0
51 743 0
366 0
129 2 0
321 237 0
586 974 0
276 326 0
737 147 0
698 0
980 0
252 0
432 0
221 0
902 0
457 367 0
73 626 0
485 0
414 0
952 0
472 221 0
733 0
720 484 0
560 69 0
111 0
327 0
18 114 0
967 0
723 710 0
194 246 0
619 0
338 0
890 0
169 141 0
348 0
869 0
41 684 0
625 710 0
806 0
536 67 0
494 0
91 0
692 0
880 0
659 0
590 0
894 127 0
733 0
18 0
52 207 0
496 0
600 673 0
648 0
65 0
549 367 0
237 0
73 173 0
165 0
122 0
534 0
610 732 0
840 426 0
990 406 0
580 0
972 0
662 0
945 0
733 975 0
42 0
930 0
49 0
168 365 0
891 653 0
856 632 0
778 229 0
917 0
252 0
761 969 0
789 0
920 0
778 0
972 0
375 0
714 380 0
478 623 0
708 0
777 338 0
401 99 0
362 627 0
603 780 0
717 0
30 671 0
456 0
237 853 0
40 445 0
172 94 0
795 0
478 0
20 0
73 0
547 0
945 0
963 278 0
1000 0
393 502 0
112 306 0
750 0
596 671 0
945 0
60 0
369 396 0
99 0
402 0
654 0
445 0
275 0
58 0
244 0
744 0
486 0
16 681 0
961 271 0
677 0
222 0
32 0
168 325 0
561 323 0
406 686 0
184 303 0
787 0
174 0
793 970 0
579 0
803 716 0
420 0
657 0
823 0
110 0
281 695 0
328 50 0
282 132 0
643 0
560 770 0
717 0
442 607 0
720 0
840 0
129 0
209 0
340 0
316 958 0
649 0
625 420 0
848 154 0
47 0
962 0
133 0
299 0
147 0
570 516 0
791 999 0
881 451 0
3 543 0
706 306 0
103 0
87 0
968 661 0
114 0
818 359 0
523 0
192 412 0
786 0
456 913 0
49 0
357 0
911 0
850 0
203 0
675 13 0
934 0
272 770 0
869 685 0
472 438 0
878 0
272 0
610 0
850 0
584 0
331 37 0
739 0
829 0
183 0
883 0
275 0
696 600 0
849 686 0
37 0
794 158 0
600 0
440 746 0
378 979 0
971 0
980 0
88 0
637 85 0
132 117 0
274 515 0
700 0
773 0
827 383 0
485 0
923 751 0
784 0
41 0
747 0
64 0
505 0
318 0
857 181 0
196 0
356 0
500 0
691 0
536 215 0
62 511 0
24 898 0
235 405 0
59 531 0
512 0
354 0
918 758 0
459 270 0
257 674 0
878 0
88 524 0
420 316 0
111 0
891 327 0
802 0
969 0
480 99 0
196 0
25 0
904 0
210 179 0
35 0
683 0
226 677 0
469 0
384 0
317 549 0
733 0
209 233 0
416 572 0
664 658 0
285 0
853 133 0
974 0
90 0
362 0
799 0
637 0
175 0
466 659 0
481 0
735 0
885 0
232 0
229 0
13 287 0
549 238 0
926 0
430 0
637 0
650 0
978 0
259 0
410 347 0
635 0
48 0
495 0
470 0
520 0
530 0
1 479 0
844 703 0
187 0
59 653 0
280 0
368 686 0
365 191 0
236 0
143 0
428 175 0
11 406 0
69 231 0
5 0
670 0
480 806 0
44 0
450 0
348 0
154 582 0
595 0
84 0
691 756 0
42 0
449 533 0
963 0
429 0
649 870 0
129 884 0
806 847 0
525 391 0
17 999 0
291 0
230 0
756 541 0
856 273 0
19 0
482 0
14 0
858 404 0
684 526 0
49 770 0
865 0
873 531 0
638 0
369 0
139 166 0
364 0
159 0
496 0
305 0
158 0
594 0
612 0
633 980 0
343 0
678 0
785 473 0
868 0
144 228 0
995 940 0
142 0
496 0
508 0
133 0
3 971 0
608 389 0
64 0
382 0
697 425 0
715 0
765 902 0
764 533 0
281 0
901 0
98 0
468 118 0
380 0
165 607 0
986 647 0
607 799 0
776 0
657 738 0
792 747 0
413 0
991 0
514 0
34 0
985 0
636 0
315 0
160 586 0
658 868 0
882 0
984 285 0
3 268 0
16 655 0
308 629 0
907 0
769 0
864 812 0
711 0
551 0
899 527 0
910 0
844 0
639 0
473 0
371 164 0
472 0
224 0
84 0
300 276 0
156 0
903 0
524 0
728 0
754 0
540 365 0
644 0
332 0
760 0
941 207 0
883 604 0
301 0
240 167 0
915 0
933 0
642 429 0
389 0
352 0
568 0
516 966 0
863 0
666 0
864 674 0
298 759 0
316 0
566 0
125 0
626 735 0
741 606 0
672 0
66 484 0
665 0
808 0
361 0
549 0
246 319 0
726 0
14 0
215 439 0
352 0
57 0
236 0
662 0
784 0
615 0
960 718 0
153 509 0
716 0
449 373 0
663 0
852 0
305 0
972 0
911 0
136 26 0
253 0
75 917 0
367 0
106 0
49 0
649 0
637 911 0
791 0
5 0
644 0
243 854 0
469 974 0
838 0
504 0
24 316 0
400 0
834 0
201 531 0
499 13 0
980 0
995 0
689 0
635 0
80 212 0
507 0
389 0
707 0
250 0
405 0
852 461 0
649 0
216 0
371 0
919 0
202 0
92 0
337 0
962 0
272 940 0
174 854 0
646 0
498 586 0
21 0
274 0
761 78 0
998 0
581 0
51 6 0
81 0
421 0
864 0
897 0
551 0
948 0
976 0
324 772 0
832 0
632 289 0
398 0
677 0
230 0
635 517 0
753 146 0
411 0
430 0
385 0
785 0
383 0
880 231 0
315 0
855 639 0
789 0
817 0
724 0
127 0
862 159 0
57 287 0
264 880 0
975 0
169 44 0
70 0
546 866 0
82 0
96 0
251 693 0
146 495 0
201 0
225 0
914 663 0
721 734 0
169 0
852 0
328 711 0
839 0
347 0
343 0
629 0
934 0
877 0
345 0
753 0
211 0
458 76 0
605 405 0
23 0
161 0
570 0
651 0
773 757 0
500 0
960 0
338 479 0
823 0
808 71 0
57 0
672 19 0
489 733 0
162 139 0
949 0
790 0
550 0
240 135 0
827 0
502 0
814 0
961 738 0
765 0
953 0
366 0
95 663 0
4 0
280 594 0
460 294 0
997 815 0
2 0
143 0
765 0
718 0
840 201 0
771 0
466 98 0
579 0
355 269 0
400 0
183 0
187 0
729 657 0
993 622 0
430 0
308 0
285 0
460 0
558 0
638 279 0
344 0
832 708 0
891 0
937 0
694 295 0
912 0
658 931 0
293 0
194 622 0
846 0
195 190 0
170 0
2 691 0
703 0
822 0
301 0
832 0
577 0
784 0
580 0
463 0
520 762 0
621 0
768 987 0
616 0
924 0
704 0
952 49 0
570 0
342 0
388 0
597 0
359 0
492 0
331 0
457 0
870 0
170 612 0
810 845 0
577 0
631 0
192 894 0
365 294 0
316 365 0
804 831 0
930 678 0
301 910 0
530 470 0
579 0
385 706 0
158 0
383 0
750 0
180 0
737 670 0
832 101 0
353 0
332 0
466 618 0
786 0
655 0
122 0
228 0
463 0
21 206 0
682 0
420 0
36 0
527 0
424 35 0
530 635 0
152 0
235 0
416 575 0
928 888 0
439 0
765 0
725 0
497 43 0
122 858 0
954 0
248 702 0
299 955 0
598 0
834 292 0
297 149 0
205 711 0
429 623 0
110 0
12 166 0
939 0
844 0
872 333 0
513 0
594 0
239 0
833 0
393 0
619 0
940 0
818 988 0
214 791 0
242 0
689 0
412 68 0
819 0
108 0
745 0
719 0
975 0
130 334 0
620 997 0
911 0
896 0
993 0
428 0
539 0
494 0
793 0
634 0
449 63 0
659 204 0
753 679 0
465 124 0
907 68 0
696 0
263 0
720 0
774 679 0
358 0
937 0
910 0
759 0
821 534 0
227 0
830 0
177 0
544 0
766 0
89 190 0
897 250 0
558 0
881 0
279 0
114 0
478 143 0
924 445 0
876 0
389 239 0
572 909 0
526 0
462 0
929 335 0
888 0
708 0
792 0
137 867 0
589 0
742 95 0
88 0
763 349 0
709 405 0
560 243 0
424 0
34 245 0
17 965 0
710 0
52 0
301 0
491 0
448 0
902 0
882 919 0
970 723 0
855 0
763 0
361 0
837 0
67 203 0
346 0
827 527 0
691 167 0
344 76 0
447 0
703 0
146 0
285 0
857 0
336 859 0
515 166 0
340 446 0
118 0
89 0
244 0
835 700 0
153 0
815 0
955 0
357 0
698 0
352 0
320 0
757 0
116 0
753 0
683 0
740 0
771 0
840 0
549 365 0
393 725 0
831 0
485 0
850 0
656 0
258 0
396 0
155 0
388 516 0
498 0
614 0
320 0
998 6 0
776 0
614 151 0
897 0
954 487 0
808 0
649 0
628 135 0
939 0
775 0
301 0
218 282 0
241 758 0
382 0
460 0
600 0
463 0
717 0
557 0
349 0
224 245 0
153 29 0
547 467 0
77 0
425 0
981 0
455 0
803 0
277 0
735 0
716 0
161 166 0
736 506 0
571 0
777 0
293 0
872 938 0
552 0
272 0
401 111 0
404 0
368 0
265 140 0
395 0
946 0
838 0
509 461 0
141 0
417 0
62 14 0
915 0
424 0
882 0
349 0
243 0
58 0
607 0
343 0
45 430 0
972 0
852 0
538 519 0
956 829 0
355 342 0
184 484 0
338 0
606 0
72 124 0
548 951 0
777 0
192 0
119 0
494 0
271 0
581 0
345 465 0
813 0
743 0
629 0
724 316 0
208 101 0
823 0
525 0
435 0
568 0
237 0
163 0
914 0
826 0
706 0
313 839 0
689 0
481 0
790 0
726 0
492 255 0
195 0
532 0
521 251 0
892 0
852 359 0
265 0
446 0
217 251 0
558 175 0
850 0
513 0
97 975 0
809 71 0
166 0
924 0
484 653 0
112 367 0
181 0
600 284 0
72 752 0
115 149 0
589 0
965 63 0
192 817 0
27 0
329 0
210 0
279 0
349 0
156 0
769 397 0
169 0
804 0
944 94 0
934 0
668 366 0
675 0
992 0
633 0
947 0
403 0
776 562 0
419 0
6 0
168 0
293 438 0
235 0
964 326 0
624 0
766 0
744 0
424 0
592 0
236 0
619 0
195 0
215 0
325 695 0
792 19 0
816 772 0
180 0
987 884 0
682 917 0
112 0
947 0
786 0
691 0
210 26 0
443 0
499 437 0
194 0
145 0
997 0
711 0
364 0
15 0
358 0
501 0
566 0
197 0
931 0
49 0
200 0
445 0
954 0
142 0
99 895 0
310 0
35 0
956 0
59 0
482 0
926 0
210 0
579 94 0
577 843 0
827 0
729 0
468 0
788 0
63 0
859 0
936 0
433 0
386 0
857 0
453 582 0
735 0
913 0
602 0
469 0
521 0
747 0
610 0
474 0
218 303 0
59 0
898 220 0
157 0
807 0
490 0
578 742 0
171 0
52 886 0
936 213 0
687 0
168 308 0
261 166 0
873 651 0
592 0
153 530 0
978 412 0
929 0
224 0
538 0
731 870 0
460 134 0
965 0
833 0
626 0
474 0
547 875 0
537 0
372 0
673 549 0
38 0
387 0
552 851 0
46 0
95 0
522 0
209 0
745 0
869 870 0
590 0
982 0
579 0
177 0
92 927 0
513 701 0
198 0
331 0
395 0
289 0
13 0
474 274 0
50 531 0
306 0
781 0
184 0
731 0
595 0
501 398 0
582 0
900 0
633 220 0
199 0
352 0
942 0
441 292 0
764 0
75 859 0
937 343 0
604 0
864 0
484 0
907 181 0
770 101 0
87 0
169 183 0
358 0
127 0
261 0
916 0
115 0
350 0
106 28 0
859 997 0
513 0
553 0
463 0
50 0
230 0
725 0
101 0
952 616 0
523 0
505 0
608 0
770 542 0
80 0
37 0
288 0
768 225 0
691 358 0
324 0
933 0
279 0
187 807 0
231 0
217 0
19 0
99 0
113 393 0
746 0
871 0
723 462 0
884 0
16 756 0
661 0
824 0
435 0
400 0
125 0
90 0
306 0
281 0
75 0
216 817 0
329 657 0
561 7 0
480 427 0
364 645 0
791 0
484 599 0
553 0
621 431 0
30 0
864 772 0
467 0
667 13 0
235 0
40 945 0
317 0
48 0
382 0
525 0
242 813 0
207 0
742 0
936 91 0
852 911 0
472 86 0
352 591 0
730 0
258 860 0
392 0
152 561 0
828 0
305 207 0
180 0
1 370 0
30 0
238 0
814 0
362 111 0
684 293 0
756 0
24 58 0
816 227 0
709 5 0
809 111 0
295 0
474 124 0
482 948 0
320 0
169 0
416 0
558 0
557 0
637 0
676 0
515 540 0
356 0
860 911 0
314 0
856 329 0
60 0
526 0
814 0
404 0
68 0
932 0
532 0
232 574 0
347 0
60 0
120 592 0
81 0
96 821 0
311 0
251 468 0
700 0
915 189 0
780 927 0
506 0
312 0
423 0
426 0
395 0
502 0
226 950 0
546 0
401 0
924 0
458 0
103 0
224 0
906 0
615 0
885 0
778 197 0
257 738 0
902 0
36 0
965 0
605 0
272 93 0
178 0
568 0
399 0
723 0
866 0
889 325 0
316 0
652 0
115 0
890 103 0
653 175 0
953 878 0
102 0
837 0
954 62 0
42 0
609 0
498 4 0
160 0
83 0
768 741 0
58 748 0
880 527 0
443 0
952 660 0
889 0
701 0
737 0
103 0
496 0
967 0
556 846 0
194 0
34 0
345 172 0
81 370 0
443 0
387 659 0
449 0
878 0
781 630 0
923 0
87 0
199 0
338 0
314 0
122 0
81 732 0
674 603 0
581 0
193 0
204 0
13 567 0
21 0
697 402 0
623 0
482 0
754 0
184 498 0
720 550 0
839 0
246 0
954 886 0
821 0
290 934 0
513 732 0
891 0
142 0
516 0
801 0
531 108 0
59 0
153 0
533 0
929 0
193 0
995 0
429 0
94 0
623 0
234 0
440 489 0
612 5 0
681 0
636 0
464 0
546 0
267 0
693 0
882 0
669 367 0
70 0
896 0
416 532 0
928 0
678 903 0
756 429 0
982 719 0
57 746 0
296 0
68 0
244 0
669 0
752 0
918 735 0
601 625 0
635 998 0
978 986 0
541 0
530 414 0
692 886 0
363 0
193 970 0
466 0
601 0
138 0
811 0
55 0
712 602 0
176 54 0
971 0
216 0
59 0
217 547 0
76 0
766 0
396 0
475 0
930 243 0
264 0
920 0
833 994 0
513 0
330 0
150 0
816 612 0
925 0
990 0
385 0
835 0
688 803 0
598 559 0
843 3 0
179 0
181 0
583 0
300 0
72 0
91 30 0
983 0
570 0
522 766 0
406 0
60 0
5 0
864 0
10 0
862 0
888 61 0
277 0
266 0
397 0
952 516 0
589 0
408 734 0
613 0
688 0
107 0
507 0
732 0
848 0
427 294 0
799 0
774 0
638 0
830 0
399 0
179 0
314 0
603 0
308 23 0
900 0
542 0
297 323 0
137 262 0
58 0
874 0
811 0
161 0
124 0
274 0
623 0
45 0
924 517 0
497 0
621 862 0
685 0
684 0
465 293 0
748 127 0
114 0
442 0
536 886 0
846 0
937 603 0
161 404 0
892 0
382 0
971 0
336 463 0
225 299 0
34 0
710 0
939 0
805 0
9 0
532 94 0
975 0
96 0
488 51 0
817 722 0
370 0
431 0
471 0
483 637 0
175 0
637 22 0
214 863 0
408 0
581 598 0
334 0
463 0
563 365 0
108 0
352 748 0
516 0
117 0
857 0
130 0
8 0
82 0
584 770 0
919 0
829 0
937 0
7 535 0
356 983 0
336 293 0
560 0
464 0
650 0
703 0
795 0
722 0
512 212 0
304 0
157 0
175 0
245 454 0
897 0
819 59 0
536 0
428 926 0
327 0
876 0
521 0
3 355 0
177 0
509 975 0
723 951 0
241 0
850 206 0
621 0
805 0
153 543 0
764 0
51 0
741 134 0
208 0
682 863 0
320 671 0
292 0
462 0
640 564 0
91 0
614 0
246 0
493 0
194 0
329 0
697 0
243 892 0
652 0
896 73 0
379 572 0
86 0
245 39 0
145 860 0
445 0
385 28 0
641 0
398 311 0
702 0
317 0
252 0
76 943 0
47 0
247 0
306 782 0
42 0
907 301 0
988 0
922 0
906 0
585 0
36 0
545 0
245 494 0
632 822 0
470 0
581 0
219 0
459 0
784 598 0
850 110 0
833 201 0
696 0
432 0
139 0
368 53 0
448 0
891 854 0
224 212 0
193 0
409 82 0
982 0
937 942 0
983 0
115 0
66 885 0
443 0
608 0
367 0
964 0
616 255 0
249 0
906 0
549 0
550 0
506 0
942 0
363 0
101 0
805 599 0
829 0
674 0
208 186 0
646 0
516 0
37 0
341 0
9 0
226 0
705 618 0
725 0
591 0
147 0
373 0
309 0
808 166 0
388 0
610 604 0
174 0
499 247 0
72 0
723 756 0
315 0
278 0
161 0
195 0
33 726 0
688 405 0
635 675 0
445 0
402 253 0
709 494 0
752 0
634 0
300 0
934 0
742 0
155 0
321 0
46 0
287 0
426 372 0
570 261 0
556 0
190 0
876 0
842 0
644 0
898 238 0
626 0
26 763 0
380 0
153 759 0
619 0
22 0
212 0
304 0
89 0
605 477 0
387 903 0
692 0
649 0
498 684 0
465 0
89 0
455 0
144 0
220 535 0
870 0
949 726 0
481 0
277 0
88 458 0
61 0
944 0
13 0
241 0
876 133 0
205 0
433 0
105 0
310 0
484 0
97 123 0
853 0
576 0
21 0
311 551 0
968 0
563 0
660 0
910 0
654 0
546 85 0
325 0
237 0
42 53 0
601 698 0
499 0
807 0
832 0
284 0
910 0
601 78 0
679 0
917 0
708 0
822 0
382 0
542 0
160 0
609 0
139 0
699 391 0
287 0
950 0
660 0
25 0
225 770 0
285 0
400 368 0
124 0
595 0
908 0
737 0
504 0
696 0
881 733 0
867 403 0
588 623 0
651 0
245 0
80 204 0
154 949 0
916 0
120 201 0
684 0
194 0
998 0
676 0
952 88 0
955 0
489 389 0
508 0
291 0
819 0
783 0
647 0
943 0
808 921 0
836 581 0
907 231 0
298 0
147 0
956 0
416 0
920 87 0
668 0
74 477 0
940 0
202 0
958 0
228 0
129 717 0
770 948 0
168 666 0
884 0
523 0
698 0
411 0
452 0
680 0
204 47 0
2 0
3 140 0
441 0
633 0
523 0
328 0
630 0
239 0
233 0
58 0
863 0
918 0
850 691 0
687 0
148 0
627 238 0
400 977 0
994 659 0
881 142 0
317 439 0
816 755 0
339 467 0
819 0
415 0
764 0
181 254 0
459 93 0
780 687 0
180 421 0
930 0
269 0
266 0
882 0
485 0
16 0
985 0
607 0
950 942 0
818 0
108 0
648 121 0
873 891 0
488 458 0
983 0
826 0
2 0
292 0
717 0
191 0
968 0
182 0
590 0
203 708 0
616 0
534 0
672 431 0
420 0
794 0
104 0
716 0
973 0
9 0
950 0
139 0
712 429 0
967 0
332 0
589 0
685 0
346 0
304 0
613 0
475 0
244 159 0
301 0
374 0
647 0
265 846 0
220 0
472 0
541 0
82 0
195 0
803 0
971 853 0
91 294 0
220 0
213 478 0
36 0
282 933 0
624 535 0
611 0
136 851 0
829 879 0
577 12 0
875 0
77 0
577 0
934 0
808 0
360 0
86 879 0
331 947 0
723 0
226 93 0
184 0
311 0
228 0
308 0
905 934 0
507 0
976 861 0
74 0
86 0
734 0
909 0
408 0
716 0
666 0
180 494 0
658 581 0
960 0
658 45 0
880 912 0
284 0
40 0
555 0
908 0
222 0
126 0
903 0
453 302 0
10 0
89 0
922 0
579 359 0
942 0
54 0
420 0
443 0
944 0
408 292 0
96 0
139 949 0
792 908 0
477 0
594 0
292 198 0
194 0
749 0
921 0
708 0
550 0
978 0
328 0
585 0
165 0
446 0
989 0
925 783 0
108 0
257 0
850 660 0
572 0
986 478 0
821 0
829 0
603 0
832 0
99 0
145 0
621 0
531 0
654 847 0
261 0
529 619 0
851 0
454 575 0
758 0
931 0
371 887 0
794 351 0
747 0
86 0
619 0
417 0
733 0
183 0
511 0
465 0
558 0
429 0
462 0
411 493 0
108 0
691 436 0
521 959 0
855 0
97 714 0
644 222 0
954 827 0
375 767 0
776 0
546 207 0
631 0
128 0
153 0
259 0
288 345 0
112 762 0
62 495 0
348 0
748 0
727 0
437 0
112 0
112 0
890 0
935 0
64 150 0
544 742 0
2 0
136 0
504 0
925 998 0
385 233 0
799 0
412 0
381 0
401 551 0
234 0
353 0
9 0
464 74 0
304 415 0
292 0
262 0
215 0
199 0
701 871 0
109 0
558 446 0
34 0
328 206 0
120 0
32 0
428 0
546 0
452 935 0
519 0
41 0
928 253 0
438 0
249 661 0
859 0
656 0
216 700 0
737 0
697 20 0
506 0
992 196 0
848 164 0
528 0
308 0
976 0
421 0
453 0
76 0
333 0
988 0
111 0
120 0
448 0
785 0
513 0
9 419 0
638 0
506 0
624 982 0
57 3 0
329 714 0
744 839 0
208 119 0
434 42 0
655 0
585 0
234 0
801 0
351 0
530 150 0
667 0
957 94 0
68 0
530 0
965 0
893 0
763 0
549 0
657 0
135 0
394 0
917 0
890 0
497 0
353 0
852 0
469 0
76 221 0
872 0
7 0
879 0
211 0
127 0
816 125 0
926 0
866 0
585 0
606 0
227 799 0
821 0
135 0
181 0
97 0
831 0
811 181 0
265 0
408 398 0
673 0
402 436 0
521 785 0
851 0
707 0
576 0
955 870 0
29 0
641 0
513 607 0
382 0
689 0
39 0
607 0
317 0
425 0
214 0
939 924 0
843 101 0
574 0
670 0
248 860 0
99 549 0
918 695 0
290 342 0
711 0
96 0
535 0
881 690 0
673 660 0
451 0
164 0
441 0
65 377 0
530 0
294 0
290 0
91 0
849 0
81 178 0
241 0
3 0
880 57 0
97 503 0
660 0
414 0
842 487 0
129 0
206 0
645 870 0
936 0
317 0
770 228 0
145 0
2 0
576 210 0
992 633 0
835 693 0
324 310 0
49 0
543 0
801 330 0
741 957 0
917 0
792 246 0
67 0
289 0
562 0
121 829 0
634 0
361 0
987 156 0
86 95 0
758 0
457 0
713 298 0
578 187 0
497 636 0
642 387 0
940 0
120 0
248 0
260 0
143 0
460 0
878 0
54 0
223 0
513 0
302 0
513 606 0
464 0
467 182 0
68 0
356 60 0
84 694 0
358 111 0
994 0
78 494 0
764 0
904 159 0
504 691 0
180 0
503 631 0
702 0
25 0
751 0
188 869 0
489 666 0
192 0
769 132 0
9 0
68 478 0
980 0
345 537 0
966 0
565 0
284 213 0
229 0
939 0
908 325 0
916 607 0
192 0
371 923 0
21 0
483 0
938 0
467 0
398 0
508 0
792 0
932 0
578 0
144 0
257 789 0
846 0
508 0
245 622 0
610 0
985 0
253 614 0
198 495 0
844 0
793 178 0
735 407 0
25 0
758 167 0
889 0
994 0
688 638 0
458 0
152 398 0
142 0
182 191 0
305 966 0
744 0
355 933 0
711 0
736 435 0
922 0
423 0
562 0
380 766 0
726 0
46 0
611 661 0
795 0
127 0
160 0
937 699 0
136 277 0
389 0
628 303 0
421 0
206 327 0
860 0
289 891 0
848 115 0
130 0
934 271 0
367 0
210 0
283 0
96 437 0
80 147 0
109 518 0
630 0
467 0
288 534 0
563 725 0
227 0
105 700 0
487 0
173 0
172 0
305 0
865 0
956 0
543 0
503 0
514 566 0
490 0
272 409 0
529 535 0
117 0
539 0
539 0
238 0
895 0
879 0
56 0
993 0
222 0
886 0
503 0
588 484 0
735 0
110 0
634 0
279 0
680 276 0
355 398 0
356 0
713 235 0
384 0
662 0
955 559 0
179 942 0
140 0
274 0
138 452 0
90 813 0
127 0
21 0
864 0
987 0
69 0
798 0
318 0
594 0
141 0
83 0
383 0
296 713 0
864 88 0
945 157 0
301 0
21 0
102 0
716 0
450 220 0
909 0
303 0
673 530 0
792 288 0
468 0
77 0
842 623 0
805 63 0
1000 831 0
21 0
431 0
584 0
400 0
341 927 0
114 0
41 903 0
996 94 0
915 0
347 0
177 650 0
214 0
170 0
913 0
302 0
506 429 0
513 0
106 0
871 0
316 0
75 0
126 0
121 0
542 0
727 0
930 0
395 332 0
792 49 0
712 837 0
500 0
311 0
295 0
377 0
834 0
737 0
161 0
441 0
855 0
871 0
144 0
619 342 0
887 0
490 0
222 0
729 0
929 386 0
409 0
590 0
107 0
929 0
484 0
979 0
794 0
865 0
875 995 0
255 0
182 0
932 0
540 861 0
593 0
221 0
361 0
20 788 0
17 311 0
314 0
154 533 0
572 0
772 0
135 0
190 231 0
370 0
86 0
859 980 0
498 959 0
500 0
194 151 0
266 629 0
371 0
1000 548 0
64 923 0
854 0
710 0
609 0
601 517 0
777 0
372 0
410 0
326 0
201 0
407 0
109 0
176 15 0
957 0
30 0
763 0
597 0
337 756 0
72 0
403 222 0
252 0
106 212 0
356 0
200 103 0
696 0
132 311 0
332 0
642 0
650 0
594 963 0
234 0
464 0
56 532 0
919 0
157 0
553 0
384 342 0
196 0
185 370 0
388 0
395 775 0
145 0
588 0
104 92 0
675 135 0
342 0
31 0
873 0
120 0
817 0
901 463 0
596 0
657 0
346 0
306 0
539 0
503 0
350 0
273 371 0
505 0
605 0
942 0
92 0
642 197 0
228 0
648 0
563 364 0
928 166 0
209 115 0
848 860 0
801 482 0
602 59 0
166 375 0
310 0
146 0
750 0
71 0
856 903 0
375 0
537 0
208 950 0
721 0
934 0
685 0
453 0
170 447 0
621 0
575 0
211 717 0
409 0
153 0
980 198 0
72 0
568 721 0
856 0
144 449 0
16 0
864 0
577 371 0
185 722 0
188 277 0
638 0
88 0
520 0
116 0
245 0
497 991 0
63 0
9 0
576 4 0
396 0
774 0
232 321 0
963 0
529 0
123 0
524 0
504 0
116 0
728 0
533 0
266 0
131 902 0
625 802 0
257 434 0
145 0
485 317 0
174 0
601 0
549 0
142 0
385 718 0
709 0
473 0
79 0
74 982 0
986 0
46 470 0
537 673 0
764 205 0
512 470 0
44 917 0
937 518 0
684 0
682 63 0
631 0
229 0
667 0
158 0
159 0
48 0
342 0
589 0
617 0
474 570 0
992 0
650 0
390 750 0
503 0
905 0
75 0
581 0
617 0
311 615 0
723 6 0
421 863 0
648 0
714 0
747 0
942 0
81 0
652 0
256 0
941 0
693 0
284 583 0
491 0
354 500 0
299 0
248 586 0
449 0
813 0
556 0
266 757 0
321 0
751 0
771 0
821 46 0
729 0
382 0
985 0
117 0
688 0
624 0
246 0
138 812 0
480 411 0
568 0
239 0
74 0
130 0
507 491 0
435 909 0
76 0
937 0
9 0
578 707 0
565 0
90 803 0
583 0
403 0
818 0
634 679 0
444 503 0
638 0
238 0
145 766 0
79 0
517 0
289 471 0
910 0
376 0
536 0
962 596 0
254 0
661 0
354 0
872 0
115 718 0
576 0
625 70 0
615 0
197 0
322 850 0
21 919 0
91 0
121 0
207 0
1 405 0
672 181 0
362 0
213 0
644 615 0
28 949 0
884 365 0
560 319 0
204 0
548 679 0
131 0
640 0
465 0
592 0
924 309 0
103 0
477 0
899 0
536 0
144 843 0
946 621 0
746 0
798 0
416 0
291 0
233 594 0
912 0
608 0
259 0
626 454 0
331 0
51 0
338 0
904 0
973 975 0
428 0
793 0
681 990 0
106 0
792 438 0
60 0
330 887 0
860 807 0
434 535 0
214 0
226 0
415 0
583 0
170 0
915 341 0
630 0
203 0
344 514 0
410 0
402 0
530 0
975 0
977 540 0
241 0
843 0
771 0
865 967 0
306 30 0
472 0
163 0
416 346 0
348 0
777 0
896 0
120 383 0
641 39 0
797 0
440 470 0
185 178 0
882 0
868 132 0
835 0
658 0
368 0
530 0
809 0
869 189 0
612 0
941 351 0
694 0
261 0
492 0
705 829 0
176 0
922 0
341 839 0
676 0
506 0
264 778 0
940 0
864 0
878 0
158 647 0
973 0
38 0
574 0
786 0
138 90 0
447 0
659 92 0
561 209 0
163 596 0
813 334 0
488 0
321 0
201 0
250 0
188 549 0
703 0
681 0
27 0
696 0
235 0
188 0
395 142 0
151 567 0
329 0
806 0
505 0
940 0
575 591 0
1000 0
950 542 0
530 907 0
275 0
105 0
546 0
365 0
818 482 0
612 0
801 0
871 0
20 0
294 0
176 0
77 0
339 0
377 748 0
261 502 0
793 562 0
598 0
24 640 0
420 0
773 0
419 0
251 0
644 47 0
153 961 0
994 268 0
624 0
946 0
502 0
227 0
228 0
211 614 0
174 0
504 988 0
173 751 0
923 0
8 150 0
402 0
8 0
559 0
740 0
654 943 0
501 0
692 0
475 0
543 0
622 527 0
92 0
421 655 0
961 985 0
523 0
253 0
138 46 0
201 125 0
23 0
874 135 0
521 121 0
609 0
678 0
717 38 0
647 0
926 0
248 0
75 0
373 79 0
145 0
185 0
288 693 0
486 0
466 0
711 879 0
248 0
242 0
625 0
471 0
313 0
624 0
678 0
34 0
279 0
928 0
858 883 0
463 0
60 53 0
364 0
664 0
836 0
482 0
850 0
205 0
882 846 0
28 0
137 0
744 0
594 0
547 0
839 0
12 0
544 0
564 349 0
952 0
442 138 0
136 0
794 0
465 0
569 258 0
582 0
4 0
403 0
229 0
761 844 0
340 0
344 0
262 0
66 0
180 0
370 214 0
143 0
595 0
953 140 0
401 473 0
500 0
115 0
194 0
45 0
711 0
723 0
651 0
643 0
927 0
666 823 0
836 429 0
572 303 0
256 995 0
425 0
347 0
848 395 0
978 0
628 0
420 445 0
508 0
730 0
571 0
398 0
928 0
168 0
955 0
259 118 0
691 383 0
51 541 0
242 0
193 335 0
130 654 0
443 564 0
550 0
996 990 0
102 0
521 107 0
300 0
719 0
728 373 0
489 988 0
496 0
993 631 0
605 0
222 0
593 243 0
793 404 0
395 884 0
482 871 0
11 0
634 142 0
758 0
195 0
642 0
924 0
590 0
592 180 0
485 430 0
153 578 0
610 0
212 0
10 926 0
32 0
442 682 0
908 373 0
102 0
436 0
323 253 0
720 730 0
425 299 0
443 133 0
322 0
723 0
800 0
975 0
558 0
524 0
710 0
909 0
702 0
743 0
295 0
757 0
234 0
139 60 0
973 0
949 0
476 0
702 0
610 228 0
215 0
355 0
906 271 0
915 0
847 0
124 198 0
864 0
537 0
117 0
297 0
636 638 0
954 970 0
775 0
774 0
669 0
373 0
393 0
797 0
768 0
373 0
548 238 0
92 0
30 0
116 84 0
705 0
189 0
841 0
816 0
586 0
199 0
96 0
217 18 0
347 111 0
725 0
978 311 0
931 693 0
86 0
301 0
157 0
509 0
432 0
149 0
877 0
366 0
886 0
370 0
168 926 0
205 0
425 0
746 0
620 0
674 917 0
181 0
673 0
511 0
809 0
483 0
332 0
580 0
249 0
689 0
206 0
663 0
442 0
894 799 0
493 181 0
552 0
506 0
579 0
545 899 0
589 895 0
986 223 0
696 0
186 0
672 323 0
90 0
958 0
59 412 0
908 262 0
607 0
146 734 0
64 789 0
797 0
130 0
79 0
674 0
488 539 0
470 855 0
423 0
23 0
798 783 0
785 0
650 0
314 727 0
50 93 0
972 797 0
68 0
846 0
644 0
298 0
209 627 0
304 396 0
161 0
69 0
567 0
564 0
692 0
836 0
848 0
458 0
538 77 0
9 719 0
216 0
272 199 0
764 0
649 254 0
958 0
466 0
364 0
476 0
586 996 0
903 935 0
883 0
246 0
15 0
593 0
710 382 0
273 0
8 0
43 302 0
567 0
563 0
383 0
945 0
656 0
969 740 0
331 383 0
739 0
289 55 0
59 85 0
858 359 0
541 0
611 283 0
453 0
473 971 0
456 0
416 168 0
180 0
940 0
947 0
25 0
532 0
671 0
604 0
374 0
514 0
639 0
978 0
464 0
204 556 0
416 935 0
65 621 0
235 0
435 228 0
769 0
333 0
588 0
855 0
408 556 0
344 0
11 542 0
730 516 0
595 0
585 0
875 390 0
123 181 0
296 0
734 0
315 0
652 0
368 0
829 566 0
226 0
600 0
9 378 0
273 59 0
402 0
102 0
384 509 0
925 0
832 349 0
400 0
435 0
946 0
955 0
780 0
620 814 0
894 0
846 0
180 0
123 0
516 759 0
415 0
456 0
27 239 0
418 0
558 0
293 0
1 966 0
615 0
234 0
800 0
172 910 0
61 0
53 0
331 0
793 531 0
35 0
953 0
140 524 0
115 212 0
866 0
829 0
450 134 0
194 0
224 734 0
501 471 0
807 0
597 0
81 179 0
661 0
580 191 0
256 0
360 0
422 0
315 46 0
718 0
910 0
928 91 0
666 814 0
431 0
418 0
852 0
14 0
873 0
330 948 0
974 0
569 0
296 0
550 0
864 0
800 0
846 0
837 0
131 0
408 0
643 0
463 0
554 0
580 13 0
810 86 0
652 637 0
900 0
785 0
739 0
849 869 0
910 0
124 0
188 238 0
111 0
319 0
895 0
625 692 0
400 676 0
203 0
828 0
632 0
491 0
841 0
582 0
633 0
746 0
320 903 0
626 278 0
329 0
766 0
60 0
619 0
220 0
276 0
94 0
44 0
307 972 0
132 0
109 0
329 377 0
540 0
476 0
83 59 0
274 110 0
980 380 0
896 539 0
507 0
976 834 0
537 297 0
934 79 0
507 0
324 0
915 0
895 0
675 0
413 0
410 548 0
111 0
982 0
949 0
545 0
753 0
73 805 0
147 0
301 542 0
25 854 0
952 174 0
718 0
417 0
582 0
548 0
579 789 0
189 622 0
637 0
268 647 0
977 0
27 0
800 0
507 0
125 566 0
666 0
192 632 0
447 0
405 791 0
31 0
513 0
795 462 0
153 643 0
236 887 0
971 334 0
14 0
51 612 0
249 0
906 0
347 0
689 0
404 37 0
850 0
371 0
526 0
513 946 0
552 0
118 0
815 0
853 0
530 0
602 0
560 0
232 0
718 0
434 314 0
856 0
348 598 0
264 33 0
336 516 0
16 708 0
647 0
828 190 0
367 0
24 768 0
106 622 0
21 0
547 0
866 0
552 0
708 0
90 611 0
941 726 0
355 0
670 0
183 0
27 0
590 0
109 0
629 0
306 0
645 0
771 0
568 0
484 0
175 0
440 0
414 0
987 0
715 0
595 164 0
979 0
45 0
730 0
23 0
993 301 0
71 0
688 0
977 707 0
905 982 0
611 0
327 0
400 0
271 0
75 0
931 44 0
11 0
827 838 0
431 447 0
216 0
48 526 0
217 419 0
888 0
226 602 0
681 0
587 0
533 0
673 419 0
442 485 0
77 0
223 0
194 780 0
423 0
800 0
618 894 0
298 0
256 0
1 330 0
218 901 0
446 0
290 0
218 0
146 0
680 670 0
331 0
500 0
162 335 0
845 421 0
48 699 0
7 0
228 0
523 0
433 125 0
752 742 0
870 0
481 116 0
666 0
79 0
333 0
329 0
306 0
860 0
476 0
537 0
230 0
418 0
522 0
580 735 0
390 695 0
186 0
365 0
556 0
588 0
370 179 0
420 0
685 0
527 0
885 0
957 413 0
133 0
241 0
416 0
713 990 0
177 0
240 304 0
870 0
610 810 0
324 0
135 0
856 0
701 0
436 0
248 0
112 727 0
125 606 0
37 0
567 0
824 0
682 995 0
360 0
671 0
162 0
294 0
845 735 0
657 141 0
939 0
469 0
588 0
819 0
859 0
609 0
439 319 0
998 0
727 0
392 0
893 0
93 415 0
306 0
152 87 0
833 758 0
312 925 0
138 847 0
349 0
957 0
846 0
654 0
647 0
154 291 0
508 0
260 0
969 0
821 903 0
56 0
608 0
967 0
394 719 0
413 238 0
539 0
83 332 0
751 0
838 0
59 0
759 0
98 0
740 438 0
650 86 0
520 0
351 0
940 0
216 556 0
100 0
51 411 0
115 0
652 0
817 374 0
31 0
556 0
921 791 0
795 0
827 0
692 494 0
336 0
722 132 0
400 540 0
478 374 0
969 0
50 0
286 0
868 0
731 0
144 61 0
572 726 0
424 0
311 0
990 0
449 721 0
200 251 0
266 308 0
878 118 0
665 0
860 646 0
6 0
285 69 0
260 149 0
377 0
196 0
130 0
877 0
473 0
791 0
655 0
773 0
707 421 0
428 501 0
2 138 0
595 0
969 882 0
977 0
672 807 0
642 0
434 348 0
549 0
351 0
89 735 0
739 0
235 0
162 0
890 895 0
690 0
320 0
76 878 0
498 0
504 0
175 0
666 0
345 293 0
899 0
770 0
371 635 0
872 631 0
848 0
474 903 0
879 0
345 0
74 591 0
508 85 0
394 0
191 0
781 597 0
349 0
195 0
466 0
853 0
724 0
923 556 0
479 0
795 0
488 0
223 0
225 711 0
869 0
398 951 0
921 907 0
31 895 0
700 0
116 607 0
595 0
423 0
49 401 0
317 0
169 0
820 0
680 930 0
159 0
544 0
777 0
357 0
561 139 0
305 471 0
989 0
764 0
572 804 0
912 0
992 503 0
411 0
240 0
261 0
448 0
697 0
288 869 0
680 0
578 0
417 0
944 800 0
435 0
915 0
556 0
283 885 0
565 0
784 247 0
394 0
264 469 0
604 247 0
17 95 0
59 0
840 0
888 0
204 0
526 0
603 0
15 0
41 623 0
12 0
905 495 0
833 0
671 815 0
76 6 0
275 0
276 0
384 222 0
488 0
656 678 0
663 0
455 0
616 0
679 0
758 0
748 0
667 95 0
197 69 0
952 0
353 0
967 0
19 0
654 0
711 0
904 0
334 0
288 365 0
893 247 0
272 0
689 151 0
729 674 0
961 700 0
313 0
205 669 0
113 0
54 0
812 0
443 0
359 0
72 0
823 0
549 0
939 734 0
948 252 0
645 630 0
68 0
466 0
901 0
302 0
793 0
626 0
999 0
906 0
81 0
34 309 0
768 125 0
599 0
748 0
70 0
680 302 0
499 0
513 0
723 0
167 0
273 197 0
549 510 0
796 0
392 0
115 0
34 0
601 0
698 0
772 0
585 0
675 982 0
98 0
713 397 0
321 0
713 0
274 0
988 727 0
875 987 0
682 0
861 0
497 0
220 197 0
9 0
427 0
7 0
420 0
42 948 0
465 0
498 0
80 0
404 0
998 0
652 0
601 342 0
666 756 0
203 0
754 748 0
174 0
235 550 0
593 43 0
785 0
212 0
339 406 0
427 148 0
860 0
227 599 0
4 671 0
588 0
377 455 0
410 802 0
77 0
558 0
796 0
331 580 0
868 0
834 460 0
355 0
759 0
397 0
830 0
759 0
348 0
224 281 0
873 469 0
196 0
298 703 0
699 0
287 0
67 0
926 0
14 0
613 0
865 0
267 0
239 0
328 0
98 0
690 0
836 0
649 0
105 843 0
433 0
600 0
303 0
780 0
168 132 0
323 0
425 0
662 0
492 0
656 333 0
632 0
968 0
465 778 0
87 0
215 0
750 15 0
304 683 0
89 0
470 0
234 550 0
792 0
296 382 0
628 0
231 0
491 0
376 351 0
316 0
893 0
855 0
411 0
582 0
673 0
293 0
114 0
942 0
240 0
402 0
289 0
259 197 0
960 93 0
722 0
870 0
549 0
640 810 0
335 0
72 0
348 61 0
865 0
865 0
233 0
740 0
278 0
6 0
665 0
137 0
424 263 0
860 0
53 0
811 0
807 0
109 0
700 0
81 0
759 0
284 0
554 0
5 0
71 0
742 0
19 206 0
593 0
833 0
927 0
537 395 0
259 0
201 0
397 0
313 0
855 0
64 0
183 0
303 0
841 717 0
887 0
195 0
768 0
178 0
473 0
210 418 0
416 548 0
187 166 0
795 14 0
534 0
219 0
618 125 0
19 0
259 0
827 0
118 0
85 711 0
210 106 0
324 0
719 0
626 0
377 701 0
204 0
870 0
157 0
44 0
373 806 0
401 0
580 79 0
604 0
165 0
622 0
617 0
90 0
285 150 0
631 0
792 0
432 900 0
464 0
536 568 0
480 740 0
127 0
478 0
657 93 0
645 574 0
64 0
231 0
902 799 0
877 0
749 469 0
784 692 0
984 91 0
36 0
522 231 0
272 234 0
973 0
984 0
100 0
242 0
725 879 0
256 0
859 867 0
578 0
874 0
495 0
938 0
651 0
889 0
604 0
169 0
263 0
848 815 0
219 0
243 0
457 0
592 901 0
408 0
74 115 0
140 0
698 0
435 575 0
329 388 0
306 0
884 0
736 799 0
246 0
768 0
727 0
906 0
182 0
234 475 0
991 0
609 350 0
386 0
504 0
694 0
823 0
251 0
765 0
18 0
152 361 0
330 901 0
988 0
716 0
283 829 0
21 0
896 0
544 763 0
405 0
520 169 0
701 0
619 949 0
338 0
932 493 0
911 0
778 231 0
38 0
738 357 0
266 0
124 70 0
594 0
320 901 0
516 0
298 628 0
957 0
318 0
700 0
585 721 0
530 845 0
350 0
152 950 0
454 0
155 0
548 0
537 0
63 0
1000 481 0
769 0
476 0
231 0
945 0
65 0
280 0
384 0
326 0
102 447 0
120 739 0
536 988 0
736 244 0
828 391 0
852 0
671 975 0
976 0
892 0
106 0
361 0
283 0
924 757 0
371 0
587 427 0
139 604 0
181 318 0
497 667 0
334 0
688 0
262 0
140 0
154 942 0
113 402 0
365 0
509 0
960 0
366 0
832 0
491 0
328 0
139 0
692 0
744 0
235 0
167 0
538 238 0
606 0
769 0
887 0
638 318 0
809 0
10 0
804 0
723 565 0
618 0
601 0
278 0
883 942 0
642 0
817 0
627 0
708 0
386 245 0
602 942 0
215 0
211 0
67 340 0
292 0
690 495 0
54 0
939 0
413 0
952 0
800 339 0
97 0
263 0
590 0
799 0
241 231 0
294 0
55 0
432 0
132 0
457 966 0
466 0
728 0
571 0
520 845 0
100 0
137 0
697 0
692 0
191 0
635 683 0
145 0
275 0
651 0
916 0
324 548 0
964 550 0
936 876 0
988 0
601 0
460 0
729 900 0
547 0
369 0
617 307 0
768 677 0
904 0
438 0
170 0
881 0
330 0
713 0
434 0
596 0
760 332 0
890 260 0
641 0
566 0
144 53 0
394 797 0
867 0
804 454 0
539 447 0
416 928 0
435 0
701 0
795 0
711 0
376 0
973 0
370 502 0
800 0
70 998 0
871 0
416 0
502 0
427 0
297 0
722 0
406 0
961 0
466 0
685 550 0
580 0
153 0
705 61 0
196 0
538 0
299 0
659 813 0
146 214 0
640 547 0
923 0
286 0
880 375 0
646 0
163 0
934 0
295 0
359 0
945 737 0
208 0
252 981 0
965 0
355 0
424 678 0
736 0
802 381 0
710 0
837 0
532 0
207 0
57 442 0
7 0
21 0
535 0
713 0
846 0
41 11 0
661 0
748 558 0
344 0
72 542 0
592 0
758 0
597 0
595 0
677 0
9 0
312 0
748 0
217 430 0
697 581 0
81 0
89 103 0
310 599 0
157 0
689 0
981 0
446 0
318 0
833 818 0
991 0
761 778 0
571 164 0
758 502 0
163 532 0
572 0
402 359 0
936 0
403 0
496 0
176 534 0
304 735 0
532 0
183 0
434 388 0
601 494 0
342 0
177 0
60 0
323 0
752 0
966 767 0
938 7 0
396 375 0
85 0
944 803 0
420 702 0
609 830 0
376 0
471 903 0
317 0
673 646 0
915 0
139 0
749 0
66 0
753 0
457 843 0
2 0
968 21 0
787 367 0
433 0
414 0
125 118 0
494 0
465 0
147 0
24 0
241 0
980 701 0
921 517 0
893 0
700 0
688 0
242 0
366 0
70 0
642 0
307 203 0
677 0
425 413 0
811 887 0
304 0
137 0
380 455 0
917 0
10 0
902 0
168 0
354 0
986 339 0
613 958 0
930 0
860 0
243 0
922 292 0
525 0
776 0
939 781 0
881 806 0
132 0
816 0
400 503 0
650 0
455 0
351 0
249 0
443 0
68 0
455 0
449 0
111 0
478 0
146 268 0
876 0
989 0
54 0
680 0
869 150 0
400 0
647 0
55 0
953 691 0
677 478 0
200 0
172 677 0
36 0
583 0
562 0
933 0
309 0
960 731 0
762 294 0
840 659 0
304 154 0
356 732 0
439 0
643 389 0
622 0
484 0
50 34 0
723 0
900 0
944 138 0
596 0
238 0
395 0
286 0
337 0
408 0
182 0
504 389 0
165 0
280 286 0
909 0
966 0
989 0
687 0
24 0
872 0
290 0
910 0
713 314 0
955 37 0
90 0
204 271 0
385 0
577 0
866 548 0
903 0
875 0
484 0
597 0
106 855 0
144 0
203 0
981 0
856 0
503 0
948 0
921 794 0
173 0
757 0
761 0
695 0
900 0
137 0
230 0
313 375 0
422 782 0
713 76 0
255 0
832 735 0
533 0
923 47 0
619 0
230 0
568 0
977 0
672 0
977 0
432 0
701 0
47 0
469 0
655 0
313 0
324 0
402 262 0
349 0
298 766 0
402 0
768 369 0
523 0
816 0
898 683 0
292 0
744 977 0
588 820 0
752 79 0
941 0
881 0
833 0
543 0
145 0
149 0
633 884 0
65 724 0
347 0
79 0
430 0
297 586 0
1000 78 0
576 0
926 0
75 333 0
709 0
403 0
904 0
316 455 0
898 486 0
299 0
815 0
16 0
339 0
764 0
513 0
120 0
599 0
240 0
825 606 0
154 0
14 0
533 0
838 0
385 117 0
558 0
195 670 0
550 0
926 702 0
796 0
168 0
471 0
678 846 0
913 0
851 0
222 0
755 166 0
183 0
902 0
901 0
289 0
682 0
674 307 0
632 225 0
241 0
324 510 0
423 0
52 0
696 114 0
576 822 0
697 0
314 0
945 0
80 0
634 0
103 0
786 0
20 927 0
781 750 0
897 237 0
837 0
974 0
819 77 0
120 0
395 0
384 0
719 0
238 0
75 0
84 0
775 0
810 0
659 0
276 0
924 0
250 0
88 0
402 0
81 0
39 879 0
116 388 0
683 141 0
682 819 0
444 0
378 140 0
88 0
51 630 0
899 0
573 0
381 0
445 38 0
714 0
522 663 0
738 0
475 620 0
45 0
598 887 0
810 0
410 0
902 0
340 0
424 344 0
123 877 0
180 439 0
978 0
310 0
285 0
301 662 0
961 0
48 819 0
47 0
494 0
596 534 0
406 0
303 0
633 647 0
80 0
592 492 0
25 532 0
550 0
352 351 0
610 0
700 0
877 0
504 0
111 0
685 0
677 0
853 0
512 246 0
162 266 0
417 0
19 950 0
376 0
325 0
852 893 0
329 0
305 111 0
729 231 0
673 332 0
542 0
471 0
517 759 0
944 873 0
1000 0
920 251 0
303 0
460 37 0
275 823 0
152 0
536 0
122 0
657 0
846 0
163 109 0
814 839 0
987 295 0
26 163 0
486 0
445 0
196 740 0
983 0
426 0
337 81 0
921 0
201 356 0
949 766 0
736 0
496 0
651 0
142 0
99 111 0
395 0
966 0
412 214 0
117 0
866 0
327 0
95 0
798 0
315 0
902 0
395 781 0
295 0
213 0
552 834 0
149 0
568 290 0
12 0
224 452 0
106 0
436 991 0
761 227 0
752 705 0
624 939 0
181 0
455 0
332 0
221 511 0
717 925 0
626 0
966 0
928 269 0
574 0
110 0
489 71 0
100 0
385 234 0
641 0
680 0
812 0
824 374 0
900 0
460 0
170 647 0
45 383 0
534 0
693 0
737 36 0
829 0
231 0
612 383 0
56 376 0
888 160 0
568 0
126 0
128 0
346 691 0
28 502 0
59 0
924 0
803 0
782 0
905 0
850 484 0
864 0
235 0
881 0
78 519 0
840 0
236 0
905 0
503 0
577 156 0
401 679 0
398 743 0
476 0
757 0
899 0
482 0
735 0
662 0
732 0
966 0
967 0
776 502 0
313 431 0
528 0
251 0
625 263 0
478 0
730 261 0
15 0
201 537 0
651 0
41 0
388 0
192 0
482 767 0
1000 611 0
968 568 0
890 0
155 124 0
698 859 0
927 0
463 0
626 0
851 559 0
938 28 0
690 847 0
65 0
817 230 0
926 63 0
450 394 0
283 0
80 0
118 0
432 0
283 0
471 0
258 0
229 933 0
307 0
303 0
587 326 0
245 0
139 0
560 351 0
691 964 0
981 0
341 0
832 969 0
824 0
267 733 0
736 793 0
808 621 0
197 0
534 0
554 0
646 0
887 159 0
834 572 0
161 457 0
168 834 0
296 0
192 922 0
337 131 0
292 0
949 0
231 0
939 0
338 884 0
591 0
530 411 0
84 0
226 0
568 796 0
458 974 0
313 0
698 0
769 697 0
716 902 0
949 0
234 0
566 0
288 433 0
155 508 0
316 0
975 0
413 207 0
780 0
560 0
448 0
822 0
888 0
789 0
69 0
170 575 0
308 0
187 0
851 0
271 431 0
492 0
756 596 0
711 0
909 0
729 6 0
476 0
947 0
784 28 0
417 0
481 308 0
556 0
743 0
181 0
425 903 0
480 0
481 0
946 0
906 0
244 0
565 0
319 0
21 0
508 886 0
9 0
799 0
964 0
751 0
193 102 0
490 0
738 810 0
676 0
676 0
343 0
957 655 0
482 0
368 507 0
559 0
317 0
920 0
250 0
856 0
425 836 0
984 0
969 259 0
145 193 0
752 703 0
537 756 0
167 0
393 202 0
422 0
8 0
241 879 0
726 0
863 0
526 0
870 0
398 0
234 0
731 566 0
616 0
684 0
233 293 0
968 0
491 0
437 0
116 917 0
479 0
52 0
880 0
452 0
408 0
7 0
156 0
578 964 0
816 0
248 0
411 0
414 0
302 0
88 0
496 0
396 0
870 0
78 0
580 45 0
591 0
306 0
772 0
111 0
886 0
154 348 0
848 0
418 0
715 0
382 0
179 804 0
855 543 0
707 0
584 0
814 0
104 0
734 823 0
393 837 0
478 0
412 0
718 0
950 0
517 326 0
236 0
827 0
732 0
535 0
562 222 0
189 0
837 0
244 663 0
427 998 0
200 0
675 0
407 0
556 0
492 415 0
936 819 0
494 0
252 15 0
920 572 0
684 0
200 618 0
968 0
741 853 0
712 0
220 0
109 0
489 0
192 630 0
540 0
971 549 0
734 0
255 0
421 0
580 991 0
673 791 0
881 0
127 0
745 132 0
909 791 0
857 0
818 0
579 243 0
902 0
672 543 0
708 0
120 0
504 0
147 171 0
970 85 0
875 243 0
112 0
195 0
783 0
13 0
416 0
610 262 0
60 0
450 0
621 0
474 74 0
848 157 0
533 0
637 0
153 859 0
315 420 0
3 0
444 0
357 0
256 0
312 284 0
201 0
902 0
67 0
632 986 0
524 0
926 0
157 0
73 0
933 0
792 0
152 0
442 0
817 0
203 0
824 138 0
690 399 0
432 0
866 0
53 0
70 0
900 0
147 0
432 0
883 0
563 499 0
673 0
388 0
840 29 0
856 316 0
449 0
390 0
241 0
437 0
619 787 0
815 0
483 0
777 0
176 0
600 0
873 0
461 0
136 0
114 503 0
268 15 0
404 0
515 0
817 0
704 0
492 0
203 950 0
653 0
489 0
291 0
25 443 0
869 0
61 0
105 459 0
166 0
998 0
48 262 0
629 0
76 477 0
573 0
123 535 0
886 0
562 0
73 0
584 57 0
449 703 0
385 267 0
424 754 0
504 18 0
147 0
499 0
977 578 0
632 0
512 0
923 676 0
414 0
802 0
40 0
225 0
303 0
526 0
988 175 0
462 559 0
198 0
771 935 0
116 0
649 103 0
585 0
948 0
89 0
513 0
882 0
371 647 0
576 0
976 122 0
857 563 0
464 56 0
137 0
489 0
188 0
838 0
164 0
946 843 0
737 763 0
907 0
350 559 0
650 0
11 0
851 0
332 335 0
820 0
978 71 0
132 430 0
275 0
956 0
712 0
861 0
907 0
202 0
612 647 0
923 0
240 0
442 0
305 0
440 0
901 0
589 0
980 0
991 0
101 759 0
416 490 0
397 0
570 0
511 0
66 900 0
855 0
493 0
992 0
922 0
807 439 0
622 0
33 723 0
715 349 0
59 0
207 951 0
866 996 0
643 156 0
672 0
386 606 0
606 0
377 725 0
162 0
538 373 0
921 0
696 0
611 221 0
263 0
668 492 0
515 0
971 46 0
813 0
115 0
88 0
633 431 0
824 0
243 0
456 444 0
450 948 0
205 134 0
488 0
434 0
881 0
122 597 0
10 870 0
602 0
752 776 0
398 14 0
210 0
715 0
136 516 0
73 367 0
869 478 0
353 987 0
505 0
566 0
714 0
425 0
139 0
743 127 0
28 830 0
372 0
447 0
197 966 0
645 0
368 269 0
527 0
86 0
170 0
75 436 0
351 0
29 0
782 359 0
747 470 0
840 0
644 0
599 0
275 451 0
185 243 0
683 0
321 919 0
201 0
876 0
611 0
436 0
623 0
670 0
859 0
3 557 0
851 0
309 0
226 0
416 0
848 380 0
774 623 0
831 0
327 0
484 0
937 958 0
905 0
12 0
629 0
737 189 0
480 319 0
526 0
281 206 0
400 0
127 0
804 621 0
18 243 0
943 0
880 939 0
4 805 0
43 524 0
130 0
776 0
909 0
226 0
856 107 0
675 615 0
623 0
594 198 0
145 839 0
420 0
291 891 0
602 549 0
666 806 0
132 0
340 0
346 0
904 0
895 0
676 358 0
546 0
900 0
352 0
878 0
472 723 0
724 0
522 0
898 0
194 0
961 0
502 0
248 193 0
537 0
353 0
227 0
259 0
174 0
788 271 0
245 0
932 838 0
393 0
336 638 0
730 0
194 0
617 985 0
633 394 0
371 0
67 0
355 0
9 0
855 0
98 0
44 0
894 0
659 0
958 0
65 825 0
598 0
413 0
841 0
542 175 0
884 0
495 0
434 685 0
49 0
928 0
189 0
542 0
192 0
851 508 0
270 0
608 0
879 0
184 75 0
462 0
398 94 0
96 0
92 0
243 925 0
250 0
810 0
921 562 0
760 0
720 0
839 0
895 0
594 726 0
296 28 0
457 411 0
31 0
826 0
925 0
22 0
103 0
109 693 0
169 0
637 0
383 0
624 0
447 0
753 420 0
545 0
628 764 0
691 0
560 0
400 206 0
829 0
538 0
968 59 0
386 351 0
766 0
484 334 0
506 646 0
241 354 0
259 743 0
938 0
977 671 0
681 0
459 0
873 0
267 821 0
189 15 0
715 0
558 0
224 0
698 859 0
352 0
424 0
570 926 0
619 0
504 0
489 0
98 124 0
485 0
156 0
363 543 0
57 0
583 0
877 0
26 0
908 0
609 295 0
40 962 0
4 0
433 0
665 0
307 0
650 515 0
206 0
523 0
200 0
418 0
488 432 0
724 0
72 0
442 330 0
246 0
344 282 0
272 0
472 0
546 795 0
266 0
185 447 0
506 0
217 0
275 0
761 327 0
955 0
771 0
289 902 0
139 0
931 0
927 0
763 726 0
843 0
487 111 0
611 0
52 0
560 0
246 0
465 0
192 0
12 815 0
277 0
228 247 0
480 0
532 0
854 0
145 0
817 0
418 0
574 151 0
725 0
749 0
426 182 0
183 0
978 722 0
453 0
493 0
19 747 0
386 0
875 29 0
871 0
594 631 0
308 509 0
295 0
408 0
984 0
339 0
282 0
338 844 0
776 497 0
1000 496 0
346 829 0
465 0
498 0
838 0
640 665 0
289 0
517 0
789 887 0
937 0
161 71 0
322 0
977 0
760 0
976 0
646 0
153 822 0
66 0
187 309 0
785 0
897 498 0
358 430 0
296 0
773 0
546 13 0
235 670 0
266 0
501 0
193 0
876 0
236 429 0
643 598 0
649 994 0
571 0
393 450 0
671 0
136 0
898 0
700 0
698 0
918 0
126 0
921 324 0
996 0
60 0
970 0
347 0
278 0
583 0
528 0
569 0
686 0
174 0
356 0
37 0
845 0
793 0
841 0
505 347 0
908 0
348 0
691 0
20 0
773 0
616 0
271 0
848 0
916 0
389 599 0
422 30 0
611 0
329 83 0
527 0
419 0
226 83 0
745 0
152 469 0
64 0
433 527 0
558 0
608 0
206 0
352 0
777 0
872 0
705 0
335 0
198 0
302 0
94 0
34 0
436 583 0
542 0
934 455 0
769 0
829 0
203 423 0
594 0
304 143 0
277 0
245 0
27 214 0
593 0
874 0
697 0
505 0
58 919 0
713 0
502 0
240 235 0
785 982 0
204 0
458 0
351 0
112 865 0
290 0
521 0
561 0
831 0
441 0
71 0
111 0
493 0
987 580 0
27 0
228 0
615 0
896 0
119 0
565 855 0
552 0
72 0
411 846 0
329 0
531 957 0
111 0
301 806 0
220 0
948 0
178 0
61 0
612 367 0
730 0
804 0
80 0
742 0
347 0
188 556 0
539 955 0
144 316 0
28 0
610 763 0
528 0
775 0
148 0
30 0
726 0
242 738 0
102 14 0
119 0
625 178 0
649 0
849 0
773 0
589 0
528 0
918 0
28 0
100 0
457 0
688 0
72 724 0
819 532 0
755 631 0
715 53 0
58 958 0
286 0
370 0
31 0
922 0
773 0
475 247 0
688 0
95 0
731 0
446 0
395 0
957 894 0
20 0
485 0
365 0
825 133 0
860 0
138 381 0
446 790 0
701 0
372 740 0
593 0
427 845 0
700 383 0
510 799 0
582 0
531 0
797 0
86 343 0
697 0
184 788 0
806 0
291 965 0
342 359 0
735 0
910 503 0
689 0
630 0
768 150 0
676 0
157 0
810 0
645 0
456 0
350 0
377 605 0
919 575 0
704 0
906 861 0
401 174 0
292 645 0
2 0
80 848 0
836 351 0
108 0
161 438 0
889 759 0
192 0
624 0
466 0
46 0
45 0
566 0
776 0
25 509 0
938 0
682 267 0
420 0
9 943 0
184 218 0
569 193 0
931 0
919 0
274 0
879 0
281 707 0
941 0
330 0
496 356 0
921 371 0
664 0
790 943 0
679 0
220 0
282 79 0
934 718 0
161 438 0
546 0
711 0
77 0
569 0
564 735 0
720 0
582 0
395 831 0
212 254 0
531 0
366 0
702 967 0
619 0
295 0
727 0
157 0
604 0
271 0
546 0
121 0
936 201 0
588 181 0
32 340 0
388 0
242 0
947 190 0
789 0
148 0
980 0
533 0
883 0
833 0
433 0
172 510 0
256 0
247 0
241 655 0
252 0
514 739 0
671 0
400 81 0
982 0
619 0
461 0
711 0
466 0
948 0
578 0
71 0
830 0
884 0
71 0
306 0
602 0
599 0
309 0
955 0
656 546 0
776 0
297 167 0
939 0
320 0
383 0
829 0
513 362 0
363 596 0
836 0
582 735 0
827 0
876 0
221 0
396 0
442 0
945 0
464 0
96 0
669 751 0
170 364 0
227 0
921 244 0
594 237 0
307 0
36 0
321 0
51 367 0
494 0
339 397 0
555 683 0
640 0
628 660 0
673 495 0
946 402 0
985 0
58 0
673 419 0
678 375 0
665 0
273 644 0
420 255 0
248 832 0
480 82 0
743 0
146 0
76 0
917 535 0
80 435 0
306 0
819 575 0
81 482 0
108 0
681 831 0
871 0
413 0
132 0
771 902 0
248 989 0
685 0
125 0
404 0
446 518 0
224 339 0
177 535 0
18 0
338 598 0
813 0
538 589 0
281 0
853 0
998 502 0
496 0
777 0
26 636 0
851 0
777 787 0
500 0
373 950 0
385 468 0
112 0
745 0
821 0
17 722 0
74 0
710 0
349 0
467 0
902 0
73 522 0
571 235 0
264 44 0
618 770 0
902 0
695 0
693 0
85 599 0
729 0
131 0
36 926 0
812 71 0
148 0
62 0
741 0
168 514 0
852 0
329 0
305 0
937 0
686 0
808 0
281 0
631 0
910 0
802 471 0
53 0
406 0
336 307 0
856 0
496 7 0
540 0
112 0
120 95 0
831 0
916 622 0
380 559 0
800 472 0
301 0
345 735 0
372 0
374 0
243 0
948 0
548 0
765 894 0
90 46 0
417 820 0
856 257 0
465 466 0
865 234 0
357 0
449 0
814 0
194 586 0
48 234 0
952 0
576 0
121 0
481 0
984 135 0
222 0
355 0
530 507 0
44 0
673 0
169 0
234 471 0
819 0
728 0
398 487 0
857 0
441 0
55 0
122 0
962 0
187 468 0
393 0
371 44 0
21 0
875 772 0
891 0
972 0
584 868 0
906 0
579 0
465 332 0
370 0
3 0
626 0
550 0
108 853 0
41 25 0
400 49 0
385 0
131 28 0
976 526 0
607 295 0
85 0
349 0
39 0
807 0
616 0
175 0
595 0
570 0
26 390 0
139 196 0
892 253 0
152 359 0
100 372 0
490 404 0
652 279 0
303 0
875 0
333 159 0
111 0
695 0
206 0
102 0
506 0
864 758 0
256 39 0
991 0
376 815 0
947 565 0
714 374 0
704 0
398 0
188 0
897 0
163 0
810 468 0
794 0
143 0
510 335 0
163 0
39 0
292 0
36 399 0
307 0
330 894 0
954 0
318 0
936 128 0
470 0
843 917 0
169 0
929 958 0
469 0
899 0
689 750 0
687 0
69 0
220 0
465 993 0
497 0
285 0
168 379 0
794 0
749 0
368 831 0
596 0
413 510 0
848 0
626 844 0
449 0
51 223 0
432 0
453 414 0
53 0
322 0
825 0
289 106 0
536 458 0
581 0
942 486 0
399 0
624 53 0
800 54 0
616 521 0
689 0
562 0
138 0
468 0
385 0
266 135 0
215 927 0
545 687 0
832 456 0
419 629 0
539 285 0
968 0
648 299 0
218 0
355 0
501 0
608 977 0
423 0
321 0
825 509 0
24 0
547 0
131 0
170 479 0
864 794 0
622 814 0
297 0
396 0
593 777 0
481 158 0
745 0
774 0
89 0
1 0
10 965 0
708 0
121 0
378 541 0
109 0
847 0
299 549 0
625 139 0
984 361 0
218 0
552 666 0
279 0
297 0
915 0
299 244 0
704 542 0
74 0
477 0
3 0
301 357 0
633 0
469 0
292 0
562 0
656 605 0
565 0
175 0
602 787 0
542 0
678 654 0
497 0
610 0
633 325 0
988 756 0
794 927 0
368 310 0
996 0
460 548 0
326 0
881 0
187 950 0
742 0
552 943 0
128 0
792 613 0
984 0
782 0
279 0
44 0
434 78 0
669 0
891 0
382 0
835 0
838 935 0
299 0
937 0
504 0
180 0
698 0
161 0
154 0
57 873 0
378 0
510 0
291 0
863 0
872 0
186 887 0
464 0
123 532 0
189 0
768 0
49 515 0
942 0
151 0
38 0
114 0
346 0
675 419 0
851 519 0
297 0
999 0
735 0
514 0
528 0
260 0
97 230 0
831 0
79 0
182 0
817 0
805 0
256 0
310 0
817 859 0
996 0
673 0
25 111 0
762 795 0
875 500 0
946 0
399 0
84 0
992 578 0
624 0
563 0
959 0
38 0
888 648 0
509 0
66 0
136 629 0
101 0
441 0
745 0
26 0
203 340 0
644 0
912 910 0
480 0
666 0
819 0
766 0
253 0
769 0
721 537 0
866 0
813 0
249 747 0
721 0
18 0
312 513 0
490 0
484 0
104 858 0
443 973 0
42 389 0
539 500 0
221 0
614 543 0
390 0
264 0
257 0
434 420 0
621 0
329 0
514 427 0
881 686 0
424 552 0
635 822 0
538 0
841 0
85 0
493 0
131 204 0
83 0
50 0
140 0
421 0
294 127 0
957 0
313 0
88 0
55 0
233 0
495 0
299 0
705 0
176 0
410 0
488 565 0
909 0
567 0
170 0
552 103 0
192 753 0
529 0
177 0
913 671 0
104 0
507 0
910 0
224 308 0
960 0
597 0
117 0
281 0
771 0
480 0
603 0
819 0
630 0
550 0
944 0
840 249 0
123 343 0
944 588 0
896 681 0
768 0
845 0
516 0
678 0
615 0
549 0
587 0
883 766 0
33 0
377 0
910 398 0
64 674 0
587 0
36 0
988 0
387 340 0
813 0
165 0
642 0
359 0
792 0
927 0
92 796 0
839 0
519 919 0
274 0
485 0
123 463 0
369 793 0
877 0
657 0
656 0
217 0
993 0
793 108 0
364 142 0
257 0
524 0
349 0
428 30 0
139 318 0
757 14 0
225 0
814 0
359 0
277 903 0
517 0
923 285 0
741 887 0
203 0
972 0
624 684 0
408 271 0
865 215 0
607 0
306 757 0
442 0
297 0
411 327 0
147 997 0
304 450 0
264 0
988 517 0
730 325 0
635 909 0
722 78 0
947 0
740 0
153 335 0
938 0
548 0
703 0
678 0
427 0
918 0
533 358 0
58 0
209 0
417 485 0
842 973 0
842 0
150 0
768 284 0
944 0
226 0
713 462 0
249 0
814 0
338 0
179 0
385 0
939 854 0
25 0
486 0
191 0
16 396 0
248 16 0
739 237 0
922 662 0
66 0
610 0
766 0
614 0
213 263 0
130 747 0
992 0
674 479 0
188 629 0
336 246 0
451 491 0
632 751 0
889 269 0
783 0
369 651 0
34 0
312 0
37 477 0
433 436 0
602 0
676 0
137 0
318 0
408 313 0
657 0
910 0
168 0
139 447 0
408 753 0
158 455 0
266 227 0
8 0
696 682 0
229 0
139 261 0
394 15 0
11 0
341 0
855 0
58 549 0
435 55 0
576 322 0
918 0
995 877 0
905 0
382 0
868 836 0
516 0
900 0
985 0
959 727 0
757 0
29 717 0
480 296 0
209 99 0
909 0
720 568 0
574 0
221 0
88 630 0
745 0
575 0
734 311 0
608 898 0
125 0
37 0
987 956 0
115 0
401 774 0
977 0
468 693 0
162 0
686 0
180 103 0
488 0
761 0
549 0
673 0
395 0
581 742 0
953 790 0
41 0
228 0
330 0
436 0
520 0
449 115 0
920 956 0
882 0
560 0
45 0
960 0
681 748 0
198 0
760 0
984 0
295 0
674 0
406 0
817 0
703 0
805 0
354 0
979 0
27 0
438 582 0
514 0
482 0
769 165 0
23 887 0
74 0
696 305 0
763 142 0
906 0
107 0
647 335 0
903 0
725 0
538 0
168 0
726 0
958 0
354 759 0
132 0
565 0
26 0
99 150 0
359 0
384 0
506 0
171 294 0
591 0
385 0
692 0
251 0
200 631 0
313 105 0
874 0
601 374 0
189 0
109 0
699 0
107 539 0
52 0
811 0
257 0
803 0
319 0
265 460 0
158 0
352 0
578 0
680 0
400 0
609 0
561 0
651 0
490 0
610 0
21 839 0
480 0
263 0
681 0
65 34 0
872 366 0
460 0
387 0
896 508 0
231 0
233 725 0
125 0
191 0
726 0
572 0
653 0
88 182 0
293 638 0
515 0
432 0
219 172 0
470 0
913 0
93 0
386 23 0
20 0
959 0
438 0
375 0
752 721 0
219 0
208 0
477 0
262 0
524 0
58 77 0
363 0
371 0
571 878 0
130 0
13 0
441 0
960 0
27 0
962 0
993 227 0
172 0
414 0
333 415 0
632 0
568 0
475 0
811 925 0
49 0
448 753 0
252 0
242 0
166 335 0
736 796 0
849 0
928 73 0
208 0
635 142 0
2 0
12 0
114 0
932 327 0
914 0
669 0
373 0
41 0
296 531 0
748 0
593 436 0
530 0
236 0
96 0
826 0
824 412 0
269 559 0
830 0
171 948 0
785 271 0
686 0
942 111 0
871 0
667 0
558 0
476 0
868 981 0
712 1000 0
398 0
148 0
590 0
786 0
448 882 0
457 0
50 0
20 0
145 0
36 0
346 191 0
174 0
365 0
806 0
495 0
571 0
698 0
651 0
272 13 0
667 0
566 0
483 997 0
38 0
603 0
769 418 0
452 335 0
370 0
813 0
735 0
157 455 0
618 0
874 0
896 965 0
40 951 0
440 49 0
79 0
110 0
108 0
752 0
519 0
908 310 0
168 0
836 502 0
378 180 0
648 0
816 0
987 0
888 0
386 0
554 100 0
344 449 0
318 0
585 547 0
873 0
37 278 0
839 0
234 0
648 449 0
75 0
393 0
768 0
521 230 0
923 0
86 0
788 0
616 230 0
956 0
751 0
17 0
978 429 0
53 0
553 621 0
943 0
946 0
300 623 0
758 0
56 0
643 0
932 0
592 0
674 0
56 606 0
320 210 0
351 0
659 0
920 82 0
501 0
306 0
492 575 0
581 0
522 534 0
611 0
58 885 0
844 0
900 71 0
85 94 0
393 599 0
743 0
523 790 0
227 0
864 282 0
308 0
960 122 0
930 82 0
821 799 0
893 0
382 0
892 0
624 0
264 67 0
504 0
92 0
524 0
52 823 0
876 0
225 267 0
897 0
275 118 0
284 0
495 0
171 365 0
598 0
195 0
569 502 0
717 0
805 0
94 238 0
466 0
754 598 0
644 503 0
172 0
1000 97 0
125 0
339 503 0
73 0
274 0
710 0
221 103 0
403 0
112 0
321 0
857 734 0
474 0
914 0
287 0
99 172 0
248 0
633 0
432 0
611 0
730 173 0
43 397 0
179 0
597 0
780 0
334 0
50 363 0
841 575 0
153 490 0
210 500 0
561 682 0
360 0
341 678 0
71 0
597 0
91 389 0
38 0
921 0
40 0
666 638 0
817 0
226 0
33 930 0
908 757 0
707 23 0
741 0
980 293 0
649 0
112 711 0
71 0
912 0
246 0
392 215 0
899 0
908 0
418 195 0
888 0
755 868 0
800 0
684 78 0
520 0
59 478 0
71 0
852 0
362 163 0
729 0
914 383 0
74 805 0
242 0
400 0
94 0
38 782 0
520 166 0
135 0
743 0
110 0
435 0
953 796 0
776 277 0
169 0
322 0
118 0
765 0
569 374 0
81 0
748 654 0
653 0
24 0
581 0
812 0
59 0
81 881 0
544 964 0
351 0
837 373 0
987 695 0
723 0
330 964 0
940 0
599 543 0
241 726 0
245 461 0
116 0
50 0
688 406 0
459 0
241 0
814 0
423 0
644 0
61 0
569 0
390 0
348 487 0
752 319 0
563 0
946 0
161 195 0
288 46 0
165 0
194 0
673 0
553 829 0
312 0
553 0
995 0
976 100 0
693 0
157 0
515 0
241 986 0
209 0
392 0
55 0
537 0
937 338 0
143 0
603 0
435 149 0
471 0
770 0
395 469 0
169 58 0
615 0
510 0
802 0
645 0
88 0
329 0
483 718 0
275 14 0
713 0
387 0
996 805 0
587 0
606 734 0
371 0
609 977 0
383 0
766 0
889 247 0
150 622 0
858 0
152 0
513 557 0
245 0
322 0
220 438 0
710 0
912 350 0
483 597 0
462 0
524 0
74 278 0
462 0
650 0
773 471 0
709 0
240 0
255 247 0
846 0
696 0
257 0
410 684 0
895 0
820 0
525 447 0
654 0
167 0
594 975 0
105 257 0
832 215 0
422 0
681 0
727 0
46 0
476 102 0
164 0
771 220 0
457 34 0
602 0
538 430 0
568 0
914 259 0
617 0
921 757 0
847 0
928 0
375 0
137 0
888 188 0
408 777 0
771 0
181 0
801 0
599 0
630 0
347 0
222 0
199 0
577 0
985 0
376 309 0
317 0
316 0
949 0
42 845 0
88 0
919 0
383 0
78 0
215 0
543 0
129 698 0
569 734 0
266 0
435 0
368 797 0
822 47 0
699 0
483 588 0
520 0
344 16 0
82 691 0
817 0
418 0
691 0
578 652 0
540 853 0
570 0
687 0
756 0
191 0
640 0
105 0
292 0
770 686 0
932 231 0
186 964 0
194 682 0
613 0
240 569 0
654 223 0
270 567 0
263 0
107 0
644 0
880 0
181 0
346 0
712 554 0
963 222 0
948 0
449 661 0
65 795 0
919 0
704 623 0
290 0
830 0
268 357 0
659 0
887 0
425 5 0
381 0
180 0
895 0
211 0
668 735 0
307 0
155 0
365 31 0
276 0
841 0
524 0
463 0
955 0
127 0
265 0
527 0
954 0
80 0
957 0
102 0
158 0
24 0
417 0
785 0
330 309 0
323 0
922 830 0
77 991 0
257 801 0
458 259 0
110 0
761 0
382 0
334 0
157 0
905 0
809 0
940 237 0
201 373 0
673 229 0
867 0
296 0
545 0
738 0
331 0
527 0
665 565 0
771 0
417 0
361 717 0
640 0
634 740 0
46 0
981 0
415 0
488 539 0
906 0
563 556 0
240 81 0
730 0
864 683 0
634 471 0
506 979 0
876 525 0
557 0
776 0
489 349 0
121 257 0
456 630 0
715 0
632 0
176 0
974 0
649 0
480 350 0
280 0
769 406 0
197 0
236 0
127 0
616 878 0
610 0
607 0
705 903 0
376 0
73 78 0
744 590 0
70 0
768 825 0
458 0
124 0
133 0
32 785 0
462 0
784 51 0
675 0
876 508 0
559 0
646 119 0
583 407 0
433 0
460 85 0
518 0
120 0
521 0
889 0
120 660 0
341 0
65 611 0
132 255 0
920 993 0
194 0
580 0
922 0
366 415 0
193 0
761 0
285 0
33 213 0
245 0
3 0
423 583 0
88 0
469 542 0
822 0
819 0
178 396 0
141 0
882 0
943 0
250 694 0
252 0
680 939 0
329 0
557 0
942 0
113 0
654 0
934 0
852 550 0
431 0
995 0
328 563 0
664 234 0
939 638 0
802 0
394 0
718 551 0
552 0
14 0
752 0
200 600 0
403 979 0
64 0
578 0
369 0
240 663 0
25 692 0
315 0
712 0
929 69 0
51 0
83 981 0
825 0
755 0
364 0
493 0
987 0
913 391 0
609 515 0
706 943 0
383 0
916 526 0
169 404 0
689 220 0
811 357 0
359 551 0
393 665 0
536 680 0
590 0
326 927 0
973 0
353 0
63 0
519 0
419 422 0
448 0
51 0
421 0
508 0
644 0
522 0
362 0
858 757 0
276 0
235 436 0
108 644 0
459 845 0
18 701 0
578 436 0
766 0
296 97 0
16 0
839 0
11 0
736 692 0
537 399 0
871 0
62 0
876 0
922 0
996 557 0
558 0
438 0
110 0
400 0
560 0
870 0
931 798 0
558 614 0
156 0
272 0
712 0
935 0
905 0
24 0
521 564 0
194 0
367 0
568 0
269 0
984 211 0
600 0
186 0
394 117 0
381 0
3 0
968 0
767 0
896 0
327 0
777 950 0
732 0
702 0
321 0
442 570 0
496 0
126 0
684 30 0
603 0
414 0
356 0
412 485 0
40 0
646 0
377 181 0
578 0
550 0
272 0
456 0
410 0
307 0
8 0
580 775 0
218 0
461 0
633 0
345 0
210 783 0
856 0
834 572 0
322 676 0
587 0
236 0
952 496 0
229 815 0
684 0
124 0
520 0
898 2 0
927 0
985 0
56 302 0
947 831 0
290 69 0
800 834 0
101 0
960 229 0
733 0
887 0
973 0
907 0
60 0
269 0
963 0
501 0
845 0
396 0
135 0
533 0
686 414 0
594 0
255 0
133 437 0
326 0
497 0
11 0
808 0
405 0
377 155 0
369 183 0
872 526 0
202 0
317 0
19 0
361 473 0
515 0
844 0
668 47 0
77 0
258 0
518 0
878 0
906 0
835 821 0
718 0
437 0
518 0
269 0
809 0
248 0
756 0
968 312 0
546 0
235 0
928 0
772 0
281 44 0
329 0
931 205 0
408 947 0
898 0
114 0
904 318 0
805 0
358 0
253 0
625 374 0
502 0
23 0
409 0
444 0
168 345 0
273 0
849 130 0
483 0
543 0
713 0
706 135 0
163 0
192 451 0
592 187 0
277 0
993 675 0
807 0
317 21 0
652 0
40 0
955 0
613 85 0
69 0
38 0
220 710 0
288 85 0
944 769 0
611 0
677 0
731 0
123 0
12 0
129 0
683 0
610 0
25 774 0
960 72 0
518 0
430 0
831 0
460 0
464 0
699 0
730 996 0
636 717 0
440 253 0
519 0
406 0
668 0
459 0
464 4 0
804 0
595 0
785 0
123 390 0
88 0
63 0
988 0
194 0
561 0
322 0
115 0
918 0
289 654 0
899 892 0
824 341 0
28 0
963 0
71 0
244 0
372 815 0
288 0
867 0
451 0
556 319 0
127 0
745 0
988 0
97 0
124 0
469 0
863 0
650 0
902 0
937 318 0
417 0
281 179 0
179 0
26 0
786 0
432 101 0
136 0
467 0
175 0
296 0
330 0
905 226 0
553 0
286 0
164 453 0
247 0
794 0
873 0
728 969 0
276 974 0
964 0
417 0
492 0
603 0
625 0
791 0
180 0
112 0
901 0
401 63 0
149 839 0
806 0
281 0
949 685 0
628 0
987 0
631 0
364 0
94 0
717 287 0
788 0
872 0
485 0
369 1 0
414 246 0
497 438 0
495 0
177 0
620 0
168 313 0
172 198 0
656 0
914 0
502 0
44 0
315 0
766 0
545 178 0
196 0
632 950 0
244 0
400 201 0
987 199 0
302 0
95 0
70 0
477 0
129 214 0
398 0
677 983 0
155 0
707 766 0
729 0
665 241 0
492 0
72 0
538 0
373 463 0
645 0
393 322 0
257 573 0
36 0
924 0
886 0
809 0
650 0
268 0
791 0
908 0
762 0
622 0
752 319 0
61 0
30 0
667 431 0
699 0
734 0
546 575 0
614 943 0
186 757 0
387 0
605 0
684 0
414 0
442 0
665 148 0
217 0
138 117 0
104 0
907 654 0
101 510 0
928 0
934 0
789 0
492 0
148 231 0
353 0
273 918 0
816 99 0
97 772 0
754 0
532 0
20 822 0
153 18 0
773 486 0
672 968 0
850 723 0
280 815 0
227 0
274 551 0
489 142 0
472 0
747 972 0
965 486 0
830 0
676 0
209 0
465 0
394 708 0
657 0
686 518 0
380 206 0
946 0
592 95 0
103 0
445 0
584 314 0
106 0
704 0
551 0
22 0
843 36 0
978 0
496 0
750 0
120 0
458 0
409 405 0
504 771 0
754 815 0
788 0
48 0
152 0
595 0
25 395 0
673 0
675 0
491 0
98 0
679 0
977 646 0
360 0
574 0
989 0
588 0
551 0
665 0
762 828 0
104 129 0
574 0
372 215 0
63 0
49 0
756 206 0
709 141 0
823 0
263 0
380 0
993 183 0
714 443 0
677 0
499 0
439 0
523 0
514 382 0
585 99 0
162 0
659 813 0
774 0
605 0
305 123 0
647 0
166 0
965 0
559 0
866 0
494 0
488 545 0
657 0
438 383 0
81 619 0
187 157 0
777 4 0
883 821 0
146 0
964 709 0
826 0
327 0
489 0
760 12 0
721 0
280 0
554 951 0
120 772 0
668 0
361 0
342 0
406 0
764 0
634 0
594 0
624 0
950 0
662 31 0
732 295 0
964 541 0
684 0
517 0
901 0
433 0
491 0
433 0
284 0
887 0
170 0
300 645 0
236 0
346 743 0
335 0
578 299 0
376 10 0
805 711 0
987 0
828 45 0
788 0
972 0
892 0
210 707 0
213 0
190 70 0
569 0
19 358 0
156 0
501 0
155 0
313 580 0
75 0
217 0
353 0
21 566 0
995 0
444 0
565 0
595 236 0
218 0
900 727 0
959 0
530 0
655 0
10 860 0
507 0
889 0
654 0
955 23 0
712 532 0
196 0
108 0
196 0
393 407 0
322 0
950 703 0
972 0
192 318 0
959 0
88 0
453 0
952 486 0
652 0
138 0
945 0
993 0
89 679 0
77 0
195 0
994 0
201 0
376 0
446 0
691 79 0
750 0
666 0
513 0
625 674 0
368 276 0
226 0
444 5 0
971 0
321 0
83 0
926 15 0
665 951 0
846 0
557 0
726 0
277 0
113 0
177 0
184 911 0
991 0
903 0
257 78 0
765 0
876 13 0
799 0
654 0
607 695 0
334 0
331 0
696 0
132 0
51 0
219 150 0
210 629 0
338 0
940 0
645 0
811 500 0
898 0
540 927 0
737 0
672 0
393 0
547 0
678 0
34 0
87 0
803 0
569 506 0
370 251 0
685 0
141 0
80 947 0
447 0
235 573 0
521 0
566 783 0
434 0
834 475 0
17 59 0
349 0
160 0
717 0
683 0
787 0
692 484 0
950 0
182 0
263 0
21 0
631 0
698 0
910 679 0
539 404 0
664 571 0
923 845 0
220 580 0
1 0
146 541 0
835 0
109 0
935 0
667 0
867 0
166 0
313 6 0
530 0
200 932 0
838 38 0
352 391 0
301 0
554 828 0
681 0
410 414 0
436 0
453 0
750 0
396 0
151 0
864 0
660 870 0
491 0
870 0
137 0
560 12 0
294 0
684 0
917 0
113 0
54 0
817 22 0
258 211 0
936 0
41 938 0
980 0
985 0
133 0
889 723 0
70 0
171 0
320 500 0
312 795 0
868 0
297 372 0
377 0
707 76 0
328 0
218 0
714 0
509 429 0
484 631 0
163 0
273 0
483 0
906 0
251 0
161 338 0
223 0
782 0
418 0
48 319 0
106 0
416 0
682 114 0
980 813 0
195 164 0
825 845 0
448 0
283 212 0
912 506 0
921 451 0
390 519 0
331 571 0
785 0
614 0
906 0
365 0
824 945 0
596 894 0
344 962 0
308 0
473 0
356 151 0
966 0
133 0
829 0
860 0
466 691 0
528 465 0
551 0
410 0
490 0
225 142 0
24 507 0
353 801 0
376 0
552 0
840 415 0
177 859 0
519 0
2 0
459 911 0
709 0
850 0
121 45 0
985 0
497 0
942 327 0
608 0
191 0
583 919 0
912 0
512 182 0
758 0
241 162 0
800 0
609 0
251 0
452 0
884 0
31 0
403 0
643 0
806 0
323 796 0
490 619 0
386 875 0
750 0
698 0
411 0
288 699 0
175 0
597 0
170 0
944 0
87 0
287 0
95 0
684 0
500 662 0
622 0
879 0
501 0
411 0
778 3 0
768 0
218 511 0
705 490 0
7 0
468 0
657 0
976 0
857 0
661 0
233 602 0
220 861 0
272 195 0
347 0
449 0
556 0
632 114 0
674 573 0
559 0
587 0
27 174 0
475 0
150 0
125 0
504 686 0
512 0
193 0
101 0
702 0
57 0
714 0
681 0
998 0
712 0
260 0
684 0
194 0
118 0
680 513 0
906 0
914 0
458 722 0
715 0
656 88 0
171 0
882 0
704 0
842 0
396 343 0
816 696 0
692 0
221 0
529 0
413 839 0
503 0
921 0
933 878 0
668 0
249 692 0
457 0
589 0
972 0
905 0
184 0
688 692 0
127 0
533 0
39 0
207 0
73 0
608 346 0
944 0
222 0
438 0
385 918 0
859 0
598 0
552 395 0
53 925 0
927 0
243 0
990 0
109 943 0
805 0
799 0
433 0
465 433 0
706 429 0
422 0
904 139 0
128 888 0
440 388 0
739 0
288 128 0
736 0
329 0
122 125 0
943 0
41 0
81 310 0
456 0
331 0
714 67 0
16 0
941 0
429 535 0
917 0
370 0
88 845 0
272 762 0
751 0
924 0
412 0
15 0
525 423 0
968 0
338 0
196 0
603 38 0
796 0
718 607 0
200 291 0
451 678 0
457 477 0
427 0
509 0
536 0
857 0
441 0
600 0
614 855 0
473 0
622 0
424 0
751 0
232 197 0
579 0
624 0
342 0
346 0
234 0
464 7 0
56 341 0
859 547 0
707 0
454 0
454 0
752 990 0
459 0
626 582 0
12 0
76 0
756 502 0
556 0
307 0
217 0
657 0
528 776 0
388 0
417 99 0
744 722 0
168 0
106 0
532 0
617 0
549 0
721 0
938 71 0
936 490 0
989 0
40 238 0
812 0
562 0
161 0
519 0
62 454 0
578 0
19 0
368 257 0
448 0
849 898 0
331 0
690 0
664 195 0
357 0
529 0
953 610 0
265 786 0
146 31 0
775 0
389 0
444 0
642 0
37 165 0
272 0
30 0
329 0
693 0
798 0
957 0
402 0
577 0
751 0
866 0
456 0
448 408 0
947 0
319 0
116 0
851 604 0
999 0
738 0
773 0
650 427 0
101 693 0
808 0
744 729 0
139 0
342 350 0
780 772 0
938 139 0
203 60 0
338 0
25 0
609 0
616 765 0
96 186 0
194 0
942 0
24 642 0
837 605 0
204 0
665 234 0
328 0
442 578 0
272 23 0
245 0
379 0
844 0
842 372 0
117 0
9 0
616 0
114 0
721 0
525 0
922 0
338 948 0
394 0
1000 0
571 0
488 571 0
668 0
910 0
21 0
140 0
405 0
610 855 0
904 0
557 302 0
320 123 0
374 0
1000 0
450 0
844 0
811 0
32 0
205 910 0
71 0
197 0
449 933 0
88 0
895 0
960 747 0
128 675 0
175 0
264 556 0
977 958 0
819 0
767 0
618 695 0
105 950 0
579 813 0
854 0
147 0
608 395 0
471 0
740 0
908 0
662 0
922 267 0
752 0
752 337 0
919 0
570 0
587 0
755 0
405 0
730 962 0
983 0
868 0
557 95 0
795 0
578 0
900 0
983 0
421 0
225 0
544 0
108 0
4 0
677 0
264 0
702 0
797 0
911 0
820 0
620 0
386 0
232 0
347 190 0
81 0
933 63 0
855 0
578 942 0
377 0
387 933 0
356 0
391 0
633 0
65 261 0
998 791 0
160 0
735 0
84 0
920 0
681 0
791 0
259 580 0
149 918 0
798 0
302 910 0
347 0
944 853 0
365 0
243 0
687 0
921 845 0
988 0
118 0
914 0
771 325 0
252 325 0
613 837 0
986 0
109 0
701 0
185 722 0
667 0
990 607 0
496 0
76 0
83 0
472 0
790 0
752 0
499 0
384 0
477 0
663 0
420 788 0
150 0
389 0
983 0
702 0
459 431 0
166 0
690 22 0
305 0
516 0
936 978 0
500 399 0
74 0
949 0
758 0
839 0
338 0
361 937 0
203 0
691 0
804 991 0
564 0
665 819 0
941 0
668 0
201 252 0
175 0
480 482 0
398 0
561 698 0
13 0
221 0
97 0
995 0
128 0
784 0
398 0
601 0
556 0
8 748 0
351 0
187 0
525 0
229 0
370 547 0
40 93 0
838 0
867 245 0
307 0
729 0
48 0
373 0
655 0
509 118 0
636 0
529 77 0
377 0
128 700 0
291 0
300 143 0
777 0
755 0
71 0
246 0
977 318 0
524 0
29 0
320 0
248 0
451 885 0
597 0
529 853 0
232 0
645 0
876 0
851 623 0
248 247 0
322 0
760 0
119 0
844 0
680 551 0
834 0
713 0
229 903 0
746 159 0
561 0
998 0
24 490 0
613 0
778 231 0
220 0
711 0
467 36 0
505 0
291 867 0
49 485 0
986 950 0
611 0
159 0
168 963 0
789 0
859 55 0
272 0
990 0
389 215 0
226 0
344 0
964 0
129 0
617 0
355 0
896 0
782 0
582 0
344 943 0
116 0
809 266 0
858 0
611 0
508 0
659 0
663 71 0
281 0
501 0
113 0
809 0
702 0
197 0
84 0
856 0
721 0
511 0
778 0
665 0
100 0
983 0
280 0
365 0
783 0
969 0
805 0
877 0
249 0
48 0
521 0
931 0
94 0
66 0
368 0
345 790 0
408 834 0
880 898 0
173 215 0
746 0
57 0
67 789 0
470 0
993 0
145 0
357 0
547 0
284 318 0
2 0
939 150 0
800 277 0
856 411 0
949 0
616 82 0
421 0
302 0
435 0
307 0
269 0
304 0
495 0
343 0
125 901 0
28 0
227 221 0
319 0
187 0
688 15 0
105 0
901 7 0
954 0
926 0
597 0
557 0
315 0
49 535 0
257 0
566 0
809 0
669 0
74 37 0
606 0
421 0
952 21 0
69 238 0
916 0
544 353 0
662 0
834 0
435 0
333 118 0
68 0
474 738 0
605 0
488 0
467 203 0
426 0
515 491 0
81 478 0
624 894 0
156 0
918 0
340 0
916 0
714 650 0
359 0
863 0
93 0
672 429 0
356 613 0
787 0
804 0
481 0
6 0
720 0
653 0
925 0
481 755 0
415 0
162 316 0
163 0
469 0
555 767 0
301 453 0
512 0
898 651 0
904 54 0
159 0
739 0
381 0
465 482 0
872 827 0
834 0
668 0
319 0
564 981 0
856 702 0
489 316 0
834 0
670 791 0
620 0
908 0
72 0
876 0
636 0
466 277 0
199 0
848 485 0
34 0
159 0
863 0
953 991 0
411 238 0
991 0
377 0
778 0
80 0
609 503 0
293 0
963 759 0
561 0
433 0
718 975 0
986 0
309 0
971 0
331 487 0
833 123 0
912 188 0
944 412 0
841 738 0
512 866 0
557 71 0
980 709 0
120 0
170 0
156 0
301 0
461 0
153 516 0
835 87 0
304 0
906 0
237 70 0
188 0
949 0
140 0
520 0
847 0
545 0
277 0
831 0
334 0
913 0
206 791 0
989 0
867 0
311 0
125 0
837 397 0
882 0
934 0
534 0
785 0
765 0
745 670 0
974 471 0
896 0
784 486 0
235 0
682 724 0
538 227 0
752 0
880 0
846 0
73 806 0
398 0
768 0
100 0
716 143 0
377 148 0
660 0
866 0
85 807 0
430 0
826 437 0
233 573 0
863 0
745 0
500 0
778 0
113 51 0
553 0
909 0
958 0
492 0
88 551 0
896 233 0
13 0
222 0
740 0
84 0
469 0
522 570 0
505 0
757 0
393 0
105 178 0
52 0
127 0
345 0
892 790 0
468 453 0
968 0
245 0
737 862 0
236 0
448 0
891 0
268 0
911 0
61 0
807 0
711 0
75 0
160 281 0
679 23 0
626 0
151 0
50 0
4 0
348 518 0
212 0
24 73 0
377 0
587 0
51 487 0
896 0
565 0
333 0
530 315 0
750 0
755 484 0
353 924 0
953 0
513 0
199 0
82 0
414 831 0
320 558 0
578 532 0
921 479 0
13 0
343 0
88 932 0
992 0
441 0
932 198 0
249 420 0
826 0
680 0
412 244 0
163 0
273 717 0
539 0
899 0
475 0
427 0
776 0
577 0
526 0
763 0
477 637 0
584 998 0
600 641 0
449 0
780 213 0
706 747 0
796 0
321 999 0
30 0
327 983 0
880 162 0
349 0
489 770 0
241 0
930 0
713 0
524 0
871 0
360 236 0
502 0
168 0
922 0
312 0
733 0
856 0
371 0
865 0
896 0
30 0
860 335 0
35 107 0
465 0
560 0
221 0
699 0
673 690 0
723 204 0
882 0
470 0
556 959 0
671 0
571 443 0
384 846 0
397 0
988 335 0
459 0
854 0
160 164 0
659 0
409 0
530 742 0
134 0
886 0
794 583 0
828 478 0
176 376 0
484 0
507 999 0
436 0
112 937 0
60 453 0
276 0
344 0
554 0
840 639 0
36 276 0
275 103 0
832 0
380 0
609 847 0
596 0
245 390 0
623 0
922 612 0
586 0
765 0
423 0
90 822 0
79 0
73 0
499 0
281 126 0
625 687 0
945 0
392 0
513 0
55 239 0
428 0
161 0
576 975 0
198 607 0
525 838 0
753 734 0
632 743 0
363 0
920 0
514 0
673 0
556 0
319 0
812 0
166 0
697 0
441 666 0
469 0
843 709 0
553 575 0
408 333 0
375 0
935 0
656 0
448 820 0
449 207 0
477 0
297 969 0
534 0
304 771 0
169 0
459 0
504 894 0
23 0
983 0
583 0
744 0
286 0
387 0
685 551 0
930 738 0
39 0
425 0
441 0
825 58 0
176 0
776 494 0
319 0
371 0
232 319 0
689 0
553 111 0
13 0
597 0
936 0
546 388 0
831 0
879 0
320 0
700 14 0
428 0
36 0
418 362 0
754 0
210 501 0
116 0
759 0
933 0
419 0
230 0
908 0
488 0
585 0
939 0
883 0
282 0
81 0
634 0
250 387 0
450 0
943 0
285 0
412 604 0
589 0
249 878 0
446 0
831 0
602 887 0
118 0
175 0
940 0
857 0
802 0
858 100 0
614 0
718 0
456 0
564 0
547 0
276 0
660 0
963 0
536 31 0
532 197 0
35 366 0
729 212 0
876 822 0
164 764 0
897 0
408 273 0
440 0
704 817 0
251 0
88 0
796 0
53 0
845 645 0
739 0
867 374 0
499 550 0
208 0
286 0
800 586 0
426 0
289 0
172 926 0
936 0
397 0
953 390 0
273 0
932 772 0
897 109 0
234 0
254 0
57 0
386 0
472 770 0
915 0
250 0
137 79 0
962 0
84 0
235 0
589 0
192 0
306 0
967 0
184 378 0
312 701 0
436 444 0
129 0
95 0
271 0
78 0
156 0
770 0
175 0
640 945 0
144 0
969 0
628 0
121 0
629 0
956 469 0
842 0
212 0
835 908 0
836 709 0
649 0
754 0
92 0
983 487 0
613 0
990 0
228 63 0
885 0
34 0
394 626 0
473 0
113 0
328 847 0
470 0
477 23 0
729 165 0
441 0
657 0
975 0
5 0
882 918 0
260 0
878 0
648 309 0
59 0
151 0
745 782 0
923 0
242 0
361 0
594 972 0
449 0
826 652 0
444 0
255 0
995 0
961 381 0
195 0
442 0
336 0
376 44 0
190 526 0
449 0
915 0
179 0
972 0
34 795 0
401 0
283 0
140 95 0
441 411 0
544 0
991 0
304 0
720 861 0
313 610 0
284 333 0
860 230 0
440 0
214 0
244 0
407 0
309 0
162 814 0
881 835 0
170 0
384 0
18 407 0
225 202 0
305 0
1 0
503 0
234 0
700 0
862 0
868 0
762 0
383 0
633 0
456 0
488 0
576 547 0
158 0
253 0
26 0
327 0
798 0
449 812 0
638 0
156 271 0
515 0
360 75 0
436 940 0
395 967 0
609 825 0
445 0
919 0
755 0
179 524 0
273 0
755 0
559 0
747 0
382 0
914 991 0
766 6 0
906 0
900 358 0
431 0
546 0
265 0
689 0
177 267 0
264 582 0
92 228 0
267 0
380 0
834 0
173 0
253 0
27 0
657 0
908 0
576 557 0
818 0
393 509 0
668 0
688 68 0
546 0
675 0
246 0
234 131 0
571 0
5 0
969 0
401 0
345 0
786 0
241 509 0
433 162 0
898 0
597 0
705 0
667 364 0
352 0
266 203 0
409 351 0
1 967 0
833 772 0
867 727 0
588 0
818 0
531 0
696 0
217 0
856 0
848 0
150 0
617 0
109 0
482 404 0
94 0
97 116 0
861 286 0
2 895 0
863 0
586 0
471 0
999 0
742 0
223 0
185 0
820 0
431 0
764 0
874 571 0
155 71 0
130 0
863 0
698 685 0
746 411 0
501 0
168 281 0
687 0
83 478 0
340 0
224 0
929 0
872 0
249 684 0
698 0
491 0
314 259 0
998 0
462 0
55 0
962 858 0
384 0
283 987 0
867 151 0
112 513 0
737 0
741 0
735 471 0
703 0
235 998 0
659 0
774 0
491 37 0
312 811 0
976 0
265 0
474 0
686 79 0
816 847 0
475 0
351 0
457 0
15 0
813 214 0
339 607 0
471 0
124 748 0
578 0
19 0
750 0
690 378 0
379 0
102 46 0
384 468 0
64 0
272 867 0
490 119 0
352 0
736 0
704 0
59 0
355 0
575 0
224 0
68 174 0
808 533 0
170 0
939 411 0
141 0
387 715 0
456 0
597 423 0
337 0
933 703 0
711 0
9 0
629 0
794 0
282 0
162 36 0
231 0
596 0
930 350 0
657 681 0
553 0
179 63 0
348 631 0
242 0
243 991 0
705 325 0
679 0
952 0
374 703 0
47 0
756 0
832 144 0
481 649 0
228 0
604 0
560 0
785 733 0
907 0
396 0
414 0
112 0
888 0
922 0
198 0
880 890 0
436 0
80 0
155 598 0
398 0
358 0
874 12 0
702 0
917 0
407 767 0
892 0
532 213 0
232 373 0
617 715 0
932 676 0
902 0
806 0
951 0
114 0
138 0
306 0
16 0
726 919 0
834 391 0
377 0
33 30 0
882 316 0
850 0
411 0
646 0
652 0
108 0
202 908 0
633 0
431 0
930 971 0
974 0
229 0
131 0
846 0
842 646 0
186 110 0
375 0
569 938 0
432 550 0
272 868 0
168 159 0
481 0
113 0
866 0
577 0
849 0
166 0
81 973 0
655 0
186 0
196 429 0
111 0
634 614 0
831 0
709 0
476 0
899 963 0
4 0
569 0
96 945 0
896 546 0
13 967 0
787 527 0
273 0
324 0
493 0
321 847 0
345 0
635 15 0
212 935 0
458 0
513 279 0
375 0
793 0
640 0
57 0
315 0
162 0
626 0
406 63 0
985 215 0
339 0
828 0
935 0
716 0
920 0
117 0
541 478 0
572 542 0
640 0
491 0
500 0
994 524 0
860 0
488 414 0
310 0
424 0
832 0
798 0
726 0
130 0
456 0
482 462 0
82 0
709 0
533 879 0
988 348 0
220 430 0
9 0
186 62 0
957 0
118 0
410 0
745 0
818 0
947 0
851 971 0
221 974 0
67 0
834 428 0
860 0
177 0
443 0
231 0
145 0
68 0
81 0
706 319 0
937 0
741 0
570 0
600 0
662 0
216 0
440 736 0
242 939 0
536 0
321 0
3 0
523 0
164 678 0
755 0
797 781 0
571 0
522 0
979 0
256 0
953 0
8 926 0
91 0
732 0
822 0
563 0
891 0
169 0
437 0
864 0
157 0
553 156 0
974 607 0
461 413 0
540 0
397 0
613 0
804 925 0
238 0
231 0
998 0
571 0
968 0
218 0
733 207 0
793 467 0
143 0
248 300 0
365 0
313 0
384 0
22 695 0
349 998 0
530 0
69 0
898 0
803 246 0
681 597 0
52 374 0
952 274 0
961 455 0
857 0
645 0
340 0
606 0
952 0
933 0
339 399 0
404 0
420 206 0
333 0
569 0
785 0
792 0
253 0
573 0
782 0
614 0
951 0
662 0
936 887 0
731 0
648 0
912 119 0
973 0
19 13 0
48 0
448 555 0
123 0
216 997 0
409 0
527 0
612 0
839 0
401 0
295 0
561 0
656 768 0
861 0
332 901 0
820 0
662 0
25 0
965 0
562 490 0
867 0
550 0
219 0
571 0
586 765 0
16 0
880 0
469 0
794 586 0
387 477 0
264 131 0
257 124 0
624 0
620 175 0
973 926 0
363 0
889 213 0
489 989 0
323 796 0
661 0
195 0
126 0
781 0
552 7 0
342 0
586 0
948 310 0
265 0
674 130 0
707 772 0
584 0
171 179 0
249 0
583 0
591 0
627 0
853 462 0
379 0
83 109 0
530 0
41 0
22 0
89 211 0
440 0
248 770 0
193 327 0
423 0
700 0
407 0
720 854 0
519 0
264 967 0
449 0
717 0
515 445 0
131 0
903 0
768 0
902 0
40 58 0
340 223 0
508 134 0
953 698 0
263 0
253 518 0
507 772 0
913 83 0
751 575 0
774 0
201 0
66 0
26 0
388 0
694 0
402 0
800 163 0
948 741 0
391 0
71 0
474 538 0
761 0
918 0
775 0
154 742 0
670 0
760 0
955 662 0
246 286 0
402 0
416 0
150 0
881 643 0
348 0
16 758 0
385 0
108 0
373 0
233 0
432 0
754 0
609 389 0
226 726 0
109 0
174 0
213 0
348 949 0
625 326 0
320 0
988 0
713 0
211 0
396 0
817 0
864 286 0
109 0
651 0
445 0
822 0
141 0
246 0
467 0
1000 0
914 871 0
598 199 0
626 0
947 0
552 0
395 0
609 0
77 0
243 0
85 0
430 0
63 0
785 19 0
751 0
512 0
260 374 0
934 0
536 0
256 846 0
442 0
59 839 0
37 0
131 0
252 0
37 0
244 886 0
174 0
635 0
71 0
923 364 0
731 187 0
514 0
287 0
498 588 0
507 374 0
104 724 0
489 0
891 367 0
789 0
367 0
124 0
258 140 0
902 0
723 462 0
344 0
991 0
792 0
546 324 0
654 0
708 0
415 0
488 125 0
26 198 0
323 0
632 0
134 0
967 0
188 0
117 0
83 0
477 93 0
3 389 0
502 0
817 0
540 253 0
4 325 0
668 0
19 0
46 0
43 0
616 0
994 0
924 197 0
874 765 0
477 0
134 159 0
771 831 0
833 0
199 0
129 0
988 0
385 0
311 0
990 0
379 254 0
103 0
377 702 0
915 0
100 0
620 397 0
213 0
44 0
424 0
349 0
365 0
872 756 0
669 0
334 0
648 0
684 239 0
625 0
184 0
338 132 0
860 0
179 0
174 0
262 0
267 0
755 575 0
186 0
498 0
726 0
843 0
193 0
66 363 0
184 594 0
966 0
918 0
753 845 0
151 0
636 0
218 146 0
554 846 0
236 0
945 0
604 0
378 0
402 564 0
878 0
634 0
229 78 0
174 0
132 332 0
588 0
781 327 0
989 214 0
8 0
399 0
230 0
696 0
226 0
381 0
382 0
434 0
936 285 0
513 628 0
862 0
578 0
850 0
266 0
99 838 0
752 0
576 0
325 975 0
144 0
348 21 0
325 0
993 0
862 31 0
561 0
57 690 0
964 0
958 0
202 0
457 0
506 0
880 0
401 609 0
202 0
931 0
29 0
302 0
976 0
126 0
462 0
806 0
634 0
182 238 0
288 0
243 0
184 111 0
859 0
705 123 0
290 0
944 765 0
541 0
34 0
873 0
592 318 0
476 919 0
455 0
717 326 0
501 343 0
576 0
958 0
81 0
713 809 0
325 949 0
294 111 0
135 0
496 0
480 0
92 0
252 943 0
563 383 0
177 548 0
916 431 0
984 857 0
944 0
70 0
121 0
288 0
409 0
313 0
588 309 0
393 0
454 0
384 0
116 0
716 614 0
111 0
385 0
948 588 0
674 0
3 861 0
462 0
85 0
134 0
72 0
665 58 0
87 0
218 340 0
693 0
292 238 0
548 0
683 863 0
776 294 0
154 0
336 0
377 0
15 0
99 733 0
826 0
424 0
731 0
232 0
5 0
654 0
40 0
971 0
694 0
506 141 0
636 0
741 0
577 217 0
394 0
448 0
26 18 0
876 998 0
808 520 0
614 0
399 0
614 375 0
628 0
236 903 0
299 0
601 886 0
904 607 0
22 0
868 166 0
760 685 0
431 0
121 522 0
729 148 0
46 0
22 0
577 0
657 0
337 639 0
918 0
670 0
224 0
984 527 0
775 0
549 661 0
682 0
34 0
807 0
291 0
524 0
713 356 0
769 706 0
664 0
702 0
924 0
871 0
211 0
347 943 0
977 0
316 0
561 195 0
410 0
271 663 0
619 0
885 0
653 0
448 0
689 0
696 377 0
112 721 0
774 0
233 897 0
166 0
428 844 0
514 0
323 0
796 318 0
724 0
172 549 0
548 0
691 765 0
349 0
365 0
533 0
719 0
310 990 0
961 0
88 0
284 853 0
415 0
968 112 0
773 63 0
890 0
125 838 0
159 0
247 0
511 0
800 0
139 0
954 0
165 157 0
893 286 0
249 582 0
667 0
999 0
441 0
218 0
133 0
748 0
784 0
610 69 0
773 0
78 0
347 0
465 845 0
984 0
383 0
424 157 0
962 163 0
194 0
593 0
240 0
681 698 0
702 0
866 0
653 0
498 0
730 0
849 391 0
108 332 0
111 0
814 0
201 0
591 0
112 837 0
795 0
996 0
177 0
584 622 0
180 790 0
962 0
124 0
162 0
152 242 0
722 0
723 0
625 211 0
672 0
883 0
261 102 0
218 0
88 666 0
90 59 0
711 0
416 0
692 0
629 0
633 933 0
808 0
985 173 0
475 0
487 0
440 0
920 43 0
90 886 0
756 0
715 606 0
189 0
244 0
181 974 0
253 0
284 805 0
355 204 0
688 0
632 0
671 0
353 0
528 337 0
376 635 0
809 989 0
699 0
208 33 0
33 790 0
592 552 0
488 147 0
875 459 0
604 422 0
736 0
475 0
262 695 0
530 0
809 0
206 0
48 0
918 0
791 0
45 902 0
517 0
802 0
918 0
133 295 0
328 0
281 0
606 0
628 0
717 0
214 0
178 0
800 0
420 0
905 0
369 0
785 692 0
978 0
36 0
789 0
578 455 0
538 0
932 78 0
88 0
890 0
692 380 0
184 857 0
49 612 0
526 0
499 0
136 763 0
266 924 0
249 0
440 62 0
710 679 0
251 468 0
305 326 0
385 0
825 0
556 303 0
517 0
549 0
784 912 0
866 91 0
191 0
25 0
621 0
404 820 0
448 636 0
207 0
338 773 0
74 53 0
617 0
893 0
971 0
970 0
393 54 0
770 0
418 0
3 973 0
331 365 0
741 0
277 0
298 0
234 0
219 0
304 717 0
968 0
11 0
556 0
498 671 0
465 919 0
466 0
745 0
154 0
376 0
152 0
587 0
996 0
478 0
376 449 0
518 815 0
444 815 0
275 0
293 351 0
3 103 0
340 471 0
775 0
861 0
771 0
673 827 0
82 363 0
8 181 0
732 61 0
978 379 0
760 570 0
282 0
702 0
489 114 0
52 0
388 0
716 0
172 0
250 0
26 0
504 0
865 0
118 0
948 70 0
484 0
419 0
489 0
247 0
217 66 0
545 477 0
350 0
869 0
306 731 0
374 0
116 0
77 0
438 0
393 0
529 0
651 0
472 0
539 0
384 0
785 0
770 0
669 62 0
441 0
524 13 0
522 0
300 0
976 0
269 759 0
721 946 0
351 0
174 0
811 0
112 0
268 0
97 62 0
590 0
1 0
239 0
833 0
620 0
401 0
660 0
974 0
392 0
666 0
538 0
297 53 0
760 361 0
796 0
168 0
372 429 0
124 582 0
420 0
746 797 0
35 0
432 0
244 324 0
500 0
50 0
964 0
907 0
806 159 0
996 463 0
894 0
808 0
92 766 0
814 0
512 0
425 44 0
542 0
241 326 0
267 292 0
701 175 0
932 270 0
688 54 0
649 0
952 634 0
427 133 0
10 0
69 0
639 0
276 0
388 0
218 445 0
581 0
220 0
77 0
296 182 0
280 0
999 0
402 0
133 0
274 0
483 0
408 0
44 845 0
522 309 0
760 767 0
682 0
638 0
40 0
181 175 0
977 0
974 0
269 0
698 871 0
214 0
355 958 0
702 0
354 0
255 0
843 159 0
786 150 0
412 790 0
520 228 0
597 0
952 825 0
625 0
689 0
500 61 0
16 0
112 0
169 0
689 0
822 191 0
44 151 0
941 0
396 0
501 0
250 135 0
484 0
735 0
586 0
787 0
307 245 0
793 555 0
304 0
805 79 0
178 0
440 0
532 61 0
747 0
127 0
72 633 0
379 388 0
843 0
414 0
927 0
993 0
345 0
259 51 0
57 0
650 0
477 0
666 0
525 0
276 0
599 0
784 24 0
831 0
935 0
697 508 0
197 158 0
144 0
596 165 0
538 0
469 0
830 431 0
70 0
463 0
704 381 0
691 0
682 0
897 0
876 724 0
635 155 0
286 711 0
610 599 0
283 0
690 460 0
949 0
681 0
122 0
792 0
356 0
371 284 0
590 0
827 0
636 0
447 0
81 0
626 0
651 0
337 491 0
451 213 0
217 0
386 534 0
475 0
46 0
933 550 0
470 0
568 774 0
616 902 0
140 791 0
338 0
360 0
545 429 0
331 0
155 0
452 334 0
464 0
185 310 0
874 692 0
739 0
292 0
791 0
795 0
741 0
492 0
836 0
788 0
261 0
773 173 0
179 726 0
18 0
385 255 0
664 0
225 644 0
832 75 0
312 354 0
855 0
619 0
256 228 0
995 0
540 0
489 967 0
821 0
93 0
465 0
75 0
638 0
985 260 0
70 0
879 0
641 0
261 0
674 634 0
421 919 0
949 0
113 0
759 0
735 0
652 0
695 0
95 0
493 0
508 0
200 658 0
201 26 0
193 0
190 0
621 398 0
410 275 0
18 350 0
66 0
404 0
677 0
677 0
20 0
305 925 0
101 0
192 252 0
617 399 0
337 0
715 0
364 0
429 0
987 630 0
898 0
938 0
563 813 0
312 182 0
153 0
58 0
680 0
426 0
321 0
865 548 0
893 0
808 483 0
452 0
66 300 0
564 0
342 0
862 0
204 679 0
261 0
896 0
156 246 0
307 613 0
547 197 0
834 220 0
387 0
272 0
156 0
18 204 0
832 568 0
429 0
876 0
466 0
962 797 0
658 149 0
982 0
899 0
168 0
798 0
73 0
299 0
900 0
959 0
771 212 0
432 59 0
650 652 0
198 0
29 0
310 0
90 46 0
308 0
13 0
389 0
726 0
752 0
781 0
178 783 0
796 0
927 0
266 0
242 141 0
66 0
850 886 0
417 922 0
408 494 0
966 0
685 0
867 484 0
112 0
474 0
715 119 0
434 0
345 275 0
182 0
162 0
650 0
749 0
672 731 0
306 854 0
425 155 0
887 0
513 122 0
968 0
907 524 0
825 0
363 179 0
552 0
895 0
840 687 0
676 799 0
341 375 0
404 0
169 0
172 574 0
304 595 0
158 166 0
878 0
924 0
98 0
296 0
177 0
500 509 0
172 0
84 0
922 708 0
480 0
368 595 0
195 0
445 374 0
944 663 0
297 0
75 0
55 0
485 0
280 849 0
323 702 0
721 282 0
576 0
338 0
727 0
247 991 0
404 543 0
736 820 0
320 416 0
724 0
746 311 0
816 336 0
990 0
962 546 0
678 359 0
371 0
148 564 0
506 956 0
280 697 0
777 0
726 0
948 0
53 0
884 0
995 0
877 493 0
870 0
211 0
168 0
819 0
887 0
494 0
985 695 0
650 853 0
249 53 0
392 0
547 0
488 105 0
776 115 0
436 630 0
41 0
790 0
333 71 0
638 0
158 0
940 445 0
264 0
189 71 0
960 0
196 0
91 0
2 238 0
685 0
549 0
858 727 0
704 18 0
763 821 0
316 711 0
43 0
435 765 0
665 516 0
377 0
250 0
519 423 0
266 0
791 0
381 0
963 239 0
176 0
169 395 0
269 0
555 0
29 454 0
84 0
644 431 0
803 0
711 0
349 0
91 0
18 0
9 0
403 964 0
642 0
245 717 0
873 516 0
256 262 0
573 0
497 639 0
126 687 0
745 932 0
136 76 0
183 0
75 0
669 247 0
547 0
411 0
624 134 0
740 0
754 146 0
405 0
566 0
234 0
554 0
638 0
526 0
977 996 0
760 0
630 23 0
126 966 0
941 0
739 0
970 402 0
530 0
289 0
145 811 0
739 118 0
703 0
222 0
874 254 0
657 669 0
418 726 0
610 0
725 0
356 806 0
589 0
447 0
950 0
392 283 0
358 0
7 103 0
74 0
507 245 0
921 317 0
42 0
258 0
393 910 0
678 0
391 0
377 146 0
466 0
688 0
632 193 0
539 796 0
980 791 0
414 0
583 0
20 959 0
66 502 0
630 0
453 0
40 706 0
963 0
160 0
940 0
859 0
106 0
442 0
741 0
329 276 0
215 0
449 0
362 0
418 0
848 0
810 0
118 0
506 0
160 619 0
659 901 0
196 279 0
95 0
904 964 0
380 799 0
817 0
8 885 0
602 0
57 0
587 0
217 0
356 0
198 0
237 0
946 0
349 0
929 0
700 463 0
319 0
109 0
842 0
832 0
23 0
485 230 0
225 389 0
874 995 0
415 0
234 789 0
38 0
507 285 0
299 446 0
190 0
335 0
752 0
937 667 0
629 0
255 111 0
34 0
624 0
243 715 0
872 0
816 0
326 0
456 67 0
2 195 0
239 0
218 0
585 641 0
977 0
645 390 0
557 0
279 0
449 0
478 807 0
950 0
568 633 0
710 0
640 472 0
981 0
806 0
457 266 0
224 0
985 0
424 0
97 0
272 692 0
163 0
824 143 0
798 0
992 0
657 0
240 411 0
443 0
399 0
999 0
572 0
428 0
580 479 0
713 0
324 0
815 0
553 911 0
948 0
718 0
757 0
1000 0
449 579 0
564 0
706 0
227 0
652 695 0
137 803 0
71 0
331 0
980 0
32 0
333 791 0
539 0
127 0
869 0
103 0
591 0
586 742 0
875 0
170 0
630 638 0
912 445 0
783 0
800 0
478 0
568 441 0
641 0
922 271 0
836 295 0
859 980 0
5 0
337 52 0
468 0
332 430 0
624 0
559 0
518 799 0
439 0
460 991 0
406 0
888 266 0
581 0
485 391 0
289 0
701 0
354 0
80 0
617 0
405 0
504 0
819 0
853 903 0
586 862 0
214 0
658 958 0
947 0
349 0
83 0
11 989 0
305 0
898 0
582 0
613 70 0
178 0
109 0
566 295 0
574 0
843 263 0
163 0
501 862 0
215 0
915 957 0
965 622 0
856 0
678 0
999 0
891 974 0
579 0
743 0
533 397 0
31 0
104 143 0
468 814 0
642 0
939 0
376 503 0
90 0
930 574 0
897 0
608 5 0
450 0
291 0
348 0
340 0
308 0
618 0
603 343 0
124 0
568 0
15 0
681 482 0
716 151 0
607 0
205 0
572 501 0
419 820 0
967 0
694 0
299 0
672 305 0
649 270 0
10 131 0
150 0
33 0
405 887 0
348 0
147 731 0
89 0
522 0
434 765 0
750 0
40 0
239 0
911 0
297 0
978 0
145 978 0
881 0
345 645 0
151 0
643 388 0
547 0
444 0
256 0
593 0
56 881 0
954 0
10 387 0
933 0
300 437 0
654 0
66 765 0
149 0
876 0
896 0
922 87 0
640 910 0
153 882 0
972 469 0
956 0
944 0
525 0
736 0
73 0
915 622 0
366 0
223 0
615 0
110 0
333 0
211 381 0
187 612 0
264 0
176 0
112 0
300 0
585 0
205 0
58 827 0
883 139 0
951 0
344 0
519 0
221 0
672 0
813 0
852 0
746 693 0
499 0
768 680 0
544 0
572 679 0
549 0
947 797 0
303 0
840 0
818 0
923 740 0
345 605 0
657 0
401 46 0
496 0
760 0
443 0
150 0
517 0
876 0
872 746 0
856 961 0
968 812 0
508 765 0
815 0
954 0
466 0
103 0
916 198 0
709 0
356 0
945 0
240 384 0
669 0
19 972 0
219 188 0
415 0
469 151 0
601 604 0
106 0
528 878 0
904 140 0
387 0
454 0
269 374 0
534 0
273 0
523 734 0
948 836 0
57 0
568 591 0
715 0
518 238 0
884 0
64 0
229 0
54 222 0
210 0
225 955 0
837 0
466 0
189 0
636 0
433 247 0
789 798 0
96 0
806 0
989 0
726 0
878 0
1000 607 0
806 0
678 191 0
276 0
739 0
162 0
780 0
735 0
838 0
727 0
21 0
913 3 0
703 0
297 485 0
113 0
561 652 0
787 747 0
110 0
51 308 0
169 647 0
921 0
81 791 0
680 364 0
144 274 0
570 0
890 0
631 0
90 0
667 126 0
220 255 0
607 0
168 151 0
651 0
209 0
775 0
848 416 0
874 323 0
506 0
812 0
755 7 0
691 0
609 0
176 619 0
106 533 0
348 0
13 0
496 0
875 999 0
217 557 0
236 407 0
124 0
615 0
440 0
672 0
87 0
776 0
24 0
578 687 0
926 0
88 898 0
588 31 0
307 0
961 0
813 0
70 0
886 0
476 0
75 699 0
457 61 0
339 0
522 685 0
773 0
849 430 0
769 0
688 0
106 0
859 0
830 0
685 0
492 629 0
908 535 0
109 0
387 0
602 0
165 0
925 590 0
692 103 0
852 0
264 923 0
276 0
444 566 0
69 94 0
24 0
453 0
380 358 0
765 0
862 0
261 0
765 782 0
946 0
660 189 0
145 0
721 422 0
664 0
369 0
48 0
430 0
647 0
798 774 0
767 0
889 295 0
221 0
677 0
964 0
931 596 0
251 613 0
193 119 0
986 0
586 13 0
800 846 0
883 0
700 0
146 0
324 0
776 357 0
644 0
554 0
490 0
36 687 0
318 583 0
527 0
503 0
161 317 0
356 61 0
980 0
761 0
693 0
58 0
18 0
475 0
304 0
303 0
859 53 0
342 0
387 0
172 782 0
943 0
981 0
489 90 0
878 0
704 0
833 0
306 0
756 0
375 0
37 0
78 0
818 0
728 0
130 0
954 932 0
743 0
728 0
301 0
932 828 0
480 0
797 0
177 414 0
72 166 0
181 926 0
772 583 0
933 0
645 407 0
784 0
938 0
674 0
999 0
814 0
685 0
609 0
455 191 0
19 0
79 0
605 0
333 0
541 0
8 0
898 0
105 797 0
180 0
929 327 0
715 0
955 477 0
742 0
185 0
35 447 0
732 735 0
554 0
552 0
849 225 0
382 0
440 357 0
924 0
903 55 0
966 0
984 180 0
17 340 0
459 0
999 0
661 535 0
488 0
772 0
75 892 0
816 0
521 0
269 0
84 0
498 0
966 0
331 0
145 0
34 588 0
463 0
90 0
620 0
276 0
690 0
992 0
664 97 0
823 0
371 0
560 771 0
499 391 0
893 0
908 0
946 26 0
320 687 0
993 542 0
836 0
187 0
335 0
62 0
705 758 0
335 0
971 492 0
750 0
432 773 0
28 0
314 363 0
1000 0
350 0
166 0
382 0
928 0
624 0
139 631 0
840 334 0
374 718 0
100 0
481 627 0
590 0
569 0
243 0
495 0
896 0
668 0
555 0
591 0
561 0
712 466 0
712 107 0
305 54 0
478 0
103 0
122 0
768 25 0
880 222 0
273 646 0
849 0
631 0
808 994 0
329 0
560 0
809 692 0
419 0
417 13 0
176 289 0
624 0
509 901 0
203 0
854 0
68 0
604 654 0
699 0
221 0
27 0
362 0
480 224 0
553 772 0
793 563 0
174 846 0
257 793 0
999 0
769 0
477 0
40 0
40 609 0
553 514 0
35 0
865 591 0
917 302 0
122 551 0
622 646 0
468 0
786 0
384 0
580 0
974 0
525 831 0
10 0
910 606 0
557 445 0
913 0
66 284 0
708 0
486 895 0
902 0
261 0
610 0
144 546 0
650 0
980 0
624 0
733 0
827 0
51 0
916 0
200 0
280 0
117 0
246 0
916 0
958 0
535 751 0
202 0
103 0
402 0
610 0
636 901 0
969 0
672 466 0
983 0
59 278 0
58 0
146 0
249 0
459 0
700 0
898 119 0
914 0
609 284 0
522 0
704 0
850 0
951 0
691 612 0
85 0
507 941 0
629 0
467 0
504 722 0
234 379 0
28 999 0
51 0
738 0
849 63 0
48 0
185 0
76 0
655 0
475 0
817 0
883 0
996 0
529 263 0
127 0
370 0
624 0
978 0
27 0
995 0
593 0
218 0
662 0
133 0
222 0
761 683 0
536 0
701 0
372 0
528 0
965 263 0
49 438 0
664 0
233 0
539 0
591 0
207 0
891 0
241 0
891 0
11 0
11 0
284 0
311 0
996 0
198 0
663 0
275 821 0
253 0
755 0
278 0
165 335 0
364 0
145 902 0
611 0
64 718 0
134 0
291 262 0
456 0
294 0
246 0
674 0
427 0
817 221 0
813 0
981 0
264 0
559 0
101 0
947 0
583 0
369 0
676 0
401 0
56 908 0
7 0
744 0
628 230 0
390 926 0
644 0
512 969 0
399 0
975 0
688 690 0
881 196 0
245 0
304 0
208 0
578 0
271 0
218 0
210 0
224 0
146 0
633 0
134 0
1000 372 0
220 207 0
312 0
848 143 0
850 565 0
880 148 0
24 0
517 0
949 0
936 735 0
794 0
402 835 0
415 0
40 0
402 0
231 0
155 485 0
986 692 0
589 0
480 49 0
364 188 0
910 0
985 0
864 0
99 0
658 0
582 0
314 0
407 0
73 0
109 0
623 0
40 0
937 999 0
902 0
854 0
297 437 0
258 0
990 0
12 0
467 0
457 28 0
494 0
177 274 0
597 0
125 0
718 94 0
636 374 0
101 0
433 108 0
102 0
837 0
111 0
898 0
897 519 0
245 303 0
955 0
72 870 0
408 134 0
191 0
594 876 0
847 0
341 158 0
224 963 0
734 0
993 325 0
346 236 0
429 0
321 691 0
357 0
1 0
771 870 0
196 0
664 396 0
440 0
29 534 0
409 0
843 0
968 0
757 0
872 0
265 0
424 566 0
520 0
52 0
72 0
237 0
465 436 0
978 0
987 0
640 0
626 0
154 642 0
792 854 0
536 0
544 635 0
770 583 0
932 916 0
3 0
212 0
269 0
630 0
562 685 0
360 0
72 0
98 0
300 0
831 0
558 0
245 0
859 63 0
205 559 0
377 0
592 0
88 0
739 0
424 0
758 0
613 0
767 0
620 479 0
187 0
208 0
185 295 0
228 445 0
805 0
836 29 0
756 0
280 631 0
31 0
305 885 0
12 0
675 691 0
827 0
977 0
844 0
362 0
881 0
593 373 0
452 0
722 0
699 431 0
408 0
426 0
716 39 0
171 325 0
228 327 0
623 0
569 0
572 0
816 163 0
831 0
732 0
410 0
284 463 0
43 0
868 0
255 0
254 0
22 0
449 469 0
67 870 0
69 0
605 623 0
708 0
233 0
857 0
267 750 0
243 0
680 0
676 70 0
386 43 0
231 0
602 0
785 180 0
474 0
941 102 0
722 637 0
104 220 0
228 0
606 0
8 781 0
392 0
959 0
313 0
969 789 0
416 0
450 845 0
698 149 0
227 139 0
675 0
194 0
713 0
93 151 0
642 988 0
304 510 0
495 0
642 0
813 957 0
732 0
896 0
71 0
71 0
632 564 0
44 183 0
411 0
354 0
503 0
901 0
811 588 0
164 0
241 0
660 0
1000 0
643 0
556 0
573 447 0
240 667 0
426 0
834 0
751 0
43 567 0
378 0
73 319 0
773 0
275 653 0
361 0
347 0
855 0
339 324 0
160 147 0
731 0
277 0
590 0
757 159 0
765 0
235 940 0
704 916 0
489 0
960 572 0
248 580 0
814 0
261 0
226 260 0
670 758 0
247 0
160 439 0
193 485 0
911 655 0
812 511 0
785 377 0
256 0
737 0
675 0
428 0
856 0
89 0
986 0
48 0
902 0
138 739 0
823 0
463 0
596 0
960 283 0
1 826 0
677 0
1000 0
251 0
914 0
833 0
228 0
244 0
48 0
316 0
536 745 0
18 0
1 766 0
165 0
118 0
306 342 0
899 0
619 0
738 238 0
727 0
193 0
458 0
56 0
113 574 0
976 253 0
141 0
476 0
194 0
388 317 0
442 0
266 0
112 398 0
203 0
483 782 0
651 390 0
440 0
715 0
38 0
682 0
117 0
373 837 0
997 0
888 42 0
427 791 0
360 225 0
704 390 0
323 333 0
656 0
232 962 0
190 0
186 538 0
416 0
856 0
203 0
205 0
214 0
112 0
145 823 0
329 791 0
650 549 0
984 0
553 908 0
338 117 0
399 0
321 677 0
35 956 0
344 473 0
347 541 0
741 0
814 0
419 471 0
7 0
713 0
720 0
384 0
276 0
3 0
169 0
156 372 0
99 0
321 0
295 0
449 0
240 846 0
865 50 0
794 614 0
648 718 0
485 0
400 0
609 0
995 239 0
739 0
204 0
43 588 0
266 941 0
563 110 0
530 0
360 0
582 0
243 0
660 5 0
463 0
234 740 0
337 0
195 398 0
608 0
992 0
925 719 0
331 820 0
818 0
237 0
458 324 0
677 0
583 0
603 0
538 85 0
667 219 0
11 0
631 0
825 0
101 0
720 38 0
122 0
967 0
636 0
329 0
576 4 0
798 0
673 787 0
507 0
385 0
209 0
666 0
539 0
373 695 0
793 187 0
292 0
262 0
334 727 0
591 0
750 895 0
922 0
192 0
601 0
998 0
523 175 0
630 0
436 0
959 0
38 0
889 0
744 0
404 0
24 0
747 157 0
408 0
697 0
497 0
269 542 0
255 0
622 0
401 483 0
537 0
273 0
420 0
474 0
853 238 0
72 0
256 0
168 0
732 0
980 0
876 0
240 0
956 0
224 449 0
715 0
755 670 0
521 0
164 495 0
820 423 0
618 261 0
234 139 0
352 962 0
351 919 0
323 0
267 6 0
655 0
646 111 0
549 0
358 0
158 503 0
529 863 0
984 0
165 0
538 191 0
175 0
223 0
487 0
110 0
663 0
320 0
219 0
458 966 0
263 0
517 0
729 695 0
401 0
395 63 0
164 0
135 0
903 0
464 0
192 0
601 439 0
658 0
125 0
889 124 0
872 976 0
537 715 0
868 567 0
138 0
819 0
179 980 0
274 0
656 0
294 0
168 0
796 0
305 0
12 0
284 0
424 114 0
141 0
378 0
62 0
68 0
775 0
556 0
181 0
452 0
720 267 0
317 0
467 900 0
286 0
373 0
921 654 0
728 30 0
800 634 0
880 0
273 785 0
844 894 0
876 0
305 950 0
616 313 0
191 0
848 0
559 0
613 0
223 0
224 0
46 0
521 0
568 5 0
846 695 0
10 0
766 0
87 0
815 0
708 0
851 734 0
377 508 0
480 0
127 0
488 199 0
728 231 0
253 0
564 0
3 380 0
712 439 0
300 0
180 463 0
623 0
697 0
912 0
188 0
399 0
526 0
255 0
805 774 0
400 0
3 283 0
130 0
257 0
337 0
794 381 0
856 0
56 0
624 78 0
826 47 0
751 0
670 0
895 0
327 0
265 0
364 0
269 319 0
819 94 0
872 0
342 0
520 0
393 205 0
790 0
415 0
346 0
145 259 0
179 590 0
77 0
862 0
826 0
904 0
420 0
816 0
748 230 0
796 0
466 0
280 0
836 0
297 0
432 0
194 365 0
874 0
930 0
111 0
109 0
9 0
43 844 0
813 0
970 0
31 0
945 0
128 0
336 313 0
98 650 0
458 869 0
493 0
761 675 0
559 0
761 0
545 0
247 0
793 26 0
245 0
922 0
754 828 0
316 326 0
357 0
641 0
56 0
353 0
398 182 0
572 0
53 982 0
987 445 0
624 0
344 0
985 0
877 0
408 23 0
73 603 0
320 642 0
401 0
238 0
832 0
312 783 0
213 0
590 0
66 891 0
169 170 0
504 127 0
860 0
602 0
215 0
663 0
357 0
523 79 0
773 0
298 0
134 0
738 0
977 215 0
117 0
33 0
331 0
749 0
471 0
556 0
831 0
215 0
706 716 0
445 206 0
185 0
477 663 0
970 459 0
453 0
19 0
957 0
156 598 0
306 0
381 0
96 857 0
428 684 0
762 244 0
708 36 0
67 533 0
2 133 0
860 0
722 514 0
996 0
90 678 0
405 0
69 0
850 989 0
857 999 0
796 0
947 0
31 0
747 900 0
567 0
807 0
624 0
869 0
330 422 0
609 0
361 233 0
185 0
411 148 0
211 0
318 0
291 0
427 0
876 0
852 0
687 0
633 118 0
18 575 0
760 0
815 0
121 263 0
603 0
319 0
653 0
42 605 0
182 0
354 0
969 0
128 533 0
72 0
435 44 0
789 0
297 227 0
426 0
950 406 0
276 516 0
839 0
493 247 0
930 0
584 0
787 87 0
770 0
420 0
61 805 0
903 0
146 0
386 0
435 0
823 0
839 0
179 0
963 735 0
716 0
77 189 0
783 0
394 916 0
490 501 0
729 767 0
1000 0
531 117 0
355 0
598 0
530 38 0
747 0
930 883 0
114 0
755 309 0
560 107 0
542 0
120 0
980 415 0
245 0
447 0
281 692 0
440 0
85 0
36 423 0
414 0
962 0
933 0
257 370 0
818 0
999 0
489 710 0
525 0
80 758 0
675 0
748 0
144 493 0
88 911 0
472 430 0
80 0
489 427 0
689 0
411 0
533 0
832 0
42 0
871 0
644 0
514 0
720 0
78 0
163 79 0
160 979 0
910 0
36 0
137 775 0
291 598 0
942 0
156 0
178 0
673 676 0
458 0
286 0
890 0
565 0
510 0
89 551 0
298 77 0
294 0
974 0
348 0
183 0
353 0
4 695 0
850 534 0
641 0
300 0
532 0
646 0
706 148 0
813 959 0
382 0
420 0
408 0
968 0
326 0
703 0
786 0
986 140 0
832 0
187 286 0
712 479 0
884 0
624 0
433 0
385 868 0
478 0
86 0
323 493 0
115 0
465 898 0
939 0
499 892 0
20 0
525 0
163 0
698 879 0
913 171 0
502 0
300 0
360 608 0
379 0
549 0
401 765 0
583 0
612 895 0
808 0
265 610 0
181 0
191 0
83 0
330 0
646 0
331 853 0
554 0
356 884 0
242 0
88 509 0
923 0
373 0
444 0
776 0
975 0
82 0
710 0
280 0
172 0
262 0
367 0
448 389 0
154 0
595 0
685 0
297 723 0
869 0
277 0
152 138 0
604 0
107 0
946 0
829 255 0
73 313 0
497 0
368 31 0
650 735 0
814 0
440 500 0
231 0
186 0
677 0
304 291 0
258 903 0
881 0
562 0
450 0
228 0
559 0
296 0
446 0
235 0
573 0
662 0
4 0
937 0
714 110 0
849 289 0
712 0
531 0
670 0
961 686 0
158 0
176 545 0
919 0
742 0
761 0
889 305 0
403 0
655 0
506 351 0
89 396 0
253 230 0
706 604 0
938 0
989 0
407 0
136 741 0
199 0
210 781 0
709 151 0
403 0
565 0
857 953 0
131 0
237 671 0
468 671 0
565 0
831 0
326 0
55 0
198 0
162 0
379 0
742 0
920 0
821 0
597 0
228 301 0
166 0
907 643 0
876 303 0
414 0
324 0
234 335 0
68 597 0
211 0
864 0
583 0
891 0
980 0
885 0
137 0
234 63 0
715 0
506 556 0
628 0
458 0
572 0
585 727 0
772 0
264 289 0
700 725 0
916 0
252 757 0
223 0
674 309 0
376 34 0
573 0
813 0
560 0
609 0
158 0
440 0
884 0
378 0
310 590 0
176 0
645 366 0
788 0
601 0
217 0
845 0
484 0
977 634 0
633 871 0
904 0
860 0
387 0
560 950 0
458 0
547 0
360 11 0
739 590 0
421 918 0
776 293 0
38 0
712 682 0
102 -1001 0
923 -1001 0
-102 -923 1001 0
-264 -1002 0
705 -1002 0
264 -705 1002 0
388 -1003 0
-709 -1003 0
-388 709 1003 0
-48 -1004 0
85 -1004 0
48 -85 1004 0
-170 -1005 0
473 -1005 0
170 -473 1005 0
598 -1006 0
-4 -1006 0
-598 4 1006 0
-349 -1007 0
993 -1007 0
349 -993 1007 0
612 -1008 0
114 -1008 0
-612 -114 1008 0
274 -1009 0
-159 -1009 0
-274 159 1009 0
-66 -1010 0
605 -1010 0
66 -605 1010 0
929 -1011 0
529 -1011 0
-929 -529 1011 0
927 -1012 0
-370 -1012 0
-927 370 1012 0
-18 -1013 0
273 -1013 0
18 -273 1013 0
952 -1014 0
980 -1014 0
-952 -980 1014 0
328 -1015 0
170 -1015 0
-328 -170 1015 0
-244 -1016 0
747 -1016 0
244 -747 1016 0
644 -1017 0
-663 -1017 0
-644 663 1017 0
738 -1018 0
697 -1018 0
-738 -697 1018 0
991 -1019 0
-695 -1019 0
-991 695 1019 0
93 -1020 0
211 -1020 0
-93 -211 1020 0
-25 -1021 0
494 -1021 0
25 -494 1021 0
710 -1022 0
61 -1022 0
-710 -61 1022 0
156 -1023 0
-966 -1023 0
-156 966 1023 0
-10 -1024 0
149 -1024 0
10 -149 1024 0
-699 -1025 0
179 -1025 0
699 -179 1025 0
87 -1026 0
-820 -1026 0
-87 820 1026 0
760 -1027 0
772 -1027 0
-760 -772 1027 0
344 -1028 0
913 -1028 0
-344 -913 1028 0
369 -1029 0
481 -1029 0
-369 -481 1029 0
-938 -1030 0
885 -1030 0
938 -885 1030 0
-761 -1031 0
131 -1031 0
761 -131 1031 0
-613 -1032 0
897 -1032 0
613 -897 1032 0
384 -1033 0
731 -1033 0
-384 -731 1033 0
47 -1034 0
-274 -1034 0
-47 274 1034 0
703 -1035 0
655 -1035 0
-703 -655 1035 0
627 -1036 0
-822 -1036 0
-627 822 1036 0
-860 -1037 0
90 -1037 0
860 -90 1037 0
960 -1038 0
818 -1038 0
-960 -818 1038 0
629 -1039 0
684 -1039 0
-629 -684 1039 0
999 -1040 0
-705 -1040 0
-999 705 1040 0
435 -1041 0
75 -1041 0
-435 -75 1041 0
175 -1042 0
295 -1042 0
-175 -295 1042 0
-824 -1043 0
413 -1043 0
824 -413 1043 0
-11 -1044 0
100 -1044 0
11 -100 1044 0
242 -1045 0
-983 -1045 0
-242 983 1045 0
908 -1046 0
-351 -1046 0
-908 351 1046 0
198 -1047 0
36 -1047 0
-198 -36 1047 0
599 -1048 0
869 -1048 0
-599 -869 1048 0
-440 -1049 0
297 -1049 0
440 -297 1049 0
-819 -1050 0
370 -1050 0
819 -370 1050 0
800 -1051 0
658 -1051 0
-800 -658 1051 0
15 -1052 0
978 -1052 0
-15 -978 1052 0
606 -1053 0
-548 -1053 0
-606 548 1053 0
-736 -1054 0
586 -1054 0
736 -586 1054 0
359 -1055 0
-599 -1055 0
-359 599 1055 0
695 -1056 0
-170 -1056 0
-695 170 1056 0
680 -1057 0
618 -1057 0
-680 -618 1057 0
-33 -1058 0
644 -1058 0
33 -644 1058 0
951 -1059 0
-634 -1059 0
-951 634 1059 0
126 -1060 0
587 -1060 0
-126 -587 1060 0
308 -1061 0
307 -1061 0
-308 -307 1061 0
830 -1062 0
-405 -1062 0
-830 405 1062 0
336 -1063 0
62 -1063 0
-336 -62 1063 0
-186 -1064 0
5 -1064 0
186 -5 1064 0
11 -1065 0
-647 -1065 0
-11 647 1065 0
-552 -1066 0
964 -1066 0
552 -964 1066 0
439 -1067 0
638 -1067 0
-439 -638 1067 0
381 -1068 0
-862 -1068 0
-381 862 1068 0
366 -1069 0
-191 -1069 0
-366 191 1069 0
-485 -1070 0
2 -1070 0
485 -2 1070 0
900 -1071 0
-79 -1071 0
-900 79 1071 0
156 -1072 0
-356 -1072 0
-156 356 1072 0
-752 -1073 0
468 -1073 0
752 -468 1073 0
194 -1074 0
-750 -1074 0
-194 750 1074 0
-97 -1075 0
450 -1075 0
97 -450 1075 0
558 -1076 0
-948 -1076 0
-558 948 1076 0
-459 -1077 0
692 -1077 0
459 -692 1077 0
-386 -1078 0
845 -1078 0
386 -845 1078 0
311 -1079 0
-349 -1079 0
-311 349 1079 0
272 -1080 0
-247 -1080 0
-272 247 1080 0
-128 -1081 0
549 -1081 0
128 -549 1081 0
224 -1082 0
-380 -1082 0
-224 380 1082 0
-561 -1083 0
313 -1083 0
561 -313 1083 0
883 -1084 0
290 -1084 0
-883 -290 1084 0
698 -1085 0
-687 -1085 0
-698 687 1085 0
324 -1086 0
-383 -1086 0
-324 383 1086 0
19 -1087 0
514 -1087 0
-19 -514 1087 0
-601 -1088 0
124 -1088 0
601 -124 1088 0
-674 -1089 0
673 -1089 0
674 -673 1089 0
927 -1090 0
100 -1090 0
-927 -100 1090 0
320 -1091 0
-660 -1091 0
-320 660 1091 0
80 -1092 0
683 -1092 0
-80 -683 1092 0
-427 -1093 0
652 -1093 0
427 -652 1093 0
-13 -1094 0
257 -1094 0
13 -257 1094 0
622 -1095 0
474 -1095 0
-622 -474 1095 0
662 -1096 0
-900 -1096 0
-662 900 1096 0
834 -1097 0
514 -1097 0
-834 -514 1097 0
224 -1098 0
-316 -1098 0
-224 316 1098 0
965 -1099 0
-549 -1099 0
-965 549 1099 0
-56 -1100 0
470 -1100 0
56 -470 1100 0
-828 -1101 0
858 -1101 0
828 -858 1101 0
-604 -1102 0
491 -1102 0
604 -491 1102 0
504 -1103 0
-328 -1103 0
-504 328 1103 0
32 -1104 0
-905 -1104 0
-32 905 1104 0
86 -1105 0
554 -1105 0
-86 -554 1105 0
230 -1106 0
145 -1106 0
-230 -145 1106 0
394 -1107 0
-151 -1107 0
-394 151 1107 0
189 -1108 0
-646 -1108 0
-189 646 1108 0
40 -1109 0
456 -1109 0
-40 -456 1109 0
768 -1110 0
62 -1110 0
-768 -62 1110 0
840 -1111 0
70 -1111 0
-840 -70 1111 0
742 -1112 0
-260 -1112 0
-742 260 1112 0
-889 -1113 0
60 -1113 0
889 -60 1113 0
38 -1114 0
93 -1114 0
-38 -93 1114 0
436 -1115 0
707 -1115 0
-436 -707 1115 0
-682 -1116 0
389 -1116 0
682 -389 1116 0
432 -1117 0
407 -1117 0
-432 -407 1117 0
446 -1118 0
-54 -1118 0
-446 54 1118 0
19 -1119 0
49 -1119 0
-19 -49 1119 0
823 -1120 0
934 -1120 0
-823 -934 1120 0
-496 -1121 0
800 -1121 0
496 -800 1121 0
488 -1122 0
-369 -1122 0
-488 369 1122 0
636 -1123 0
458 -1123 0
-636 -458 1123 0
765 -1124 0
-557 -1124 0
-765 557 1124 0
677 -1125 0
683 -1125 0
-677 -683 1125 0
-965 -1126 0
611 -1126 0
965 -611 1126 0
1000 -1127 0
-550 -1127 0
-1000 550 1127 0
958 -1128 0
177 -1128 0
-958 -177 1128 0
-608 -1129 0
671 -1129 0
608 -671 1129 0
-425 -1130 0
281 -1130 0
425 -281 1130 0
576 -1131 0
183 -1131 0
-576 -183 1131 0
152 -1132 0
198 -1132 0
-152 -198 1132 0
813 -1133 0
-300 -1133 0
-813 300 1133 0
460 -1134 0
-23 -1134 0
-460 23 1134 0
295 -1135 0
670 -1135 0
-295 -670 1135 0
16 -1136 0
526 -1136 0
-16 -526 1136 0
-235 -1137 0
715 -1137 0
235 -715 1137 0
254 -1138 0
-622 -1138 0
-254 622 1138 0
749 -1139 0
-453 -1139 0
-749 453 1139 0
740 -1140 0
-126 -1140 0
-740 126 1140 0
630 -1141 0
-950 -1141 0
-630 950 1141 0
-1 -1142 0
197 -1142 0
1 -197 1142 0
840 -1143 0
79 -1143 0
-840 -79 1143 0
504 -1144 0
194 -1144 0
-504 -194 1144 0
824 -1145 0
-954 -1145 0
-824 954 1145 0
-581 -1146 0
131 -1146 0
581 -131 1146 0
91 -1147 0
-999 -1147 0
-91 999 1147 0
679 -1148 0
-210 -1148 0
-679 210 1148 0
-26 -1149 0
749 -1149 0
26 -749 1149 0
762 -1150 0
-791 -1150 0
-762 791 1150 0
542 -1151 0
-319 -1151 0
-542 319 1151 0
502 -1152 0
-348 -1152 0
-502 348 1152 0
910 -1153 0
-378 -1153 0
-910 378 1153 0
190 -1154 0
-213 -1154 0
-190 213 1154 0
836 -1155 0
306 -1155 0
-836 -306 1155 0
856 -1156 0
86 -1156 0
-856 -86 1156 0
845 -1157 0
249 -1157 0
-845 -249 1157 0
262 -1158 0
-869 -1158 0
-262 869 1158 0
910 -1159 0
-964 -1159 0
-910 964 1159 0
47 -1160 0
-82 -1160 0
-47 82 1160 0
-68 -1161 0
330 -1161 0
68 -330 1161 0
133 -1162 0
627 -1162 0
-133 -627 1162 0
-20 -1163 0
746 -1163 0
20 -746 1163 0
472 -1164 0
587 -1164 0
-472 -587 1164 0
-965 -1165 0
81 -1165 0
965 -81 1165 0
341 -1166 0
323 -1166 0
-341 -323 1166 0
-747 -1167 0
697 -1167 0
747 -697 1167 0
752 -1168 0
759 -1168 0
-752 -759 1168 0
758 -1169 0
706 -1169 0
-758 -706 1169 0
773 -1170 0
610 -1170 0
-773 -610 1170 0
-586 -1171 0
957 -1171 0
586 -957 1171 0
834 -1172 0
-870 -1172 0
-834 870 1172 0
-203 -1173 0
652 -1173 0
203 -652 1173 0
908 -1174 0
-253 -1174 0
-908 253 1174 0
-316 -1175 0
187 -1175 0
316 -187 1175 0
366 -1176 0
-788 -1176 0
-366 788 1176 0
406 -1177 0
466 -1177 0
-406 -466 1177 0
512 -1178 0
-187 -1178 0
-512 187 1178 0
-204 -1179 0
652 -1179 0
204 -652 1179 0
192 -1180 0
-665 -1180 0
-192 665 1180 0
848 -1181 0
-232 -1181 0
-848 232 1181 0
124 -1182 0
801 -1182 0
-124 -801 1182 0
-557 -1183 0
202 -1183 0
557 -202 1183 0
671 -1184 0
23 -1184 0
-671 -23 1184 0
-681 -1185 0
955 -1185 0
681 -955 1185 0
-560 -1186 0
458 -1186 0
560 -458 1186 0
912 -1187 0
731 -1187 0
-912 -731 1187 0
960 -1188 0
-834 -1188 0
-960 834 1188 0
229 -1189 0
373 -1189 0
-229 -373 1189 0
-789 -1190 0
305 -1190 0
789 -305 1190 0
792 -1191 0
-25 -1191 0
-792 25 1191 0
935 -1192 0
14 -1192 0
-935 -14 1192 0
811 -1193 0
-207 -1193 0
-811 207 1193 0
115 -1194 0
-55 -1194 0
-115 55 1194 0
533 -1195 0
747 -1196 0
57 -1196 0
-747 -57 1196 0
-417 -1197 0
814 -1197 0
417 -814 1197 0
535 -1198 0
-595 -1198 0
-535 595 1198 0
744 -1199 0
257 -1199 0
-744 -257 1199 0
687 -1200 0
549 -1200 0
-687 -549 1200 0
560 -1201 0
-335 -1201 0
-560 335 1201 0
-672 -1202 0
580 -1202 0
672 -580 1202 0
142 -1203 0
644 -1203 0
-142 -644 1203 0
388 -1204 0
865 -1204 0
-388 -865 1204 0
-672 -1205 0
731 -1205 0
672 -731 1205 0
558 -1206 0
-788 -1206 0
-558 788 1206 0
390 -1207 0
699 -1207 0
-390 -699 1207 0
-921 -1208 0
454 -1208 0
921 -454 1208 0
95 -1209 0
532 -1209 0
-95 -532 1209 0
-416 -1210 0
741 -1210 0
416 -741 1210 0
566 -1211 0
894 -1211 0
-566 -894 1211 0
749 -1212 0
43 -1212 0
-749 -43 1212 0
239 -1213 0
-967 -1213 0
-239 967 1213 0
648 -1214 0
-227 -1214 0
-648 227 1214 0
863 -1215 0
-681 -1215 0
-863 681 1215 0
303 -1216 0
298 -1216 0
-303 -298 1216 0
-48 -1217 0
880 -1217 0
48 -880 1217 0
101 -1218 0
427 -1218 0
-101 -427 1218 0
-97 -1219 0
316 -1219 0
97 -316 1219 0
580 -1220 0
260 -1220 0
-580 -260 1220 0
888 -1221 0
369 -1221 0
-888 -369 1221 0
899 -1222 0
-543 -1222 0
-899 543 1222 0
576 -1223 0
689 -1223 0
-576 -689 1223 0
695 -1224 0
475 -1224 0
-695 -475 1224 0
850 -1225 0
545 -1225 0
-850 -545 1225 0
-280 -1226 0
578 -1226 0
280 -578 1226 0
670 -1227 0
-591 -1227 0
-670 591 1227 0
672 -1228 0
-309 -1228 0
-672 309 1228 0
-72 -1229 0
519 -1229 0
72 -519 1229 0
504 -1230 0
-569 -1230 0
-504 569 1230 0
838 -1231 0
477 -1231 0
-838 -477 1231 0
-19 -1232 0
58 -1232 0
19 -58 1232 0
742 -1233 0
-319 -1233 0
-742 319 1233 0
223 -1234 0
770 -1234 0
-223 -770 1234 0
-298 -1235 0
965 -1235 0
298 -965 1235 0
280 -1236 0
42 -1236 0
-280 -42 1236 0
-96 -1237 0
28 -1237 0
96 -28 1237 0
-833 -1238 0
92 -1238 0
833 -92 1238 0
84 -1239 0
553 -1239 0
-84 -553 1239 0
824 -1240 0
101 -1240 0
-824 -101 1240 0
-970 -1241 0
630 -1241 0
970 -630 1241 0
-307 -1242 0
989 -1242 0
307 -989 1242 0
-449 -1243 0
727 -1243 0
449 -727 1243 0
431 -1244 0
293 -1244 0
-431 -293 1244 0
285 -1245 0
-77 -1245 0
-285 77 1245 0
464 -1246 0
-910 -1246 0
-464 910 1246 0
598 -1247 0
-538 -1247 0
-598 538 1247 0
-369 -1248 0
874 -1248 0
369 -874 1248 0
723 -1249 0
434 -1249 0
-723 -434 1249 0
704 -1250 0
-509 -1250 0
-704 509 1250 0
366 -1251 0
-892 -1251 0
-366 892 1251 0
-451 -1252 0
226 -1252 0
451 -226 1252 0
-288 -1253 0
207 -1253 0
288 -207 1253 0
-377 -1254 0
766 -1254 0
377 -766 1254 0
182 -1255 0
452 -1255 0
-182 -452 1255 0
897 -1256 0
689 -1256 0
-897 -689 1256 0
459 -1257 0
-487 -1257 0
-459 487 1257 0
739 -1258 0
-135 -1258 0
-739 135 1258 0
-525 -1259 0
777 -1259 0
525 -777 1259 0
752 -1260 0
854 -1260 0
-752 -854 1260 0
739 -1261 0
-686 -1261 0
-739 686 1261 0
471 -1262 0
508 -1262 0
-471 -508 1262 0
975 -1263 0
-106 -1263 0
-975 106 1263 0
64 -1264 0
-306 -1264 0
-64 306 1264 0
-386 -1265 0
420 -1265 0
386 -420 1265 0
424 -1266 0
-674 -1266 0
-424 674 1266 0
255 -1267 0
86 -1267 0
-255 -86 1267 0
-924 -1268 0
420 -1268 0
924 -420 1268 0
695 -1269 0
-899 -1269 0
-695 899 1269 0
262 -1270 0
289 -1270 0
-262 -289 1270 0
1000 -1271 0
-236 -1271 0
-1000 236 1271 0
576 -1272 0
619 -1272 0
-576 -619 1272 0
999 -1273 0
-126 -1273 0
-999 126 1273 0
56 -1274 0
87 -1274 0
-56 -87 1274 0
119 -1275 0
-605 -1275 0
-119 605 1275 0
-123 -1276 0
547 -1276 0
123 -547 1276 0
383 -1277 0
-975 -1277 0
-383 975 1277 0
520 -1278 0
-977 -1278 0
-520 977 1278 0
360 -1279 0
-173 -1279 0
-360 173 1279 0
624 -1280 0
206 -1280 0
-624 -206 1280 0
-298 -1281 0
481 -1281 0
298 -481 1281 0
396 -1282 0
780 -1282 0
-396 -780 1282 0
-203 -1283 0
417 -1283 0
203 -417 1283 0
405 -1284 0
97 -1284 0
-405 -97 1284 0
539 -1285 0
265 -1285 0
-539 -265 1285 0
-640 -1286 0
35 -1286 0
640 -35 1286 0
-523 -1287 0
562 -1287 0
523 -562 1287 0
-888 -1288 0
221 -1288 0
888 -221 1288 0
-289 -1289 0
649 -1289 0
289 -649 1289 0
437 -1290 0
226 -1290 0
-437 -226 1290 0
475 -1291 0
-391 -1291 0
-475 391 1291 0
-385 -1292 0
542 -1292 0
385 -542 1292 0
294 -1293 0
949 -1293 0
-294 -949 1293 0
262 -1294 0
450 -1294 0
-262 -450 1294 0
-512 -1295 0
802 -1295 0
512 -802 1295 0
429 -1296 0
339 -1296 0
-429 -339 1296 0
-881 -1297 0
285 -1297 0
881 -285 1297 0
110 -1298 0
-348 -1298 0
-110 348 1298 0
927 -1299 0
-993 -1299 0
-927 993 1299 0
384 -1300 0
382 -1300 0
-384 -382 1300 0
966 -1301 0
-860 -1301 0
-966 860 1301 0
-871 -1302 0
105 -1302 0
871 -105 1302 0
-572 -1303 0
67 -1303 0
572 -67 1303 0
-347 -1304 0
690 -1304 0
347 -690 1304 0
719 -1305 0
-737 -1305 0
-719 737 1305 0
303 -1306 0
149 -1306 0
-303 -149 1306 0
423 -1307 0
651 -1307 0
-423 -651 1307 0
342 -1308 0
331 -1308 0
-342 -331 1308 0
306 -1309 0
-903 -1309 0
-306 903 1309 0
509 -1310 0
539 -1310 0
-509 -539 1310 0
896 -1311 0
615 -1311 0
-896 -615 1311 0
751 -1312 0
-938 -1312 0
-751 938 1312 0
-801 -1313 0
422 -1313 0
801 -422 1313 0
455 -1314 0
-111 -1314 0
-455 111 1314 0
616 -1315 0
107 -1315 0
-616 -107 1315 0
959 -1316 0
-33 -1316 0
-959 33 1316 0
246 -1317 0
341 -1317 0
-246 -341 1317 0
296 -1318 0
-495 -1318 0
-296 495 1318 0
761 -1319 0
329 -1319 0
-761 -329 1319 0
-949 -1320 0
514 -1320 0
949 -514 1320 0
976 -1321 0
96 -1321 0
-976 -96 1321 0
911 -1322 0
-883 -1322 0
-911 883 1322 0
262 -1323 0
437 -1323 0
-262 -437 1323 0
624 -1324 0
-665 -1324 0
-624 665 1324 0
725 -1325 0
89 -1325 0
-725 -89 1325 0
392 -1326 0
256 -1326 0
-392 -256 1326 0
269 -1327 0
-20 -1327 0
-269 20 1327 0
-265 -1328 0
411 -1328 0
265 -411 1328 0
528 -1329 0
-256 -1329 0
-528 256 1329 0
264 -1330 0
661 -1330 0
-264 -661 1330 0
880 -1331 0
-743 -1331 0
-880 743 1331 0
-8 -1332 0
263 -1332 0
8 -263 1332 0
-312 -1333 0
629 -1333 0
312 -629 1333 0
803 -1334 0
489 -1334 0
-803 -489 1334 0
708 -1335 0
-669 -1335 0
-708 669 1335 0
652 -1336 0
467 -1336 0
-652 -467 1336 0
893 -1337 0
-204 -1337 0
-893 204 1337 0
277 -1338 0
365 -1338 0
-277 -365 1338 0
283 -1339 0
-429 -1339 0
-283 429 1339 0
864 -1340 0
602 -1340 0
-864 -602 1340 0
-737 -1341 0
527 -1341 0
737 -527 1341 0
-560 -1342 0
549 -1342 0
560 -549 1342 0
350 -1343 0
963 -1343 0
-350 -963 1343 0
616 -1344 0
359 -1344 0
-616 -359 1344 0
-378 -1345 0
140 -1345 0
378 -140 1345 0
393 -1346 0
670 -1347 0
571 -1347 0
-670 -571 1347 0
327 -1348 0
-90 -1348 0
-327 90 1348 0
854 -1349 0
979 -1349 0
-854 -979 1349 0
639 -1350 0
-626 -1350 0
-639 626 1350 0
-323 -1351 0
819 -1351 0
323 -819 1351 0
94 -1352 0
-645 -1352 0
-94 645 1352 0
626 -1353 0
-542 -1353 0
-626 542 1353 0
659 -1354 0
-991 -1354 0
-659 991 1354 0
135 -1355 0
-434 -1355 0
-135 434 1355 0
-321 -1356 0
387 -1356 0
321 -387 1356 0
-633 -1357 0
364 -1357 0
633 -364 1357 0
-82 -1358 0
513 -1358 0
82 -513 1358 0
984 -1359 0
-444 -1359 0
-984 444 1359 0
46 -1360 0
-498 -1360 0
-46 498 1360 0
480 -1361 0
-891 -1361 0
-480 891 1361 0
876 -1362 0
802 -1362 0
-876 -802 1362 0
-515 -1363 0
660 -1363 0
515 -660 1363 0
664 -1364 0
502 -1364 0
-664 -502 1364 0
-929 -1365 0
866 -1365 0
929 -866 1365 0
112 -1366 0
842 -1366 0
-112 -842 1366 0
624 -1367 0
143 -1367 0
-624 -143 1367 0
6 -1368 0
-979 -1368 0
-6 979 1368 0
951 -1369 0
-178 -1369 0
-951 178 1369 0
-316 -1370 0
673 -1370 0
316 -673 1370 0
-119 -1371 0
329 -1371 0
119 -329 1371 0
106 -1372 0
-935 -1372 0
-106 935 1372 0
-745 -1373 0
673 -1373 0
745 -673 1373 0
627 -1374 0
433 -1374 0
-627 -433 1374 0
-202 -1375 0
793 -1375 0
202 -793 1375 0
919 -1376 0
205 -1376 0
-919 -205 1376 0
-818 -1377 0
579 -1377 0
818 -579 1377 0
592 -1378 0
-950 -1378 0
-592 950 1378 0
592 -1379 0
-667 -1379 0
-592 667 1379 0
443 -1380 0
-262 -1380 0
-443 262 1380 0
751 -1381 0
651 -1381 0
-751 -651 1381 0
942 -1382 0
-660 -1382 0
-942 660 1382 0
-97 -1383 0
441 -1383 0
97 -441 1383 0
335 -1384 0
622 -1384 0
-335 -622 1384 0
975 -1385 0
-107 -1385 0
-975 107 1385 0
143 -1386 0
10 -1386 0
-143 -10 1386 0
324 -1387 0
2 -1387 0
-324 -2 1387 0
-506 -1388 0
381 -1388 0
506 -381 1388 0
-64 -1389 0
290 -1389 0
64 -290 1389 0
176 -1390 0
-874 -1390 0
-176 874 1390 0
68 -1391 0
-732 -1391 0
-68 732 1391 0
-440 -1392 0
385 -1392 0
440 -385 1392 0
-505 -1393 0
30 -1393 0
505 -30 1393 0
165 -1394 0
93 -1394 0
-165 -93 1394 0
744 -1395 0
726 -1395 0
-744 -726 1395 0
606 -1396 0
-101 -1396 0
-606 101 1396 0
-389 -1397 0
250 -1397 0
389 -250 1397 0
412 -1398 0
-462 -1398 0
-412 462 1398 0
774 -1399 0
-869 -1399 0
-774 869 1399 0
-868 -1400 0
522 -1400 0
868 -522 1400 0
957 -1401 0
794 -1401 0
-957 -794 1401 0
-672 -1402 0
697 -1402 0
672 -697 1402 0
263 -1403 0
828 -1403 0
-263 -828 1403 0
-101 -1404 0
834 -1404 0
101 -834 1404 0
717 -1405 0
805 -1405 0
-717 -805 1405 0
-323 -1406 0
36 -1406 0
323 -36 1406 0
362 -1407 0
-879 -1407 0
-362 879 1407 0
478 -1408 0
996 -1408 0
-478 -996 1408 0
309 -1409 0
-356 -1409 0
-309 356 1409 0
-598 -1410 0
913 -1410 0
598 -913 1410 0
117 -1411 0
-654 -1411 0
-117 654 1411 0
965 -1412 0
340 -1413 0
460 -1413 0
-340 -460 1413 0
76 -1414 0
-78 -1414 0
-76 78 1414 0
-985 -1415 0
299 -1415 0
985 -299 1415 0
-204 -1416 0
97 -1416 0
204 -97 1416 0
-128 -1417 0
722 -1417 0
128 -722 1417 0
980 -1418 0
-822 -1418 0
-980 822 1418 0
11 -1419 0
-230 -1419 0
-11 230 1419 0
837 -1420 0
-588 -1420 0
-837 588 1420 0
11 -1421 0
723 -1421 0
-11 -723 1421 0
-322 -1422 0
332 -1422 0
322 -332 1422 0
-190 -1423 0
601 -1423 0
190 -601 1423 0
454 -1424 0
-715 -1424 0
-454 715 1424 0
-900 -1425 0
835 -1425 0
900 -835 1425 0
853 -1426 0
-173 -1426 0
-853 173 1426 0
340 -1427 0
-588 -1427 0
-340 588 1427 0
-563 -1428 0
321 -1428 0
563 -321 1428 0
336 -1429 0
957 -1429 0
-336 -957 1429 0
61 -1430 0
963 -1430 0
-61 -963 1430 0
-138 -1431 0
317 -1431 0
138 -317 1431 0
416 -1432 0
-53 -1432 0
-416 53 1432 0
-501 -1433 0
83 -1433 0
501 -83 1433 0
216 -1434 0
-251 -1434 0
-216 251 1434 0
488 -1435 0
-86 -1435 0
-488 86 1435 0
-293 -1436 0
161 -1436 0
293 -161 1436 0
400 -1437 0
-801 -1437 0
-400 801 1437 0
992 -1438 0
523 -1438 0
-992 -523 1438 0
827 -1439 0
-133 -1439 0
-827 133 1439 0
-517 -1440 0
786 -1440 0
517 -786 1440 0
480 -1441 0
12 -1441 0
-480 -12 1441 0
710 -1442 0
476 -1442 0
-710 -476 1442 0
376 -1443 0
109 -1443 0
-376 -109 1443 0
251 -1444 0
857 -1444 0
-251 -857 1444 0
-876 -1445 0
81 -1445 0
876 -81 1445 0
734 -1446 0
442 -1446 0
-734 -442 1446 0
204 -1447 0
-15 -1447 0
-204 15 1447 0
567 -1448 0
-292 -1448 0
-567 292 1448 0
-826 -1449 0
193 -1449 0
826 -193 1449 0
717 -1450 0
-565 -1450 0
-717 565 1450 0
267 -1451 0
-31 -1451 0
-267 31 1451 0
629 -1452 0
337 -1452 0
-629 -337 1452 0
392 -1453 0
-573 -1453 0
-392 573 1453 0
-592 -1454 0
600 -1454 0
592 -600 1454 0
512 -1455 0
-637 -1455 0
-512 637 1455 0
701 -1456 0
305 -1456 0
-701 -305 1456 0
288 -1457 0
214 -1457 0
-288 -214 1457 0
808 -1458 0
762 -1458 0
-808 -762 1458 0
200 -1459 0
-809 -1459 0
-200 809 1459 0
303 -1460 0
-772 -1460 0
-303 772 1460 0
466 -1461 0
-966 -1461 0
-466 966 1461 0
44 -1462 0
-485 -1462 0
-44 485 1462 0
-417 -1463 0
892 -1463 0
417 -892 1463 0
195 -1464 0
-543 -1464 0
-195 543 1464 0
858 -1465 0
250 -1465 0
-858 -250 1465 0
284 -1466 0
305 -1466 0
-284 -305 1466 0
448 -1467 0
330 -1467 0
-448 -330 1467 0
403 -1468 0
139 -1468 0
-403 -139 1468 0
-53 -1469 0
691 -1469 0
53 -691 1469 0
-11 -1470 0
317 -1470 0
11 -317 1470 0
-763 -1471 0
153 -1471 0
763 -153 1471 0
-216 -1472 0
370 -1472 0
216 -370 1472 0
853 -1473 0
962 -1473 0
-853 -962 1473 0
214 -1474 0
618 -1474 0
-214 -618 1474 0
-484 -1475 0
658 -1475 0
484 -658 1475 0
832 -1476 0
204 -1476 0
-832 -204 1476 0
502 -1477 0
-831 -1477 0
-502 831 1477 0
-481 -1478 0
603 -1478 0
481 -603 1478 0
407 -1479 0
-998 -1479 0
-407 998 1479 0
-416 -1480 0
802 -1480 0
416 -802 1480 0
141 -1481 0
747 -1481 0
-141 -747 1481 0
607 -1482 0
258 -1482 0
-607 -258 1482 0
-37 -1483 0
673 -1483 0
37 -673 1483 0
-808 -1484 0
835 -1484 0
808 -835 1484 0
240 -1485 0
345 -1485 0
-240 -345 1485 0
447 -1486 0
-11 -1486 0
-447 11 1486 0
989 -1487 0
532 -1487 0
-989 -532 1487 0
-867 -1488 0
460 -1488 0
867 -460 1488 0
-361 -1489 0
243 -1489 0
361 -243 1489 0
-340 -1490 0
267 -1490 0
340 -267 1490 0
-648 -1491 0
700 -1491 0
648 -700 1491 0
-299 -1492 0
393 -1492 0
299 -393 1492 0
314 -1493 0
385 -1493 0
-314 -385 1493 0
-725 -1494 0
697 -1494 0
725 -697 1494 0
-959 -1495 0
913 -1495 0
959 -913 1495 0
-280 -1496 0
382 -1496 0
280 -382 1496 0
336 -1497 0
-42 -1497 0
-336 42 1497 0
7 -1498 0
89 -1498 0
-7 -89 1498 0
880 -1499 0
-210 -1499 0
-880 210 1499 0
-596 -1500 0
450 -1500 0
596 -450 1500 0
-554 -1501 0
149 -1501 0
554 -149 1501 0
423 -1502 0
-991 -1502 0
-423 991 1502 0
247 -1503 0
-277 -1503 0
-247 277 1503 0
-257 -1504 0
820 -1504 0
257 -820 1504 0
-730 -1505 0
178 -1505 0
730 -178 1505 0
658 -1506 0
961 -1506 0
-658 -961 1506 0
-912 -1507 0
27 -1507 0
912 -27 1507 0
336 -1508 0
-866 -1508 0
-336 866 1508 0
85 -1509 0
-301 -1509 0
-85 301 1509 0
-690 -1510 0
947 -1510 0
690 -947 1510 0
766 -1511 0
-741 -1511 0
-766 741 1511 0
557 -1512 0
-597 -1512 0
-557 597 1512 0
114 -1513 0
569 -1513 0
-114 -569 1513 0
323 -1514 0
-846 -1514 0
-323 846 1514 0
58 -1515 0
-110 -1515 0
-58 110 1515 0
-136 -1516 0
161 -1516 0
136 -161 1516 0
927 -1517 0
-501 -1517 0
-927 501 1517 0
367 -1518 0
-25 -1518 0
-367 25 1518 0
-625 -1519 0
933 -1519 0
625 -933 1519 0
472 -1520 0
-210 -1520 0
-472 210 1520 0
988 -1521 0
273 -1521 0
-988 -273 1521 0
863 -1522 0
495 -1522 0
-863 -495 1522 0
255 -1523 0
-180 -1523 0
-255 180 1523 0
-616 -1524 0
178 -1524 0
616 -178 1524 0
245 -1525 0
-270 -1525 0
-245 270 1525 0
16 -1526 0
-238 -1526 0
-16 238 1526 0
728 -1527 0
589 -1527 0
-728 -589 1527 0
-466 -1528 0
86 -1528 0
466 -86 1528 0
-529 -1529 0
499 -1529 0
529 -499 1529 0
-110 -1530 0
793 -1530 0
110 -793 1530 0
5 -1531 0
-455 -1531 0
-5 455 1531 0
767 -1532 0
786 -1532 0
-767 -786 1532 0
869 -1533 0
-453 -1533 0
-869 453 1533 0
795 -1534 0
-830 -1534 0
-795 830 1534 0
-228 -1535 0
507 -1535 0
228 -507 1535 0
565 -1536 0
865 -1536 0
-565 -865 1536 0
880 -1537 0
-40 -1537 0
-880 40 1537 0
491 -1538 0
986 -1538 0
-491 -986 1538 0
63 -1539 0
398 -1539 0
-63 -398 1539 0
-160 -1540 0
614 -1540 0
160 -614 1540 0
876 -1541 0
492 -1541 0
-876 -492 1541 0
283 -1542 0
-622 -1542 0
-283 622 1542 0
62 -1543 0
411 -1543 0
-62 -411 1543 0
-681 -1544 0
394 -1544 0
681 -394 1544 0
734 -1545 0
1 -1545 0
-734 -1 1545 0
111 -1546 0
-124 -1546 0
-111 124 1546 0
742 -1547 0
745 -1547 0
-742 -745 1547 0
-752 -1548 0
260 -1548 0
752 -260 1548 0
929 -1549 0
617 -1549 0
-929 -617 1549 0
-943 -1550 0
401 -1550 0
943 -401 1550 0
-129 -1551 0
831 -1551 0
129 -831 1551 0
-298 -1552 0
458 -1552 0
298 -458 1552 0
14 -1553 0
-683 -1553 0
-14 683 1553 0
910 -1554 0
-220 -1554 0
-910 220 1554 0
917 -1555 0
-791 -1555 0
-917 791 1555 0
336 -1556 0
830 -1556 0
-336 -830 1556 0
729 -1557 0
817 -1557 0
-729 -817 1557 0
647 -1558 0
356 -1558 0
-647 -356 1558 0
-292 -1559 0
700 -1559 0
292 -700 1559 0
-265 -1560 0
508 -1560 0
265 -508 1560 0
880 -1561 0
-743 -1561 0
-880 743 1561 0
-475 -1562 0
964 -1562 0
475 -964 1562 0
928 -1563 0
841 -1563 0
-928 -841 1563 0
134 -1564 0
242 -1564 0
-134 -242 1564 0
891 -1565 0
129 -1565 0
-891 -129 1565 0
-224 -1566 0
940 -1566 0
224 -940 1566 0
-483 -1567 0
227 -1567 0
483 -227 1567 0
-421 -1568 0
241 -1568 0
421 -241 1568 0
-288 -1569 0
64 -1569 0
288 -64 1569 0
287 -1570 0
-52 -1570 0
-287 52 1570 0
-537 -1571 0
945 -1571 0
537 -945 1571 0
879 -1572 0
660 -1572 0
-879 -660 1572 0
878 -1573 0
-510 -1573 0
-878 510 1573 0
-786 -1574 0
237 -1574 0
786 -237 1574 0
474 -1575 0
-302 -1575 0
-474 302 1575 0
765 -1576 0
-100 -1576 0
-765 100 1576 0
935 -1577 0
209 -1577 0
-935 -209 1577 0
-973 -1578 0
138 -1578 0
973 -138 1578 0
406 -1579 0
763 -1579 0
-406 -763 1579 0
515 -1580 0
562 -1580 0
-515 -562 1580 0
-152 -1581 0
488 -1581 0
152 -488 1581 0
31 -1582 0
-610 -1582 0
-31 610 1582 0
-164 -1583 0
707 -1583 0
164 -707 1583 0
797 -1584 0
836 -1584 0
-797 -836 1584 0
95 -1585 0
-25 -1585 0
-95 25 1585 0
792 -1586 0
-689 -1586 0
-792 689 1586 0
-704 -1587 0
65 -1587 0
704 -65 1587 0
709 -1588 0
458 -1588 0
-709 -458 1588 0
664 -1589 0
-402 -1589 0
-664 402 1589 0
460 -1590 0
449 -1590 0
-460 -449 1590 0
-257 -1591 0
353 -1591 0
257 -353 1591 0
-35 -1592 0
588 -1592 0
35 -588 1592 0
934 -1593 0
-775 -1593 0
-934 775 1593 0
-425 -1594 0
757 -1594 0
425 -757 1594 0
180 -1595 0
667 -1595 0
-180 -667 1595 0
286 -1596 0
-626 -1596 0
-286 626 1596 0
224 -1597 0
402 -1597 0
-224 -402 1597 0
940 -1598 0
625 -1598 0
-940 -625 1598 0
263 -1599 0
-901 -1599 0
-263 901 1599 0
215 -1600 0
940 -1600 0
-215 -940 1600 0
144 -1601 0
-127 -1601 0
-144 127 1601 0
-361 -1602 0
366 -1602 0
361 -366 1602 0
205 -1603 0
802 -1603 0
-205 -802 1603 0
509 -1604 0
-191 -1604 0
-509 191 1604 0
350 -1605 0
-918 -1605 0
-350 918 1605 0
295 -1606 0
302 -1606 0
-295 -302 1606 0
-640 -1607 0
659 -1607 0
640 -659 1607 0
679 -1608 0
-697 -1608 0
-679 697 1608 0
688 -1609 0
415 -1609 0
-688 -415 1609 0
648 -1610 0
-714 -1610 0
-648 714 1610 0
-185 -1611 0
4 -1611 0
185 -4 1611 0
-405 -1612 0
818 -1612 0
405 -818 1612 0
838 -1613 0
445 -1613 0
-838 -445 1613 0
492 -1614 0
809 -1614 0
-492 -809 1614 0
-764 -1615 0
212 -1615 0
764 -212 1615 0
-817 -1616 0
501 -1616 0
817 -501 1616 0
846 -1617 0
-106 -1617 0
-846 106 1617 0
-306 -1618 0
486 -1618 0
306 -486 1618 0
72 -1619 0
405 -1619 0
-72 -405 1619 0
373 -1620 0
395 -1620 0
-373 -395 1620 0
112 -1621 0
42 -1621 0
-112 -42 1621 0
696 -1622 0
543 -1622 0
-696 -543 1622 0
-666 -1623 0
502 -1623 0
666 -502 1623 0
-857 -1624 0
982 -1624 0
857 -982 1624 0
214 -1625 0
-595 -1625 0
-214 595 1625 0
863 -1626 0
225 -1626 0
-863 -225 1626 0
136 -1627 0
-287 -1627 0
-136 287 1627 0
6 -1628 0
-693 -1628 0
-6 693 1628 0
400 -1629 0
434 -1629 0
-400 -434 1629 0
487 -1630 0
273 -1630 0
-487 -273 1630 0
437 -1631 0
-102 -1631 0
-437 102 1631 0
-248 -1632 0
830 -1632 0
248 -830 1632 0
199 -1633 0
-554 -1633 0
-199 554 1633 0
212 -1634 0
-878 -1634 0
-212 878 1634 0
806 -1635 0
-99 -1635 0
-806 99 1635 0
140 -1636 0
-30 -1636 0
-140 30 1636 0
365 -1637 0
-725 -1637 0
-365 725 1637 0
-853 -1638 0
169 -1638 0
853 -169 1638 0
759 -1639 0
-694 -1639 0
-759 694 1639 0
-232 -1640 0
146 -1640 0
232 -146 1640 0
767 -1641 0
-85 -1641 0
-767 85 1641 0
199 -1642 0
-82 -1642 0
-199 82 1642 0
-349 -1643 0
139 -1643 0
349 -139 1643 0
495 -1644 0
-245 -1644 0
-495 245 1644 0
-902 -1645 0
145 -1645 0
902 -145 1645 0
-520 -1646 0
268 -1646 0
520 -268 1646 0
839 -1647 0
437 -1647 0
-839 -437 1647 0
866 -1648 0
-998 -1648 0
-866 998 1648 0
492 -1649 0
-365 -1649 0
-492 365 1649 0
-499 -1650 0
114 -1650 0
499 -114 1650 0
718 -1651 0
571 -1651 0
-718 -571 1651 0
-537 -1652 0
139 -1652 0
537 -139 1652 0
448 -1653 0
778 -1653 0
-448 -778 1653 0
936 -1654 0
-429 -1654 0
-936 429 1654 0
507 -1655 0
-205 -1655 0
-507 205 1655 0
543 -1656 0
-295 -1656 0
-543 295 1656 0
375 -1657 0
913 -1657 0
-375 -913 1657 0
31 -1658 0
-643 -1658 0
-31 643 1658 0
847 -1659 0
294 -1659 0
-847 -294 1659 0
-45 -1660 0
593 -1660 0
45 -593 1660 0
-328 -1661 0
718 -1661 0
328 -718 1661 0
-547 -1662 0
841 -1662 0
547 -841 1662 0
446 -1663 0
-21 -1663 0
-446 21 1663 0
701 -1664 0
844 -1664 0
-701 -844 1664 0
-675 -1665 0
801 -1665 0
675 -801 1665 0
399 -1666 0
410 -1666 0
-399 -410 1666 0
-27 -1667 0
291 -1667 0
27 -291 1667 0
101 -1668 0
-812 -1668 0
-101 812 1668 0
621 -1669 0
-725 -1669 0
-621 725 1669 0
-627 -1670 0
546 -1670 0
627 -546 1670 0
871 -1671 0
-487 -1671 0
-871 487 1671 0
564 -1672 0
297 -1672 0
-564 -297 1672 0
-856 -1673 0
612 -1673 0
856 -612 1673 0
74 -1674 0
-607 -1674 0
-74 607 1674 0
-936 -1675 0
964 -1675 0
936 -964 1675 0
-458 -1676 0
100 -1676 0
458 -100 1676 0
-332 -1677 0
435 -1677 0
332 -435 1677 0
-249 -1678 0
585 -1678 0
249 -585 1678 0
896 -1679 0
-286 -1679 0
-896 286 1679 0
736 -1680 0
287 -1680 0
-736 -287 1680 0
-850 -1681 0
790 -1681 0
850 -790 1681 0
948 -1682 0
-742 -1682 0
-948 742 1682 0
-320 -1683 0
531 -1683 0
320 -531 1683 0
716 -1684 0
-844 -1684 0
-716 844 1684 0
-281 -1685 0
449 -1685 0
281 -449 1685 0
-600 -1686 0
462 -1686 0
600 -462 1686 0
758 -1687 0
-523 -1687 0
-758 523 1687 0
-160 -1688 0
949 -1688 0
160 -949 1688 0
670 -1689 0
-743 -1689 0
-670 743 1689 0
-736 -1690 0
82 -1690 0
736 -82 1690 0
280 -1691 0
533 -1691 0
-280 -533 1691 0
-620 -1692 0
706 -1692 0
620 -706 1692 0
957 -1693 0
-654 -1693 0
-957 654 1693 0
843 -1694 0
-991 -1694 0
-843 991 1694 0
-974 -1695 0
281 -1695 0
974 -281 1695 0
-90 -1696 0
1 -1696 0
90 -1 1696 0
-912 -1697 0
234 -1697 0
912 -234 1697 0
248 -1698 0
977 -1698 0
-248 -977 1698 0
792 -1699 0
450 -1699 0
-792 -450 1699 0
-988 -1700 0
729 -1700 0
988 -729 1700 0
-768 -1701 0
413 -1701 0
768 -413 1701 0
110 -1702 0
-598 -1702 0
-110 598 1702 0
894 -1703 0
-532 -1703 0
-894 532 1703 0
242 -1704 0
-759 -1704 0
-242 759 1704 0
493 -1705 0
-125 -1705 0
-493 125 1705 0
350 -1706 0
-133 -1706 0
-350 133 1706 0
-208 -1707 0
467 -1707 0
208 -467 1707 0
-69 -1708 0
347 -1708 0
69 -347 1708 0
862 -1709 0
698 -1709 0
-862 -698 1709 0
456 -1710 0
857 -1710 0
-456 -857 1710 0
-508 -1711 0
476 -1711 0
508 -476 1711 0
347 -1712 0
-790 -1712 0
-347 790 1712 0
652 -1713 0
516 -1713 0
-652 -516 1713 0
199 -1714 0
617 -1714 0
-199 -617 1714 0
256 -1715 0
-405 -1715 0
-256 405 1715 0
400 -1716 0
37 -1716 0
-400 -37 1716 0
554 -1717 0
162 -1717 0
-554 -162 1717 0
-76 -1718 0
563 -1718 0
76 -563 1718 0
734 -1719 0
-102 -1719 0
-734 102 1719 0
176 -1720 0
251 -1720 0
-176 -251 1720 0
271 -1721 0
980 -1721 0
-271 -980 1721 0
390 -1722 0
637 -1722 0
-390 -637 1722 0
771 -1723 0
978 -1723 0
-771 -978 1723 0
846 -1724 0
-348 -1724 0
-846 348 1724 0
-832 -1725 0
596 -1725 0
832 -596 1725 0
-13 -1726 0
553 -1726 0
13 -553 1726 0
88 -1727 0
-593 -1727 0
-88 593 1727 0
839 -1728 0
-351 -1728 0
-839 351 1728 0
356 -1729 0
-692 -1730 0
953 -1730 0
692 -953 1730 0
-402 -1731 0
521 -1731 0
402 -521 1731 0
102 -1732 0
-476 -1732 0
-102 476 1732 0
894 -1733 0
-398 -1733 0
-894 398 1733 0
-76 -1734 0
891 -1734 0
76 -891 1734 0
-916 -1735 0
466 -1735 0
916 -466 1735 0
-514 -1736 0
60 -1736 0
514 -60 1736 0
8 -1737 0
609 -1737 0
-8 -609 1737 0
880 -1738 0
-459 -1738 0
-880 459 1738 0
150 -1739 0
-255 -1739 0
-150 255 1739 0
44 -1740 0
937 -1740 0
-44 -937 1740 0
727 -1741 0
-169 -1741 0
-727 169 1741 0
-205 -1742 0
234 -1742 0
205 -234 1742 0
296 -1743 0
-939 -1743 0
-296 939 1743 0
-72 -1744 0
982 -1744 0
72 -982 1744 0
-309 -1745 0
777 -1745 0
309 -777 1745 0
463 -1746 0
-959 -1746 0
-463 959 1746 0
7 -1747 0
707 -1747 0
-7 -707 1747 0
885 -1748 0
-101 -1748 0
-885 101 1748 0
4 -1749 0
419 -1749 0
-4 -419 1749 0
-708 -1750 0
802 -1750 0
708 -802 1750 0
224 -1751 0
320 -1751 0
-224 -320 1751 0
548 -1752 0
402 -1752 0
-548 -402 1752 0
951 -1753 0
-459 -1753 0
-951 459 1753 0
444 -1754 0
-239 -1754 0
-444 239 1754 0
998 -1755 0
-943 -1755 0
-998 943 1755 0
-56 -1756 0
828 -1756 0
56 -828 1756 0
225 -1757 0
-183 -1757 0
-225 183 1757 0
-363 -1758 0
802 -1758 0
363 -802 1758 0
-108 -1759 0
817 -1759 0
108 -817 1759 0
-345 -1760 0
227 -1760 0
345 -227 1760 0
880 -1761 0
-23 -1761 0
-880 23 1761 0
-248 -1762 0
464 -1762 0
248 -464 1762 0
-506 -1763 0
948 -1763 0
506 -948 1763 0
-98 -1764 0
363 -1764 0
98 -363 1764 0
229 -1765 0
482 -1765 0
-229 -482 1765 0
590 -1766 0
932 -1766 0
-590 -932 1766 0
-169 -1767 0
275 -1767 0
169 -275 1767 0
419 -1768 0
-647 -1768 0
-419 647 1768 0
907 -1769 0
811 -1769 0
-907 -811 1769 0
316 -1770 0
57 -1770 0
-316 -57 1770 0
556 -1771 0
-597 -1771 0
-556 597 1771 0
871 -1772 0
-31 -1772 0
-871 31 1772 0
-344 -1773 0
513 -1773 0
344 -513 1773 0
-499 -1774 0
162 -1774 0
499 -162 1774 0
-580 -1775 0
403 -1775 0
580 -403 1775 0
293 -1776 0
73 -1776 0
-293 -73 1776 0
-158 -1777 0
10 -1777 0
158 -10 1777 0
710 -1778 0
21 -1778 0
-710 -21 1778 0
893 -1779 0
929 -1779 0
-893 -929 1779 0
471 -1780 0
654 -1780 0
-471 -654 1780 0
368 -1781 0
829 -1781 0
-368 -829 1781 0
367 -1782 0
-774 -1782 0
-367 774 1782 0
-434 -1783 0
433 -1783 0
434 -433 1783 0
317 -1784 0
-381 -1784 0
-317 381 1784 0
997 -1785 0
842 -1785 0
-997 -842 1785 0
967 -1786 0
551 -1786 0
-967 -551 1786 0
-920 -1787 0
450 -1787 0
920 -450 1787 0
-868 -1788 0
827 -1788 0
868 -827 1788 0
-969 -1789 0
829 -1789 0
969 -829 1789 0
743 -1790 0
786 -1790 0
-743 -786 1790 0
837 -1791 0
298 -1791 0
-837 -298 1791 0
655 -1792 0
-341 -1792 0
-655 341 1792 0
847 -1793 0
814 -1793 0
-847 -814 1793 0
-460 -1794 0
202 -1794 0
460 -202 1794 0
454 -1795 0
-846 -1795 0
-454 846 1795 0
-571 -1796 0
68 -1796 0
571 -68 1796 0
-930 -1797 0
139 -1797 0
930 -139 1797 0
-218 -1798 0
289 -1798 0
218 -289 1798 0
-563 -1799 0
516 -1799 0
563 -516 1799 0
-800 -1800 0
317 -1800 0
800 -317 1800 0
460 -1801 0
-133 -1801 0
-460 133 1801 0
572 -1802 0
348 -1802 0
-572 -348 1802 0
906 -1803 0
393 -1803 0
-906 -393 1803 0
472 -1804 0
894 -1804 0
-472 -894 1804 0
-371 -1805 0
307 -1805 0
371 -307 1805 0
360 -1806 0
-661 -1806 0
-360 661 1806 0
-758 -1807 0
785 -1807 0
758 -785 1807 0
195 -1808 0
242 -1808 0
-195 -242 1808 0
251 -1809 0
-990 -1809 0
-251 990 1809 0
919 -1810 0
514 -1810 0
-919 -514 1810 0
294 -1811 0
826 -1811 0
-294 -826 1811 0
710 -1812 0
-222 -1812 0
-710 222 1812 0
525 -1813 0
-405 -1813 0
-525 405 1813 0
-96 -1814 0
895 -1814 0
96 -895 1814 0
-320 -1815 0
255 -1815 0
320 -255 1815 0
788 -1816 0
577 -1816 0
-788 -577 1816 0
7 -1817 0
-639 -1817 0
-7 639 1817 0
999 -1818 0
-107 -1818 0
-999 107 1818 0
672 -1819 0
-922 -1819 0
-672 922 1819 0
495 -1820 0
199 -1820 0
-495 -199 1820 0
439 -1821 0
-775 -1821 0
-439 775 1821 0
711 -1822 0
-997 -1822 0
-711 997 1822 0
-329 -1823 0
701 -1823 0
329 -701 1823 0
880 -1824 0
148 -1824 0
-880 -148 1824 0
910 -1825 0
308 -1825 0
-910 -308 1825 0
-153 -1826 0
579 -1826 0
153 -579 1826 0
259 -1827 0
522 -1827 0
-259 -522 1827 0
-717 -1828 0
913 -1828 0
717 -913 1828 0
821 -1829 0
-427 -1829 0
-821 427 1829 0
869 -1830 0
-268 -1830 0
-869 268 1830 0
-822 -1831 0
553 -1831 0
822 -553 1831 0
480 -1832 0
262 -1832 0
-480 -262 1832 0
-133 -1833 0
25 -1833 0
133 -25 1833 0
-803 -1834 0
138 -1834 0
803 -138 1834 0
-488 -1835 0
656 -1835 0
488 -656 1835 0
405 -1836 0
301 -1836 0
-405 -301 1836 0
-837 -1837 0
617 -1837 0
837 -617 1837 0
424 -1838 0
-369 -1838 0
-424 369 1838 0
149 -1839 0
-796 -1839 0
-149 796 1839 0
712 -1840 0
-592 -1840 0
-712 592 1840 0
-700 -1841 0
81 -1841 0
700 -81 1841 0
630 -1842 0
-666 -1842 0
-630 666 1842 0
488 -1843 0
733 -1843 0
-488 -733 1843 0
194 -1844 0
-279 -1844 0
-194 279 1844 0
144 -1845 0
359 -1845 0
-144 -359 1845 0
69 -1846 0
61 -1846 0
-69 -61 1846 0
728 -1847 0
-814 -1847 0
-728 814 1847 0
982 -1848 0
-315 -1848 0
-982 315 1848 0
384 -1849 0
-459 -1849 0
-384 459 1849 0
-800 -1850 0
964 -1850 0
800 -964 1850 0
591 -1851 0
-731 -1851 0
-591 731 1851 0
285 -1852 0
-428 -1852 0
-285 428 1852 0
293 -1853 0
821 -1853 0
-293 -821 1853 0
938 -1854 0
-894 -1854 0
-938 894 1854 0
947 -1855 0
969 -1855 0
-947 -969 1855 0
479 -1856 0
-671 -1856 0
-479 671 1856 0
34 -1857 0
601 -1857 0
-34 -601 1857 0
560 -1858 0
-354 -1858 0
-560 354 1858 0
584 -1859 0
818 -1859 0
-584 -818 1859 0
486 -1860 0
-947 -1860 0
-486 947 1860 0
292 -1861 0
-349 -1861 0
-292 349 1861 0
612 -1862 0
-742 -1862 0
-612 742 1862 0
-161 -1863 0
529 -1863 0
161 -529 1863 0
805 -1864 0
481 -1864 0
-805 -481 1864 0
-577 -1865 0
450 -1865 0
577 -450 1865 0
406 -1866 0
50 -1866 0
-406 -50 1866 0
464 -1867 0
111 -1867 0
-464 -111 1867 0
310 -1868 0
-453 -1868 0
-310 453 1868 0
688 -1869 0
-74 -1869 0
-688 74 1869 0
844 -1870 0
106 -1870 0
-844 -106 1870 0
-768 -1871 0
565 -1871 0
768 -565 1871 0
270 -1872 0
-205 -1872 0
-270 205 1872 0
191 -1873 0
-437 -1873 0
-191 437 1873 0
88 -1874 0
740 -1874 0
-88 -740 1874 0
-290 -1875 0
53 -1875 0
290 -53 1875 0
872 -1876 0
591 -1876 0
-872 -591 1876 0
-657 -1877 0
867 -1877 0
657 -867 1877 0
845 -1878 0
412 -1878 0
-845 -412 1878 0
-169 -1879 0
466 -1879 0
169 -466 1879 0
-296 -1880 0
217 -1880 0
296 -217 1880 0
54 -1881 0
-589 -1881 0
-54 589 1881 0
14 -1882 0
428 -1882 0
-14 -428 1882 0
-275 -1883 0
922 -1883 0
275 -922 1883 0
623 -1884 0
-335 -1884 0
-623 335 1884 0
320 -1885 0
581 -1885 0
-320 -581 1885 0
370 -1886 0
-790 -1886 0
-370 790 1886 0
533 -1887 0
-87 -1887 0
-533 87 1887 0
-432 -1888 0
384 -1888 0
432 -384 1888 0
165 -1889 0
-174 -1889 0
-165 174 1889 0
-688 -1890 0
171 -1890 0
688 -171 1890 0
462 -1891 0
-190 -1891 0
-462 190 1891 0
356 -1892 0
74 -1892 0
-356 -74 1892 0
320 -1893 0
-545 -1893 0
-320 545 1893 0
511 -1894 0
740 -1894 0
-511 -740 1894 0
20 -1895 0
940 -1895 0
-20 -940 1895 0
-922 -1896 0
388 -1896 0
922 -388 1896 0
556 -1897 0
-805 -1897 0
-556 805 1897 0
-518 -1898 0
49 -1898 0
518 -49 1898 0
-673 -1899 0
86 -1899 0
673 -86 1899 0
-816 -1900 0
44 -1900 0
816 -44 1900 0
424 -1901 0
173 -1901 0
-424 -173 1901 0
18 -1902 0
-391 -1902 0
-18 391 1902 0
469 -1903 0
265 -1903 0
-469 -265 1903 0
-789 -1904 0
410 -1904 0
789 -410 1904 0
-457 -1905 0
702 -1905 0
457 -702 1905 0
-684 -1906 0
242 -1906 0
684 -242 1906 0
-144 -1907 0
921 -1907 0
144 -921 1907 0
-656 -1908 0
200 -1908 0
656 -200 1908 0
-813 -1909 0
923 -1909 0
813 -923 1909 0
544 -1910 0
860 -1910 0
-544 -860 1910 0
408 -1911 0
-337 -1911 0
-408 337 1911 0
811 -1912 0
475 -1912 0
-811 -475 1912 0
-917 -1913 0
282 -1913 0
917 -282 1913 0
869 -1914 0
867 -1914 0
-869 -867 1914 0
48 -1915 0
-601 -1915 0
-48 601 1915 0
-466 -1916 0
317 -1916 0
466 -317 1916 0
744 -1917 0
-998 -1917 0
-744 998 1917 0
926 -1918 0
993 -1918 0
-926 -993 1918 0
436 -1919 0
-797 -1919 0
-436 797 1919 0
-393 -1920 0
980 -1920 0
393 -980 1920 0
240 -1921 0
575 -1921 0
-240 -575 1921 0
711 -1922 0
914 -1922 0
-711 -914 1922 0
-497 -1923 0
586 -1923 0
497 -586 1923 0
-827 -1924 0
20 -1924 0
827 -20 1924 0
-936 -1925 0
896 -1925 0
936 -896 1925 0
-939 -1926 0
762 -1926 0
939 -762 1926 0
440 -1927 0
-782 -1927 0
-440 782 1927 0
831 -1928 0
229 -1928 0
-831 -229 1928 0
-956 -1929 0
378 -1929 0
956 -378 1929 0
-870 -1930 0
769 -1930 0
870 -769 1930 0
776 -1931 0
-339 -1931 0
-776 339 1931 0
558 -1932 0
250 -1932 0
-558 -250 1932 0
-435 -1933 0
467 -1933 0
435 -467 1933 0
784 -1934 0
-171 -1934 0
-784 171 1934 0
421 -1935 0
-247 -1935 0
-421 247 1935 0
-697 -1936 0
622 -1936 0
697 -622 1936 0
-929 -1937 0
294 -1937 0
929 -294 1937 0
-221 -1938 0
905 -1938 0
221 -905 1938 0
964 -1939 0
786 -1939 0
-964 -786 1939 0
-412 -1940 0
305 -1940 0
412 -305 1940 0
747 -1941 0
953 -1941 0
-747 -953 1941 0
767 -1942 0
-286 -1942 0
-767 286 1942 0
-969 -1943 0
577 -1943 0
969 -577 1943 0
563 -1944 0
898 -1944 0
-563 -898 1944 0
-488 -1945 0
428 -1945 0
488 -428 1945 0
700 -1946 0
842 -1946 0
-700 -842 1946 0
332 -1947 0
-198 -1947 0
-332 198 1947 0
666 -1948 0
-735 -1948 0
-666 735 1948 0
132 -1949 0
-949 -1949 0
-132 949 1949 0
819 -1950 0
-542 -1950 0
-819 542 1950 0
257 -1951 0
-767 -1951 0
-257 767 1951 0
710 -1952 0
426 -1952 0
-710 -426 1952 0
352 -1953 0
721 -1953 0
-352 -721 1953 0
-267 -1954 0
713 -1954 0
267 -713 1954 0
-164 -1955 0
433 -1955 0
164 -433 1955 0
-456 -1956 0
399 -1956 0
456 -399 1956 0
710 -1957 0
117 -1957 0
-710 -117 1957 0
-51 -1958 0
618 -1958 0
51 -618 1958 0
370 -1959 0
921 -1959 0
-370 -921 1959 0
-316 -1960 0
745 -1960 0
316 -745 1960 0
-18 -1961 0
850 -1961 0
18 -850 1961 0
-734 -1962 0
729 -1962 0
734 -729 1962 0
840 -1963 0
-489 -1963 0
-840 489 1963 0
962 -1964 0
-591 -1964 0
-962 591 1964 0
-721 -1965 0
145 -1965 0
721 -145 1965 0
163 -1966 0
9 -1966 0
-163 -9 1966 0
-502 -1967 0
73 -1967 0
502 -73 1967 0
58 -1968 0
-239 -1968 0
-58 239 1968 0
925 -1969 0
865 -1969 0
-925 -865 1969 0
687 -1970 0
733 -1970 0
-687 -733 1970 0
-233 -1971 0
676 -1971 0
233 -676 1971 0
-290 -1972 0
141 -1972 0
290 -141 1972 0
-57 -1973 0
995 -1973 0
57 -995 1973 0
-168 -1974 0
217 -1974 0
168 -217 1974 0
54 -1975 0
222 -1975 0
-54 -222 1975 0
-160 -1976 0
230 -1976 0
160 -230 1976 0
880 -1977 0
559 -1977 0
-880 -559 1977 0
165 -1978 0
-198 -1978 0
-165 198 1978 0
-331 -1979 0
153 -1979 0
331 -153 1979 0
39 -1980 0
-669 -1980 0
-39 669 1980 0
927 -1981 0
-66 -1981 0
-927 66 1981 0
668 -1982 0
468 -1982 0
-668 -468 1982 0
941 -1983 0
160 -1984 0
-244 -1984 0
-160 244 1984 0
687 -1985 0
607 -1985 0
-687 -607 1985 0
-750 -1986 0
241 -1986 0
750 -241 1986 0
624 -1987 0
601 -1987 0
-624 -601 1987 0
-209 -1988 0
135 -1988 0
209 -135 1988 0
917 -1989 0
-188 -1989 0
-917 188 1989 0
733 -1990 0
172 -1990 0
-733 -172 1990 0
-321 -1991 0
516 -1991 0
321 -516 1991 0
206 -1992 0
178 -1992 0
-206 -178 1992 0
-892 -1993 0
809 -1993 0
892 -809 1993 0
583 -1994 0
-282 -1994 0
-583 282 1994 0
563 -1995 0
-542 -1995 0
-563 542 1995 0
14 -1996 0
49 -1996 0
-14 -49 1996 0
205 -1997 0
-732 -1997 0
-205 732 1997 0
551 -1998 0
-86 -1998 0
-551 86 1998 0
237 -1999 0
-692 -1999 0
-237 692 1999 0
-922 -2000 0
11 -2000 0
922 -11 2000 0
446 -2001 0
604 -2001 0
-446 -604 2001 0
359 -2002 0
294 -2002 0
-359 -294 2002 0
77 -2003 0
-501 -2003 0
-77 501 2003 0
-684 -2004 0
185 -2004 0
684 -185 2004 0
458 -2005 0
265 -2005 0
-458 -265 2005 0
-912 -2006 0
939 -2006 0
912 -939 2006 0
344 -2007 0
-450 -2007 0
-344 450 2007 0
900 -2008 0
-550 -2008 0
-900 550 2008 0
447 -2009 0
-179 -2009 0
-447 179 2009 0
-360 -2010 0
595 -2010 0
360 -595 2010 0
-100 -2011 0
954 -2011 0
100 -954 2011 0
813 -2012 0
-852 -2012 0
-813 852 2012 0
-808 -2013 0
765 -2013 0
808 -765 2013 0
308 -2014 0
-861 -2014 0
-308 861 2014 0
472 -2015 0
111 -2015 0
-472 -111 2015 0
150 -2016 0
-406 -2016 0
-150 406 2016 0
132 -2017 0
-735 -2017 0
-132 735 2017 0
707 -2018 0
1 -2018 0
-707 -1 2018 0
-505 -2019 0
741 -2019 0
505 -741 2019 0
-417 -2020 0
876 -2020 0
417 -876 2020 0
382 -2021 0
-885 -2021 0
-382 885 2021 0
-322 -2022 0
905 -2022 0
322 -905 2022 0
-978 -2023 0
413 -2023 0
978 -413 2023 0
266 -2024 0
-207 -2024 0
-266 207 2024 0
110 -2025 0
-651 -2025 0
-110 651 2025 0
-790 -2026 0
361 -2026 0
790 -361 2026 0
43 -2027 0
-870 -2027 0
-43 870 2027 0
374 -2028 0
501 -2028 0
-374 -501 2028 0
717 -2029 0
-300 -2029 0
-717 300 2029 0
252 -2030 0
-935 -2030 0
-252 935 2030 0
222 -2031 0
-621 -2031 0
-222 621 2031 0
933 -2032 0
-6 -2032 0
-933 6 2032 0
491 -2033 0
-446 -2033 0
-491 446 2033 0
557 -2034 0
-166 -2034 0
-557 166 2034 0
-497 -2035 0
386 -2035 0
497 -386 2035 0
-937 -2036 0
214 -2036 0
937 -214 2036 0
774 -2037 0
371 -2037 0
-774 -371 2037 0
142 -2038 0
-751 -2038 0
-142 751 2038 0
-369 -2039 0
765 -2039 0
369 -765 2039 0
-92 -2040 0
435 -2040 0
92 -435 2040 0
-616 -2041 0
206 -2041 0
616 -206 2041 0
-88 -2042 0
847 -2042 0
88 -847 2042 0
39 -2043 0
-11 -2043 0
-39 11 2043 0
983 -2044 0
-343 -2044 0
-983 343 2044 0
139 -2045 0
-167 -2045 0
-139 167 2045 0
-515 -2046 0
413 -2046 0
515 -413 2046 0
144 -2047 0
24 -2047 0
-144 -24 2047 0
-744 -2048 0
315 -2048 0
744 -315 2048 0
873 -2049 0
-175 -2049 0
-873 175 2049 0
263 -2050 0
797 -2050 0
-263 -797 2050 0
976 -2051 0
-362 -2051 0
-976 362 2051 0
208 -2052 0
367 -2052 0
-208 -367 2052 0
95 -2053 0
170 -2053 0
-95 -170 2053 0
892 -2054 0
-391 -2054 0
-892 391 2054 0
-922 -2055 0
754 -2055 0
922 -754 2055 0
-370 -2056 0
214 -2056 0
370 -214 2056 0
924 -2057 0
682 -2057 0
-924 -682 2057 0
471 -2058 0
-459 -2058 0
-471 459 2058 0
984 -2059 0
76 -2059 0
-984 -76 2059 0
143 -2060 0
-615 -2060 0
-143 615 2060 0
-187 -2061 0
89 -2061 0
187 -89 2061 0
270 -2062 0
921 -2062 0
-270 -921 2062 0
838 -2063 0
-798 -2063 0
-838 798 2063 0
-96 -2064 0
477 -2064 0
96 -477 2064 0
-778 -2065 0
837 -2065 0
778 -837 2065 0
224 -2066 0
387 -2066 0
-224 -387 2066 0
860 -2067 0
-15 -2067 0
-860 15 2067 0
830 -2068 0
-476 -2068 0
-830 476 2068 0
76 -2069 0
228 -2069 0
-76 -228 2069 0
432 -2070 0
370 -2070 0
-432 -370 2070 0
-369 -2071 0
442 -2071 0
369 -442 2071 0
-617 -2072 0
910 -2072 0
617 -910 2072 0
-501 -2073 0
722 -2073 0
501 -722 2073 0
292 -2074 0
-476 -2074 0
-292 476 2074 0
-853 -2075 0
305 -2075 0
853 -305 2075 0
-499 -2076 0
645 -2076 0
499 -645 2076 0
886 -2077 0
381 -2077 0
-886 -381 2077 0
-77 -2078 0
505 -2078 0
77 -505 2078 0
111 -2079 0
229 -2079 0
-111 -229 2079 0
124 -2080 0
-644 -2080 0
-124 644 2080 0
259 -2081 0
346 -2081 0
-259 -346 2081 0
728 -2082 0
-368 -2082 0
-728 368 2082 0
51 -2083 0
-198 -2083 0
-51 198 2083 0
599 -2084 0
603 -2084 0
-599 -603 2084 0
157 -2085 0
707 -2085 0
-157 -707 2085 0
275 -2086 0
586 -2086 0
-275 -586 2086 0
452 -2087 0
-999 -2087 0
-452 999 2087 0
190 -2088 0
521 -2088 0
-190 -521 2088 0
112 -2089 0
652 -2089 0
-112 -652 2089 0
832 -2090 0
-287 -2090 0
-832 287 2090 0
813 -2091 0
805 -2091 0
-813 -805 2091 0
480 -2092 0
-248 -2092 0
-480 248 2092 0
-424 -2093 0
898 -2093 0
424 -898 2093 0
379 -2094 0
706 -2094 0
-379 -706 2094 0
-401 -2095 0
797 -2095 0
401 -797 2095 0
111 -2096 0
-482 -2096 0
-111 482 2096 0
324 -2097 0
978 -2097 0
-324 -978 2097 0
359 -2098 0
675 -2098 0
-359 -675 2098 0
299 -2099 0
441 -2099 0
-299 -441 2099 0
-363 -2100 0
5 -2100 0
363 -5 2100 0
951 -2101 0
604 -2101 0
-951 -604 2101 0
615 -2102 0
-66 -2102 0
-615 66 2102 0
-505 -2103 0
795 -2103 0
505 -795 2103 0
24 -2104 0
-587 -2104 0
-24 587 2104 0
687 -2105 0
-86 -2105 0
-687 86 2105 0
463 -2106 0
60 -2106 0
-463 -60 2106 0
478 -2107 0
-741 -2107 0
-478 741 2107 0
574 -2108 0
908 -2108 0
-574 -908 2108 0
-200 -2109 0
416 -2109 0
200 -416 2109 0
-845 -2110 0
961 -2110 0
845 -961 2110 0
-825 -2111 0
791 -2111 0
825 -791 2111 0
375 -2112 0
765 -2112 0
-375 -765 2112 0
800 -2113 0
182 -2113 0
-800 -182 2113 0
115 -2114 0
-23 -2114 0
-115 23 2114 0
-432 -2115 0
4 -2115 0
432 -4 2115 0
-416 -2116 0
860 -2116 0
416 -860 2116 0
542 -2117 0
-900 -2117 0
-542 900 2117 0
-504 -2118 0
834 -2118 0
504 -834 2118 0
614 -2119 0
-325 -2119 0
-614 325 2119 0
-219 -2120 0
225 -2120 0
219 -225 2120 0
762 -2121 0
-503 -2121 0
-762 503 2121 0
-977 -2122 0
363 -2122 0
977 -363 2122 0
768 -2123 0
-826 -2123 0
-768 826 2123 0
-501 -2124 0
114 -2124 0
501 -114 2124 0
152 -2125 0
-160 -2125 0
-152 160 2125 0
775 -2126 0
-972 -2126 0
-775 972 2126 0
-119 -2127 0
121 -2127 0
119 -121 2127 0
-234 -2128 0
316 -2128 0
234 -316 2128 0
813 -2129 0
-807 -2129 0
-813 807 2129 0
-25 -2130 0
324 -2130 0
25 -324 2130 0
791 -2131 0
-378 -2131 0
-791 378 2131 0
495 -2132 0
-799 -2132 0
-495 799 2132 0
150 -2133 0
418 -2133 0
-150 -418 2133 0
-659 -2134 0
67 -2134 0
659 -67 2134 0
32 -2135 0
-596 -2135 0
-32 596 2135 0
662 -2136 0
476 -2136 0
-662 -476 2136 0
988 -2137 0
-735 -2137 0
-988 735 2137 0
320 -2138 0
596 -2138 0
-320 -596 2138 0
791 -2139 0
947 -2139 0
-791 -947 2139 0
303 -2140 0
-455 -2140 0
-303 455 2140 0
784 -2141 0
-355 -2141 0
-784 355 2141 0
83 -2142 0
786 -2142 0
-83 -786 2142 0
624 -2143 0
-345 -2143 0
-624 345 2143 0
-72 -2144 0
821 -2144 0
72 -821 2144 0
169 -2145 0
310 -2146 0
309 -2146 0
-310 -309 2146 0
213 -2147 0
-443 -2147 0
-213 443 2147 0
15 -2148 0
209 -2148 0
-15 -209 2148 0
-168 -2149 0
487 -2149 0
168 -487 2149 0
-805 -2150 0
633 -2150 0
805 -633 2150 0
501 -2151 0
261 -2151 0
-501 -261 2151 0
-707 -2152 0
618 -2152 0
707 -618 2152 0
799 -2153 0
-390 -2153 0
-799 390 2153 0
315 -2154 0
-701 -2154 0
-315 701 2154 0
896 -2155 0
102 -2155 0
-896 -102 2155 0
112 -2156 0
169 -2156 0
-112 -169 2156 0
-768 -2157 0
185 -2157 0
768 -185 2157 0
-860 -2158 0
201 -2158 0
860 -201 2158 0
515 -2159 0
-685 -2159 0
-515 685 2159 0
600 -2160 0
-529 -2160 0
-600 529 2160 0
-219 -2161 0
156 -2161 0
219 -156 2161 0
-392 -2162 0
700 -2162 0
392 -700 2162 0
990 -2163 0
-454 -2163 0
-990 454 2163 0
400 -2164 0
752 -2164 0
-400 -752 2164 0
850 -2165 0
-927 -2165 0
-850 927 2165 0
-872 -2166 0
440 -2166 0
872 -440 2166 0
249 -2167 0
905 -2167 0
-249 -905 2167 0
568 -2168 0
15 -2168 0
-568 -15 2168 0
-227 -2169 0
41 -2169 0
227 -41 2169 0
190 -2170 0
97 -2170 0
-190 -97 2170 0
-120 -2171 0
316 -2171 0
120 -316 2171 0
-865 -2172 0
873 -2172 0
865 -873 2172 0
-360 -2173 0
228 -2173 0
360 -228 2173 0
145 -2174 0
265 -2174 0
-145 -265 2174 0
972 -2175 0
865 -2175 0
-972 -865 2175 0
-230 -2176 0
641 -2176 0
230 -641 2176 0
318 -2177 0
-164 -2177 0
-318 164 2177 0
412 -2178 0
466 -2178 0
-412 -466 2178 0
103 -2179 0
645 -2179 0
-103 -645 2179 0
522 -2180 0
-119 -2180 0
-522 119 2180 0
-924 -2181 0
161 -2181 0
924 -161 2181 0
-312 -2182 0
315 -2182 0
312 -315 2182 0
-850 -2183 0
494 -2183 0
850 -494 2183 0
48 -2184 0
-553 -2184 0
-48 553 2184 0
-845 -2185 0
66 -2185 0
845 -66 2185 0
823 -2186 0
-891 -2186 0
-823 891 2186 0
253 -2187 0
-790 -2187 0
-253 790 2187 0
-444 -2188 0
684 -2188 0
444 -684 2188 0
554 -2189 0
610 -2189 0
-554 -610 2189 0
894 -2190 0
745 -2190 0
-894 -745 2190 0
863 -2191 0
766 -2191 0
-863 -766 2191 0
214 -2192 0
313 -2192 0
-214 -313 2192 0
-851 -2193 0
521 -2193 0
851 -521 2193 0
-10 -2194 0
330 -2194 0
10 -330 2194 0
-861 -2195 0
17 -2195 0
861 -17 2195 0
835 -2196 0
82 -2196 0
-835 -82 2196 0
792 -2197 0
-77 -2197 0
-792 77 2197 0
183 -2198 0
686 -2198 0
-183 -686 2198 0
917 -2199 0
-676 -2199 0
-917 676 2199 0
25 -2200 0
905 -2200 0
-25 -905 2200 0
928 -2201 0
-43 -2201 0
-928 43 2201 0
-659 -2202 0
10 -2202 0
659 -10 2202 0
678 -2203 0
-78 -2203 0
-678 78 2203 0
559 -2204 0
340 -2204 0
-559 -340 2204 0
983 -2205 0
-54 -2205 0
-983 54 2205 0
460 -2206 0
-845 -2206 0
-460 845 2206 0
104 -2207 0
692 -2207 0
-104 -692 2207 0
774 -2208 0
734 -2208 0
-774 -734 2208 0
119 -2209 0
17 -2209 0
-119 -17 2209 0
621 -2210 0
641 -2210 0
-621 -641 2210 0
-216 -2211 0
689 -2211 0
216 -689 2211 0
18 -2212 0
-263 -2212 0
-18 263 2212 0
-3 -2213 0
266 -2213 0
3 -266 2213 0
600 -2214 0
-323 -2214 0
-600 323 2214 0
38 -2215 0
405 -2215 0
-38 -405 2215 0
839 -2216 0
-194 -2216 0
-839 194 2216 0
-168 -2217 0
468 -2217 0
168 -468 2217 0
159 -2218 0
838 -2218 0
-159 -838 2218 0
168 -2219 0
-784 -2219 0
-168 784 2219 0
15 -2220 0
-807 -2220 0
-15 807 2220 0
796 -2221 0
858 -2221 0
-796 -858 2221 0
-308 -2222 0
337 -2222 0
308 -337 2222 0
-729 -2223 0
716 -2223 0
729 -716 2223 0
-257 -2224 0
45 -2224 0
257 -45 2224 0
745 -2225 0
-951 -2225 0
-745 951 2225 0
174 -2226 0
-415 -2226 0
-174 415 2226 0
-626 -2227 0
865 -2227 0
626 -865 2227 0
171 -2228 0
-205 -2228 0
-171 205 2228 0
-179 -2229 0
885 -2229 0
179 -885 2229 0
376 -2230 0
770 -2230 0
-376 -770 2230 0
759 -2231 0
817 -2231 0
-759 -817 2231 0
792 -2232 0
-477 -2232 0
-792 477 2232 0
846 -2233 0
709 -2233 0
-846 -709 2233 0
-477 -2234 0
995 -2234 0
477 -995 2234 0
-298 -2235 0
461 -2235 0
298 -461 2235 0
-688 -2236 0
718 -2236 0
688 -718 2236 0
43 -2237 0
377 -2237 0
-43 -377 2237 0
-723 -2238 0
196 -2238 0
723 -196 2238 0
285 -2239 0
145 -2239 0
-285 -145 2239 0
-746 -2240 0
414 -2240 0
746 -414 2240 0
325 -2241 0
74 -2241 0
-325 -74 2241 0
-498 -2242 0
283 -2242 0
498 -283 2242 0
504 -2243 0
647 -2243 0
-504 -647 2243 0
764 -2244 0
-295 -2244 0
-764 295 2244 0
-610 -2245 0
849 -2245 0
610 -849 2245 0
375 -2246 0
-279 -2246 0
-375 279 2246 0
237 -2247 0
324 -2247 0
-237 -324 2247 0
167 -2248 0
734 -2248 0
-167 -734 2248 0
304 -2249 0
668 -2249 0
-304 -668 2249 0
423 -2250 0
-251 -2250 0
-423 251 2250 0
-937 -2251 0
781 -2251 0
937 -781 2251 0
948 -2252 0
793 -2252 0
-948 -793 2252 0
916 -2253 0
-919 -2253 0
-916 919 2253 0
440 -2254 0
-495 -2254 0
-440 495 2254 0
304 -2255 0
547 -2255 0
-304 -547 2255 0
-137 -2256 0
262 -2256 0
137 -262 2256 0
-732 -2257 0
849 -2257 0
732 -849 2257 0
566 -2258 0
-546 -2258 0
-566 546 2258 0
552 -2259 0
-941 -2259 0
-552 941 2259 0
-232 -2260 0
853 -2260 0
232 -853 2260 0
-162 -2261 0
387 -2261 0
162 -387 2261 0
174 -2262 0
221 -2262 0
-174 -221 2262 0
75 -2263 0
169 -2263 0
-75 -169 2263 0
-347 -2264 0
113 -2264 0
347 -113 2264 0
885 -2265 0
-445 -2265 0
-885 445 2265 0
-634 -2266 0
988 -2266 0
634 -988 2266 0
416 -2267 0
548 -2267 0
-416 -548 2267 0
437 -2268 0
-981 -2268 0
-437 981 2268 0
-952 -2269 0
797 -2269 0
952 -797 2269 0
240 -2270 0
-322 -2270 0
-240 322 2270 0
-794 -2271 0
965 -2271 0
794 -965 2271 0
48 -2272 0
-367 -2272 0
-48 367 2272 0
233 -2273 0
-39 -2273 0
-233 39 2273 0
741 -2274 0
41 -2274 0
-741 -41 2274 0
798 -2275 0
25 -2275 0
-798 -25 2275 0
534 -2276 0
-119 -2276 0
-534 119 2276 0
104 -2277 0
330 -2277 0
-104 -330 2277 0
768 -2278 0
984 -2278 0
-768 -984 2278 0
378 -2279 0
-703 -2279 0
-378 703 2279 0
76 -2280 0
-279 -2280 0
-76 279 2280 0
691 -2281 0
34 -2281 0
-691 -34 2281 0
988 -2282 0
-837 -2282 0
-988 837 2282 0
223 -2283 0
757 -2283 0
-223 -757 2283 0
479 -2284 0
215 -2284 0
-479 -215 2284 0
-130 -2285 0
341 -2285 0
130 -341 2285 0
-641 -2286 0
902 -2286 0
641 -902 2286 0
558 -2287 0
353 -2287 0
-558 -353 2287 0
-724 -2288 0
259 -2288 0
724 -259 2288 0
430 -2289 0
181 -2289 0
-430 -181 2289 0
21 -2290 0
115 -2290 0
-21 -115 2290 0
640 -2291 0
301 -2291 0
-640 -301 2291 0
905 -2292 0
817 -2292 0
-905 -817 2292 0
-610 -2293 0
154 -2293 0
610 -154 2293 0
207 -2294 0
-362 -2294 0
-207 362 2294 0
-681 -2295 0
163 -2295 0
681 -163 2295 0
-368 -2296 0
794 -2296 0
368 -794 2296 0
846 -2297 0
-428 -2297 0
-846 428 2297 0
488 -2298 0
-60 -2298 0
-488 60 2298 0
501 -2299 0
-967 -2299 0
-501 967 2299 0
392 -2300 0
118 -2300 0
-392 -118 2300 0
584 -2301 0
-899 -2301 0
-584 899 2301 0
-379 -2302 0
426 -2302 0
379 -426 2302 0
336 -2303 0
-4 -2303 0
-336 4 2303 0
88 -2304 0
-461 -2304 0
-88 461 2304 0
975 -2305 0
-209 -2305 0
-975 209 2305 0
845 -2306 0
114 -2306 0
-845 -114 2306 0
992 -2307 0
451 -2307 0
-992 -451 2307 0
743 -2308 0
-537 -2308 0
-743 537 2308 0
368 -2309 0
-269 -2309 0
-368 269 2309 0
280 -2310 0
-95 -2310 0
-280 95 2310 0
803 -2311 0
-399 -2311 0
-803 399 2311 0
592 -2312 0
15 -2312 0
-592 -15 2312 0
-395 -2313 0
642 -2313 0
395 -642 2313 0
317 -2314 0
466 -2314 0
-317 -466 2314 0
-217 -2315 0
287 -2315 0
217 -287 2315 0
45 -2316 0
-524 -2316 0
-45 524 2316 0
270 -2317 0
-299 -2317 0
-270 299 2317 0
231 -2318 0
993 -2318 0
-231 -993 2318 0
160 -2319 0
229 -2319 0
-160 -229 2319 0
610 -2320 0
394 -2320 0
-610 -394 2320 0
-554 -2321 0
173 -2321 0
554 -173 2321 0
596 -2322 0
387 -2322 0
-596 -387 2322 0
664 -2323 0
671 -2323 0
-664 -671 2323 0
204 -2324 0
658 -2324 0
-204 -658 2324 0
21 -2325 0
-367 -2325 0
-21 367 2325 0
-493 -2326 0
305 -2326 0
493 -305 2326 0
-744 -2327 0
316 -2327 0
744 -316 2327 0
-666 -2328 0
725 -2328 0
666 -725 2328 0
816 -2329 0
602 -2329 0
-816 -602 2329 0
-953 -2330 0
539 -2330 0
953 -539 2330 0
475 -2331 0
786 -2331 0
-475 -786 2331 0
-380 -2332 0
411 -2332 0
380 -411 2332 0
992 -2333 0
170 -2333 0
-992 -170 2333 0
270 -2334 0
-780 -2334 0
-270 780 2334 0
-66 -2335 0
561 -2335 0
66 -561 2335 0
928 -2336 0
-940 -2336 0
-928 940 2336 0
429 -2337 0
113 -2337 0
-429 -113 2337 0
672 -2338 0
864 -2338 0
-672 -864 2338 0
-330 -2339 0
66 -2339 0
330 -66 2339 0
606 -2340 0
485 -2340 0
-606 -485 2340 0
920 -2341 0
826 -2341 0
-920 -826 2341 0
-585 -2342 0
337 -2342 0
585 -337 2342 0
647 -2343 0
-621 -2343 0
-647 621 2343 0
989 -2344 0
234 -2344 0
-989 -234 2344 0
-796 -2345 0
299 -2345 0
796 -299 2345 0
-796 -2346 0
585 -2346 0
796 -585 2346 0
637 -2347 0
217 -2347 0
-637 -217 2347 0
77 -2348 0
-37 -2348 0
-77 37 2348 0
806 -2349 0
809 -2349 0
-806 -809 2349 0
189 -2350 0
-582 -2350 0
-189 582 2350 0
885 -2351 0
-212 -2351 0
-885 212 2351 0
246 -2352 0
131 -2352 0
-246 -131 2352 0
519 -2353 0
-180 -2353 0
-519 180 2353 0
790 -2354 0
-324 -2354 0
-790 324 2354 0
994 -2355 0
-143 -2355 0
-994 143 2355 0
-858 -2356 0
947 -2356 0
858 -947 2356 0
-33 -2357 0
459 -2357 0
33 -459 2357 0
470 -2358 0
-772 -2358 0
-470 772 2358 0
855 -2359 0
-430 -2359 0
-855 430 2359 0
484 -2360 0
611 -2360 0
-484 -611 2360 0
718 -2361 0
453 -2361 0
-718 -453 2361 0
-256 -2362 0
447 -2362 0
256 -447 2362 0
-656 -2363 0
695 -2363 0
656 -695 2363 0
172 -2364 0
505 -2364 0
-172 -505 2364 0
-222 -2365 0
417 -2365 0
222 -417 2365 0
-293 -2366 0
442 -2366 0
293 -442 2366 0
387 -2367 0
939 -2367 0
-387 -939 2367 0
724 -2368 0
17 -2368 0
-724 -17 2368 0
997 -2369 0
-773 -2369 0
-997 773 2369 0
431 -2370 0
859 -2370 0
-431 -859 2370 0
-82 -2371 0
570 -2371 0
82 -570 2371 0
959 -2372 0
350 -2372 0
-959 -350 2372 0
704 -2373 0
863 -2373 0
-704 -863 2373 0
-458 -2374 0
298 -2374 0
458 -298 2374 0
500 -2375 0
-999 -2375 0
-500 999 2375 0
925 -2376 0
803 -2376 0
-925 -803 2376 0
462 -2377 0
73 -2377 0
-462 -73 2377 0
-912 -2378 0
420 -2378 0
912 -420 2378 0
462 -2379 0
587 -2379 0
-462 -587 2379 0
-850 -2380 0
378 -2380 0
850 -378 2380 0
333 -2381 0
-692 -2381 0
-333 692 2381 0
-396 -2382 0
481 -2382 0
396 -481 2382 0
-279 -2383 0
97 -2383 0
279 -97 2383 0
133 -2384 0
-541 -2384 0
-133 541 2384 0
716 -2385 0
-797 -2385 0
-716 797 2385 0
-276 -2386 0
665 -2386 0
276 -665 2386 0
455 -2387 0
-556 -2387 0
-455 556 2387 0
907 -2388 0
-775 -2388 0
-907 775 2388 0
984 -2389 0
595 -2389 0
-984 -595 2389 0
245 -2390 0
356 -2390 0
-245 -356 2390 0
330 -2391 0
929 -2391 0
-330 -929 2391 0
-885 -2392 0
369 -2392 0
885 -369 2392 0
-492 -2393 0
971 -2393 0
492 -971 2393 0
645 -2394 0
-711 -2394 0
-645 711 2394 0
-784 -2395 0
508 -2395 0
784 -508 2395 0
400 -2396 0
-1000 -2396 0
-400 1000 2396 0
511 -2397 0
453 -2397 0
-511 -453 2397 0
-170 -2398 0
352 -2399 0
-161 -2399 0
-352 161 2399 0
858 -2400 0
-975 -2400 0
-858 975 2400 0
759 -2401 0
-5 -2401 0
-759 5 2401 0
-529 -2402 0
772 -2402 0
529 -772 2402 0
-291 -2403 0
58 -2403 0
291 -58 2403 0
598 -2404 0
174 -2404 0
-598 -174 2404 0
80 -2405 0
-633 -2405 0
-80 633 2405 0
760 -2406 0
916 -2406 0
-760 -916 2406 0
875 -2407 0
793 -2407 0
-875 -793 2407 0
-909 -2408 0
346 -2408 0
909 -346 2408 0
164 -2409 0
521 -2409 0
-164 -521 2409 0
911 -2410 0
-691 -2410 0
-911 691 2410 0
744 -2411 0
-506 -2411 0
-744 506 2411 0
-249 -2412 0
425 -2412 0
249 -425 2412 0
195 -2413 0
489 -2413 0
-195 -489 2413 0
918 -2414 0
-796 -2414 0
-918 796 2414 0
451 -2415 0
627 -2415 0
-451 -627 2415 0
-673 -2416 0
627 -2416 0
673 -627 2416 0
613 -2417 0
572 -2417 0
-613 -572 2417 0
480 -2418 0
-517 -2418 0
-480 517 2418 0
156 -2419 0
-820 -2419 0
-156 820 2419 0
511 -2420 0
181 -2420 0
-511 -181 2420 0
-667 -2421 0
66 -2421 0
667 -66 2421 0
935 -2422 0
249 -2422 0
-935 -249 2422 0
838 -2423 0
-658 -2423 0
-838 658 2423 0
552 -2424 0
263 -2424 0
-552 -263 2424 0
74 -2425 0
-750 -2425 0
-74 750 2425 0
1000 -2426 0
231 -2426 0
-1000 -231 2426 0
311 -2427 0
363 -2427 0
-311 -363 2427 0
-520 -2428 0
30 -2428 0
520 -30 2428 0
351 -2429 0
-638 -2429 0
-351 638 2429 0
784 -2430 0
-994 -2430 0
-784 994 2430 0
-681 -2431 0
489 -2431 0
681 -489 2431 0
4 -2432 0
-901 -2432 0
-4 901 2432 0
418 -2433 0
746 -2433 0
-418 -746 2433 0
-425 -2434 0
351 -2434 0
425 -351 2434 0
141 -2435 0
474 -2435 0
-141 -474 2435 0
-985 -2436 0
402 -2436 0
985 -402 2436 0
-582 -2437 0
801 -2437 0
582 -801 2437 0
151 -2438 0
194 -2438 0
-151 -194 2438 0
878 -2439 0
610 -2439 0
-878 -610 2439 0
351 -2440 0
41 -2440 0
-351 -41 2440 0
331 -2441 0
115 -2441 0
-331 -115 2441 0
372 -2442 0
-485 -2442 0
-372 485 2442 0
-210 -2443 0
84 -2443 0
210 -84 2443 0
-210 -2444 0
963 -2444 0
210 -963 2444 0
620 -2445 0
-350 -2445 0
-620 350 2445 0
271 -2446 0
820 -2446 0
-271 -820 2446 0
-796 -2447 0
130 -2447 0
796 -130 2447 0
600 -2448 0
-314 -2448 0
-600 314 2448 0
71 -2449 0
54 -2449 0
-71 -54 2449 0
191 -2450 0
-381 -2450 0
-191 381 2450 0
-380 -2451 0
307 -2451 0
380 -307 2451 0
151 -2452 0
260 -2452 0
-151 -260 2452 0
-273 -2453 0
803 -2453 0
273 -803 2453 0
706 -2454 0
-439 -2454 0
-706 439 2454 0
764 -2455 0
-325 -2455 0
-764 325 2455 0
-297 -2456 0
714 -2456 0
297 -714 2456 0
789 -2457 0
-518 -2457 0
-789 518 2457 0
575 -2458 0
-484 -2458 0
-575 484 2458 0
588 -2459 0
-814 -2459 0
-588 814 2459 0
607 -2460 0
676 -2460 0
-607 -676 2460 0
-394 -2461 0
851 -2461 0
394 -851 2461 0
-738 -2462 0
449 -2462 0
738 -449 2462 0
504 -2463 0
116 -2463 0
-504 -116 2463 0
544 -2464 0
-347 -2464 0
-544 347 2464 0
688 -2465 0
538 -2465 0
-688 -538 2465 0
790 -2466 0
421 -2466 0
-790 -421 2466 0
662 -2467 0
513 -2467 0
-662 -513 2467 0
959 -2468 0
-68 -2468 0
-959 68 2468 0
409 -2469 0
609 -2469 0
-409 -609 2469 0
742 -2470 0
-339 -2470 0
-742 339 2470 0
-785 -2471 0
270 -2471 0
785 -270 2471 0
508 -2472 0
507 -2472 0
-508 -507 2472 0
335 -2473 0
-139 -2473 0
-335 139 2473 0
142 -2474 0
418 -2474 0
-142 -418 2474 0
-808 -2475 0
61 -2475 0
808 -61 2475 0
776 -2476 0
-813 -2476 0
-776 813 2476 0
296 -2477 0
765 -2477 0
-296 -765 2477 0
846 -2478 0
289 -2478 0
-846 -289 2478 0
-467 -2479 0
786 -2479 0
467 -786 2479 0
213 -2480 0
-414 -2480 0
-213 414 2480 0
432 -2481 0
-89 -2481 0
-432 89 2481 0
195 -2482 0
-591 -2482 0
-195 591 2482 0
856 -2483 0
390 -2483 0
-856 -390 2483 0
461 -2484 0
5 -2484 0
-461 -5 2484 0
303 -2485 0
-746 -2485 0
-303 746 2485 0
-629 -2486 0
203 -2486 0
629 -203 2486 0
144 -2487 0
980 -2487 0
-144 -980 2487 0
312 -2488 0
735 -2488 0
-312 -735 2488 0
877 -2489 0
-270 -2489 0
-877 270 2489 0
64 -2490 0
164 -2490 0
-64 -164 2490 0
-744 -2491 0
982 -2491 0
744 -982 2491 0
-545 -2492 0
322 -2492 0
545 -322 2492 0
-97 -2493 0
885 -2493 0
97 -885 2493 0
-697 -2494 0
659 -2494 0
697 -659 2494 0
533 -2495 0
763 -2495 0
-533 -763 2495 0
-962 -2496 0
564 -2496 0
962 -564 2496 0
808 -2497 0
-9 -2497 0
-808 9 2497 0
-458 -2498 0
755 -2498 0
458 -755 2498 0
278 -2499 0
532 -2499 0
-278 -532 2499 0
-731 -2500 0
139 -2500 0
731 -139 2500 0
472 -2501 0
493 -2501 0
-472 -493 2501 0
879 -2502 0
-29 -2502 0
-879 29 2502 0
646 -2503 0
977 -2503 0
-646 -977 2503 0
590 -2504 0
450 -2504 0
-590 -450 2504 0
536 -2505 0
197 -2505 0
-536 -197 2505 0
12 -2506 0
-630 -2506 0
-12 630 2506 0
557 -2507 0
428 -2507 0
-557 -428 2507 0
463 -2508 0
-681 -2508 0
-463 681 2508 0
565 -2509 0
634 -2509 0
-565 -634 2509 0
221 -2510 0
-429 -2510 0
-221 429 2510 0
-377 -2511 0
517 -2511 0
377 -517 2511 0
-464 -2512 0
262 -2512 0
464 -262 2512 0
46 -2513 0
-36 -2513 0
-46 36 2513 0
925 -2514 0
-383 -2514 0
-925 383 2514 0
365 -2515 0
635 -2515 0
-365 -635 2515 0
-96 -2516 0
837 -2516 0
96 -837 2516 0
486 -2517 0
-743 -2517 0
-486 743 2517 0
347 -2518 0
641 -2518 0
-347 -641 2518 0
-432 -2519 0
668 -2519 0
432 -668 2519 0
757 -2520 0
-419 -2520 0
-757 419 2520 0
197 -2521 0
-995 -2521 0
-197 995 2521 0
949 -2522 0
474 -2522 0
-949 -474 2522 0
309 -2523 0
293 -2523 0
-309 -293 2523 0
772 -2524 0
-15 -2524 0
-772 15 2524 0
-220 -2525 0
739 -2525 0
220 -739 2525 0
128 -2526 0
-622 -2526 0
-128 622 2526 0
847 -2527 0
817 -2527 0
-847 -817 2527 0
959 -2528 0
412 -2528 0
-959 -412 2528 0
-756 -2529 0
554 -2529 0
756 -554 2529 0
863 -2530 0
774 -2530 0
-863 -774 2530 0
-100 -2531 0
731 -2531 0
100 -731 2531 0
-622 -2532 0
785 -2532 0
622 -785 2532 0
-332 -2533 0
842 -2533 0
332 -842 2533 0
318 -2534 0
774 -2534 0
-318 -774 2534 0
686 -2535 0
860 -2535 0
-686 -860 2535 0
612 -2536 0
-44 -2536 0
-612 44 2536 0
804 -2537 0
-404 -2537 0
-804 404 2537 0
687 -2538 0
-374 -2538 0
-687 374 2538 0
64 -2539 0
111 -2539 0
-64 -111 2539 0
111 -2540 0
-638 -2540 0
-111 638 2540 0
-154 -2541 0
477 -2541 0
154 -477 2541 0
36 -2542 0
51 -2542 0
-36 -51 2542 0
454 -2543 0
-52 -2543 0
-454 52 2543 0
52 -2544 0
324 -2544 0
-52 -324 2544 0
563 -2545 0
-550 -2545 0
-563 550 2545 0
208 -2546 0
-438 -2546 0
-208 438 2546 0
839 -2547 0
-350 -2547 0
-839 350 2547 0
725 -2548 0
-742 -2548 0
-725 742 2548 0
624 -2549 0
-63 -2549 0
-624 63 2549 0
50 -2550 0
193 -2550 0
-50 -193 2550 0
900 -2551 0
785 -2551 0
-900 -785 2551 0
-948 -2552 0
497 -2552 0
948 -497 2552 0
976 -2553 0
226 -2553 0
-976 -226 2553 0
216 -2554 0
-135 -2554 0
-216 135 2554 0
-652 -2555 0
385 -2555 0
652 -385 2555 0
676 -2556 0
-295 -2556 0
-676 295 2556 0
759 -2557 0
531 -2557 0
-759 -531 2557 0
-129 -2558 0
25 -2558 0
129 -25 2558 0
508 -2559 0
331 -2559 0
-508 -331 2559 0
247 -2560 0
379 -2560 0
-247 -379 2560 0
606 -2561 0
-429 -2561 0
-606 429 2561 0
966 -2562 0
490 -2562 0
-966 -490 2562 0
-858 -2563 0
885 -2563 0
858 -885 2563 0
-480 -2564 0
765 -2564 0
480 -765 2564 0
168 -2565 0
597 -2565 0
-168 -597 2565 0
236 -2566 0
33 -2566 0
-236 -33 2566 0
-171 -2567 0
788 -2567 0
171 -788 2567 0
518 -2568 0
-486 -2568 0
-518 486 2568 0
-266 -2569 0
1 -2569 0
266 -1 2569 0
-891 -2570 0
786 -2570 0
891 -786 2570 0
992 -2571 0
-621 -2571 0
-992 621 2571 0
871 -2572 0
-22 -2572 0
-871 22 2572 0
699 -2573 0
315 -2573 0
-699 -315 2573 0
653 -2574 0
881 -2574 0
-653 -881 2574 0
48 -2575 0
813 -2575 0
-48 -813 2575 0
114 -2576 0
146 -2576 0
-114 -146 2576 0
576 -2577 0
278 -2577 0
-576 -278 2577 0
439 -2578 0
941 -2578 0
-439 -941 2578 0
912 -2579 0
871 -2579 0
-912 -871 2579 0
-17 -2580 0
409 -2580 0
17 -409 2580 0
-386 -2581 0
548 -2581 0
386 -548 2581 0
340 -2582 0
-855 -2582 0
-340 855 2582 0
70 -2583 0
-446 -2583 0
-70 446 2583 0
277 -2584 0
361 -2584 0
-277 -361 2584 0
71 -2585 0
669 -2585 0
-71 -669 2585 0
-396 -2586 0
803 -2586 0
396 -803 2586 0
447 -2587 0
-316 -2587 0
-447 316 2587 0
-565 -2588 0
682 -2588 0
565 -682 2588 0
999 -2589 0
-150 -2589 0
-999 150 2589 0
496 -2590 0
576 -2590 0
-496 -576 2590 0
-384 -2591 0
242 -2591 0
384 -242 2591 0
742 -2592 0
249 -2592 0
-742 -249 2592 0
173 -2593 0
41 -2593 0
-173 -41 2593 0
942 -2594 0
-278 -2594 0
-942 278 2594 0
256 -2595 0
259 -2595 0
-256 -259 2595 0
860 -2596 0
-205 -2596 0
-860 205 2596 0
912 -2597 0
-441 -2597 0
-912 441 2597 0
958 -2598 0
755 -2598 0
-958 -755 2598 0
600 -2599 0
399 -2599 0
-600 -399 2599 0
-611 -2600 0
100 -2600 0
611 -100 2600 0
-954 -2601 0
957 -2601 0
954 -957 2601 0
755 -2602 0
393 -2602 0
-755 -393 2602 0
663 -2603 0
395 -2603 0
-663 -395 2603 0
-593 -2604 0
145 -2604 0
593 -145 2604 0
716 -2605 0
-94 -2605 0
-716 94 2605 0
583 -2606 0
763 -2606 0
-583 -763 2606 0
-921 -2607 0
727 -2607 0
921 -727 2607 0
213 -2608 0
-149 -2608 0
-213 149 2608 0
192 -2609 0
683 -2609 0
-192 -683 2609 0
336 -2610 0
-903 -2610 0
-336 903 2610 0
-586 -2611 0
717 -2611 0
586 -717 2611 0
-459 -2612 0
67 -2612 0
459 -67 2612 0
447 -2613 0
166 -2613 0
-447 -166 2613 0
104 -2614 0
-755 -2614 0
-104 755 2614 0
263 -2615 0
763 -2615 0
-263 -763 2615 0
72 -2616 0
544 -2616 0
-72 -544 2616 0
264 -2617 0
-116 -2617 0
-264 116 2617 0
576 -2618 0
-923 -2618 0
-576 923 2618 0
301 -2619 0
-389 -2619 0
-301 389 2619 0
-360 -2620 0
710 -2620 0
360 -710 2620 0
549 -2621 0
828 -2621 0
-549 -828 2621 0
-225 -2622 0
25 -2622 0
225 -25 2622 0
-554 -2623 0
419 -2623 0
554 -419 2623 0
443 -2624 0
105 -2624 0
-443 -105 2624 0
618 -2625 0
866 -2625 0
-618 -866 2625 0
970 -2626 0
-30 -2626 0
-970 30 2626 0
552 -2627 0
-688 -2627 0
-552 688 2627 0
407 -2628 0
12 -2628 0
-407 -12 2628 0
351 -2629 0
-403 -2629 0
-351 403 2629 0
40 -2630 0
758 -2630 0
-40 -758 2630 0
-276 -2631 0
425 -2631 0
276 -425 2631 0
908 -2632 0
-823 -2632 0
-908 823 2632 0
-36 -2633 0
980 -2633 0
36 -980 2633 0
-632 -2634 0
636 -2634 0
632 -636 2634 0
748 -2635 0
-373 -2635 0
-748 373 2635 0
145 -2636 0
-439 -2636 0
-145 439 2636 0
-42 -2637 0
426 -2637 0
42 -426 2637 0
30 -2638 0
-998 -2638 0
-30 998 2638 0
71 -2639 0
-999 -2639 0
-71 999 2639 0
-90 -2640 0
586 -2640 0
90 -586 2640 0
-61 -2641 0
843 -2641 0
61 -843 2641 0
24 -2642 0
-915 -2642 0
-24 915 2642 0
32 -2643 0
73 -2643 0
-32 -73 2643 0
-888 -2644 0
471 -2644 0
888 -471 2644 0
166 -2645 0
753 -2645 0
-166 -753 2645 0
698 -2646 0
-542 -2646 0
-698 542 2646 0
413 -2647 0
-391 -2647 0
-413 391 2647 0
299 -2648 0
505 -2648 0
-299 -505 2648 0
-32 -2649 0
298 -2649 0
32 -298 2649 0
-329 -2650 0
345 -2650 0
329 -345 2650 0
327 -2651 0
-350 -2651 0
-327 350 2651 0
184 -2652 0
471 -2652 0
-184 -471 2652 0
437 -2653 0
461 -2653 0
-437 -461 2653 0
-8 -2654 0
507 -2654 0
8 -507 2654 0
-336 -2655 0
555 -2655 0
336 -555 2655 0
750 -2656 0
393 -2656 0
-750 -393 2656 0
-931 -2657 0
993 -2657 0
931 -993 2657 0
671 -2658 0
745 -2658 0
-671 -745 2658 0
759 -2659 0
342 -2659 0
-759 -342 2659 0
677 -2660 0
268 -2660 0
-677 -268 2660 0
-845 -2661 0
705 -2661 0
845 -705 2661 0
-362 -2662 0
309 -2662 0
362 -309 2662 0
608 -2663 0
-509 -2663 0
-608 509 2663 0
592 -2664 0
-991 -2664 0
-592 991 2664 0
-635 -2665 0
613 -2665 0
635 -613 2665 0
683 -2666 0
-183 -2666 0
-683 183 2666 0
198 -2667 0
619 -2667 0
-198 -619 2667 0
-9 -2668 0
93 -2668 0
9 -93 2668 0
-146 -2669 0
649 -2669 0
146 -649 2669 0
-875 -2670 0
905 -2670 0
875 -905 2670 0
889 -2671 0
-55 -2671 0
-889 55 2671 0
460 -2672 0
-125 -2672 0
-460 125 2672 0
805 -2673 0
604 -2673 0
-805 -604 2673 0
136 -2674 0
829 -2674 0
-136 -829 2674 0
-720 -2675 0
246 -2675 0
720 -246 2675 0
224 -2676 0
84 -2676 0
-224 -84 2676 0
208 -2677 0
442 -2677 0
-208 -442 2677 0
374 -2678 0
322 -2678 0
-374 -322 2678 0
-178 -2679 0
521 -2679 0
178 -521 2679 0
282 -2680 0
-807 -2680 0
-282 807 2680 0
475 -2681 0
-527 -2681 0
-475 527 2681 0
870 -2682 0
164 -2682 0
-870 -164 2682 0
606 -2683 0
291 -2683 0
-606 -291 2683 0
984 -2684 0
-224 -2684 0
-984 224 2684 0
92 -2685 0
-62 -2685 0
-92 62 2685 0
-650 -2686 0
674 -2686 0
650 -674 2686 0
546 -2687 0
506 -2687 0
-546 -506 2687 0
767 -2688 0
-895 -2688 0
-767 895 2688 0
693 -2689 0
169 -2689 0
-693 -169 2689 0
295 -2690 0
385 -2690 0
-295 -385 2690 0
-609 -2691 0
83 -2691 0
609 -83 2691 0
-817 -2692 0
113 -2692 0
817 -113 2692 0
814 -2693 0
-915 -2693 0
-814 915 2693 0
502 -2694 0
650 -2694 0
-502 -650 2694 0
-686 -2695 0
122 -2695 0
686 -122 2695 0
-60 -2696 0
826 -2696 0
60 -826 2696 0
872 -2697 0
-204 -2697 0
-872 204 2697 0
302 -2698 0
500 -2698 0
-302 -500 2698 0
628 -2699 0
-685 -2699 0
-628 685 2699 0
30 -2700 0
-735 -2700 0
-30 735 2700 0
-225 -2701 0
546 -2701 0
225 -546 2701 0
-983 -2702 0
393 -2702 0
983 -393 2702 0
414 -2703 0
156 -2703 0
-414 -156 2703 0
176 -2704 0
183 -2704 0
-176 -183 2704 0
77 -2705 0
531 -2705 0
-77 -531 2705 0
805 -2706 0
-764 -2706 0
-805 764 2706 0
526 -2707 0
-614 -2707 0
-526 614 2707 0
374 -2708 0
-773 -2708 0
-374 773 2708 0
659 -2709 0
339 -2709 0
-659 -339 2709 0
983 -2710 0
-741 -2710 0
-983 741 2710 0
286 -2711 0
585 -2711 0
-286 -585 2711 0
-338 -2712 0
315 -2712 0
338 -315 2712 0
-856 -2713 0
449 -2713 0
856 -449 2713 0
27 -2714 0
-133 -2714 0
-27 133 2714 0
192 -2715 0
-502 -2715 0
-192 502 2715 0
-24 -2716 0
413 -2716 0
24 -413 2716 0
-144 -2717 0
854 -2717 0
144 -854 2717 0
61 -2718 0
939 -2718 0
-61 -939 2718 0
-869 -2719 0
666 -2719 0
869 -666 2719 0
174 -2720 0
716 -2720 0
-174 -716 2720 0
-808 -2721 0
739 -2721 0
808 -739 2721 0
-451 -2722 0
713 -2722 0
451 -713 2722 0
951 -2723 0
281 -2723 0
-951 -281 2723 0
688 -2724 0
7 -2724 0
-688 -7 2724 0
534 -2725 0
-606 -2725 0
-534 606 2725 0
-899 -2726 0
81 -2726 0
899 -81 2726 0
-957 -2727 0
746 -2727 0
957 -746 2727 0
-378 -2728 0
492 -2728 0
378 -492 2728 0
997 -2729 0
738 -2729 0
-997 -738 2729 0
-866 -2730 0
654 -2730 0
866 -654 2730 0
968 -2731 0
498 -2731 0
-968 -498 2731 0
208 -2732 0
-83 -2732 0
-208 83 2732 0
572 -2733 0
-236 -2733 0
-572 236 2733 0
-48 -2734 0
628 -2734 0
48 -628 2734 0
-736 -2735 0
437 -2735 0
736 -437 2735 0
271 -2736 0
420 -2736 0
-271 -420 2736 0
816 -2737 0
-189 -2737 0
-816 189 2737 0
521 -2738 0
-615 -2738 0
-521 615 2738 0
878 -2739 0
588 -2739 0
-878 -588 2739 0
941 -2740 0
413 -2740 0
-941 -413 2740 0
-160 -2741 0
820 -2741 0
160 -820 2741 0
951 -2742 0
611 -2742 0
-951 -611 2742 0
5 -2743 0
25 -2743 0
-5 -25 2743 0
551 -2744 0
210 -2744 0
-551 -210 2744 0
-264 -2745 0
253 -2745 0
264 -253 2745 0
239 -2746 0
-685 -2746 0
-239 685 2746 0
-41 -2747 0
614 -2747 0
41 -614 2747 0
-944 -2748 0
371 -2748 0
944 -371 2748 0
548 -2749 0
484 -2749 0
-548 -484 2749 0
583 -2750 0
-78 -2750 0
-583 78 2750 0
-584 -2751 0
507 -2751 0
584 -507 2751 0
768 -2752 0
981 -2752 0
-768 -981 2752 0
853 -2753 0
233 -2753 0
-853 -233 2753 0
-995 -2754 0
530 -2754 0
995 -530 2754 0
80 -2755 0
-847 -2755 0
-80 847 2755 0
848 -2756 0
-371 -2756 0
-848 371 2756 0
-428 -2757 0
611 -2757 0
428 -611 2757 0
688 -2758 0
-982 -2758 0
-688 982 2758 0
-597 -2759 0
602 -2759 0
597 -602 2759 0
-24 -2760 0
751 -2760 0
24 -751 2760 0
903 -2761 0
-59 -2761 0
-903 59 2761 0
-138 -2762 0
130 -2762 0
138 -130 2762 0
215 -2763 0
-30 -2763 0
-215 30 2763 0
916 -2764 0
498 -2764 0
-916 -498 2764 0
531 -2765 0
577 -2765 0
-531 -577 2765 0
32 -2766 0
310 -2766 0
-32 -310 2766 0
500 -2767 0
-229 -2767 0
-500 229 2767 0
944 -2768 0
-7 -2768 0
-944 7 2768 0
221 -2769 0
-387 -2769 0
-221 387 2769 0
12 -2770 0
-159 -2770 0
-12 159 2770 0
638 -2771 0
-429 -2771 0
-638 429 2771 0
318 -2772 0
700 -2772 0
-318 -700 2772 0
190 -2773 0
-214 -2773 0
-190 214 2773 0
182 -2774 0
179 -2774 0
-182 -179 2774 0
-609 -2775 0
651 -2775 0
609 -651 2775 0
120 -2776 0
-676 -2776 0
-120 676 2776 0
-330 -2777 0
150 -2777 0
330 -150 2777 0
808 -2778 0
38 -2778 0
-808 -38 2778 0
-307 -2779 0
172 -2779 0
307 -172 2779 0
828 -2780 0
-661 -2780 0
-828 661 2780 0
311 -2781 0
-665 -2781 0
-311 665 2781 0
-424 -2782 0
100 -2782 0
424 -100 2782 0
-564 -2783 0
850 -2783 0
564 -850 2783 0
-597 -2784 0
282 -2784 0
597 -282 2784 0
215 -2785 0
-19 -2785 0
-215 19 2785 0
-598 -2786 0
562 -2786 0
598 -562 2786 0
887 -2787 0
5 -2787 0
-887 -5 2787 0
584 -2788 0
432 -2788 0
-584 -432 2788 0
363 -2789 0
497 -2789 0
-363 -497 2789 0
808 -2790 0
323 -2790 0
-808 -323 2790 0
95 -2791 0
274 -2791 0
-95 -274 2791 0
848 -2792 0
-69 -2792 0
-848 69 2792 0
646 -2793 0
-204 -2793 0
-646 204 2793 0
-444 -2794 0
905 -2794 0
444 -905 2794 0
-307 -2795 0
980 -2795 0
307 -980 2795 0
787 -2796 0
219 -2796 0
-787 -219 2796 0
823 -2797 0
-327 -2797 0
-823 327 2797 0
-349 -2798 0
698 -2798 0
349 -698 2798 0
392 -2799 0
685 -2799 0
-392 -685 2799 0
22 -2800 0
-479 -2800 0
-22 479 2800 0
475 -2801 0
-22 -2801 0
-475 22 2801 0
813 -2802 0
-959 -2802 0
-813 959 2802 0
582 -2803 0
462 -2803 0
-582 -462 2803 0
-283 -2804 0
140 -2804 0
283 -140 2804 0
528 -2805 0
-906 -2805 0
-528 906 2805 0
63 -2806 0
-285 -2806 0
-63 285 2806 0
772 -2807 0
-119 -2807 0
-772 119 2807 0
101 -2808 0
-740 -2808 0
-101 740 2808 0
495 -2809 0
508 -2809 0
-495 -508 2809 0
597 -2810 0
225 -2810 0
-597 -225 2810 0
-851 -2811 0
452 -2811 0
851 -452 2811 0
496 -2812 0
-350 -2812 0
-496 350 2812 0
692 -2813 0
-821 -2813 0
-692 821 2813 0
231 -2814 0
-206 -2814 0
-231 206 2814 0
886 -2815 0
-637 -2815 0
-886 637 2815 0
706 -2816 0
185 -2816 0
-706 -185 2816 0
574 -2817 0
-604 -2817 0
-574 604 2817 0
239 -2818 0
-36 -2818 0
-239 36 2818 0
-363 -2819 0
867 -2819 0
363 -867 2819 0
982 -2820 0
-411 -2820 0
-982 411 2820 0
916 -2821 0
-974 -2821 0
-916 974 2821 0
694 -2822 0
21 -2822 0
-694 -21 2822 0
77 -2823 0
877 -2823 0
-77 -877 2823 0
1000 -2824 0
688 -2824 0
-1000 -688 2824 0
548 -2825 0
-335 -2825 0
-548 335 2825 0
125 -2826 0
-797 -2826 0
-125 797 2826 0
855 -2827 0
993 -2827 0
-855 -993 2827 0
450 -2828 0
-479 -2828 0
-450 479 2828 0
320 -2829 0
-446 -2829 0
-320 446 2829 0
200 -2830 0
-749 -2830 0
-200 749 2830 0
453 -2831 0
-717 -2831 0
-453 717 2831 0
208 -2832 0
-466 -2832 0
-208 466 2832 0
-739 -2833 0
285 -2833 0
739 -285 2833 0
658 -2834 0
18 -2834 0
-658 -18 2834 0
-529 -2835 0
518 -2835 0
529 -518 2835 0
-962 -2836 0
547 -2836 0
962 -547 2836 0
157 -2837 0
-861 -2837 0
-157 861 2837 0
-723 -2838 0
169 -2838 0
723 -169 2838 0
271 -2839 0
105 -2839 0
-271 -105 2839 0
389 -2840 0
-76 -2840 0
-389 76 2840 0
-1 -2841 0
931 -2841 0
1 -931 2841 0
-113 -2842 0
821 -2842 0
113 -821 2842 0
117 -2843 0
51 -2843 0
-117 -51 2843 0
-11 -2844 0
804 -2844 0
11 -804 2844 0
835 -2845 0
-167 -2845 0
-835 167 2845 0
592 -2846 0
35 -2846 0
-592 -35 2846 0
132 -2847 0
-948 -2847 0
-132 948 2847 0
-570 -2848 0
878 -2848 0
570 -878 2848 0
807 -2849 0
753 -2849 0
-807 -753 2849 0
-472 -2850 0
935 -2850 0
472 -935 2850 0
56 -2851 0
481 -2851 0
-56 -481 2851 0
-49 -2852 0
602 -2852 0
49 -602 2852 0
-696 -2853 0
604 -2853 0
696 -604 2853 0
568 -2854 0
283 -2854 0
-568 -283 2854 0
-392 -2855 0
865 -2855 0
392 -865 2855 0
-893 -2856 0
25 -2856 0
893 -25 2856 0
325 -2857 0
2 -2857 0
-325 -2 2857 0
359 -2858 0
743 -2858 0
-359 -743 2858 0
206 -2859 0
-151 -2859 0
-206 151 2859 0
749 -2860 0
-173 -2860 0
-749 173 2860 0
-867 -2861 0
796 -2861 0
867 -796 2861 0
471 -2862 0
609 -2862 0
-471 -609 2862 0
478 -2863 0
-914 -2863 0
-478 914 2863 0
932 -2864 0
9 -2864 0
-932 -9 2864 0
582 -2865 0
734 -2865 0
-582 -734 2865 0
-501 -2866 0
939 -2866 0
501 -939 2866 0
389 -2867 0
107 -2867 0
-389 -107 2867 0
815 -2868 0
-852 -2868 0
-815 852 2868 0
-792 -2869 0
722 -2869 0
792 -722 2869 0
-170 -2870 0
893 -2870 0
170 -893 2870 0
951 -2871 0
83 -2871 0
-951 -83 2871 0
663 -2872 0
902 -2872 0
-663 -902 2872 0
551 -2873 0
865 -2873 0
-551 -865 2873 0
-946 -2874 0
740 -2874 0
946 -740 2874 0
362 -2875 0
-55 -2875 0
-362 55 2875 0
221 -2876 0
-182 -2876 0
-221 182 2876 0
662 -2877 0
-883 -2877 0
-662 883 2877 0
725 -2878 0
420 -2878 0
-725 -420 2878 0
576 -2879 0
222 -2879 0
-576 -222 2879 0
-738 -2880 0
218 -2880 0
738 -218 2880 0
-843 -2881 0
218 -2881 0
843 -218 2881 0
362 -2882 0
689 -2882 0
-362 -689 2882 0
-522 -2883 0
734 -2883 0
522 -734 2883 0
764 -2884 0
666 -2884 0
-764 -666 2884 0
768 -2885 0
-300 -2885 0
-768 300 2885 0
199 -2886 0
364 -2886 0
-199 -364 2886 0
182 -2887 0
906 -2887 0
-182 -906 2887 0
717 -2888 0
593 -2888 0
-717 -593 2888 0
976 -2889 0
7 -2889 0
-976 -7 2889 0
-795 -2890 0
2 -2890 0
795 -2 2890 0
510 -2891 0
-380 -2891 0
-510 380 2891 0
-883 -2892 0
381 -2892 0
883 -381 2892 0
-840 -2893 0
918 -2893 0
840 -918 2893 0
-105 -2894 0
377 -2894 0
105 -377 2894 0
965 -2895 0
443 -2895 0
-965 -443 2895 0
-745 -2896 0
899 -2896 0
745 -899 2896 0
376 -2897 0
859 -2897 0
-376 -859 2897 0
655 -2898 0
-219 -2898 0
-655 219 2898 0
172 -2899 0
139 -2899 0
-172 -139 2899 0
482 -2900 0
833 -2900 0
-482 -833 2900 0
55 -2901 0
841 -2901 0
-55 -841 2901 0
335 -2902 0
755 -2902 0
-335 -755 2902 0
-723 -2903 0
468 -2903 0
723 -468 2903 0
-200 -2904 0
107 -2904 0
200 -107 2904 0
112 -2905 0
568 -2905 0
-112 -568 2905 0
30 -2906 0
-711 -2906 0
-30 711 2906 0
-16 -2907 0
190 -2907 0
16 -190 2907 0
96 -2908 0
-276 -2908 0
-96 276 2908 0
615 -2909 0
-643 -2909 0
-615 643 2909 0
29 -2910 0
-126 -2910 0
-29 126 2910 0
285 -2911 0
-228 -2911 0
-285 228 2911 0
-131 -2912 0
313 -2912 0
131 -313 2912 0
816 -2913 0
831 -2913 0
-816 -831 2913 0
109 -2914 0
837 -2914 0
-109 -837 2914 0
391 -2915 0
-951 -2915 0
-391 951 2915 0
646 -2916 0
-671 -2916 0
-646 671 2916 0
718 -2917 0
306 -2917 0
-718 -306 2917 0
91 -2918 0
906 -2918 0
-91 -906 2918 0
534 -2919 0
-109 -2919 0
-534 109 2919 0
32 -2920 0
-139 -2920 0
-32 139 2920 0
-563 -2921 0
341 -2921 0
563 -341 2921 0
219 -2922 0
-5 -2922 0
-219 5 2922 0
942 -2923 0
418 -2923 0
-942 -418 2923 0
595 -2924 0
-815 -2924 0
-595 815 2924 0
-633 -2925 0
451 -2925 0
633 -451 2925 0
687 -2926 0
436 -2926 0
-687 -436 2926 0
94 -2927 0
-827 -2927 0
-94 827 2927 0
-185 -2928 0
573 -2928 0
185 -573 2928 0
-532 -2929 0
361 -2929 0
532 -361 2929 0
183 -2930 0
-700 -2930 0
-183 700 2930 0
102 -2931 0
397 -2931 0
-102 -397 2931 0
469 -2932 0
354 -2932 0
-469 -354 2932 0
548 -2933 0
714 -2933 0
-548 -714 2933 0
438 -2934 0
234 -2934 0
-438 -234 2934 0
90 -2935 0
73 -2935 0
-90 -73 2935 0
642 -2936 0
-327 -2936 0
-642 327 2936 0
-280 -2937 0
505 -2937 0
280 -505 2937 0
-219 -2938 0
35 -2938 0
219 -35 2938 0
-182 -2939 0
793 -2939 0
182 -793 2939 0
262 -2940 0
929 -2940 0
-262 -929 2940 0
-467 -2941 0
307 -2941 0
467 -307 2941 0
-208 -2942 0
47 -2942 0
208 -47 2942 0
96 -2943 0
-211 -2943 0
-96 211 2943 0
-941 -2944 0
721 -2944 0
941 -721 2944 0
936 -2945 0
26 -2945 0
-936 -26 2945 0
667 -2946 0
-399 -2946 0
-667 399 2946 0
509 -2947 0
-227 -2947 0
-509 227 2947 0
505 -2948 0
-511 -2948 0
-505 511 2948 0
-829 -2949 0
809 -2949 0
829 -809 2949 0
909 -2950 0
371 -2950 0
-909 -371 2950 0
-672 -2951 0
85 -2951 0
672 -85 2951 0
-88 -2952 0
438 -2952 0
88 -438 2952 0
743 -2953 0
517 -2953 0
-743 -517 2953 0
-120 -2954 0
455 -2954 0
120 -455 2954 0
693 -2955 0
-293 -2955 0
-693 293 2955 0
-97 -2956 0
684 -2956 0
97 -684 2956 0
-122 -2957 0
641 -2957 0
122 -641 2957 0
-793 -2958 0
930 -2958 0
793 -930 2958 0
189 -2959 0
-359 -2959 0
-189 359 2959 0
-373 -2960 0
313 -2960 0
373 -313 2960 0
590 -2961 0
-655 -2961 0
-590 655 2961 0
-805 -2962 0
993 -2962 0
805 -993 2962 0
334 -2963 0
-798 -2963 0
-334 798 2963 0
429 -2964 0
786 -2964 0
-429 -786 2964 0
918 -2965 0
557 -2965 0
-918 -557 2965 0
-8 -2966 0
818 -2966 0
8 -818 2966 0
64 -2967 0
-538 -2967 0
-64 538 2967 0
782 -2968 0
474 -2968 0
-782 -474 2968 0
534 -2969 0
529 -2969 0
-534 -529 2969 0
328 -2970 0
317 -2970 0
-328 -317 2970 0
908 -2971 0
-533 -2971 0
-908 533 2971 0
449 -2972 0
-127 -2972 0
-449 127 2972 0
-720 -2973 0
594 -2973 0
720 -594 2973 0
-290 -2974 0
545 -2974 0
290 -545 2974 0
655 -2975 0
675 -2975 0
-655 -675 2975 0
798 -2976 0
809 -2976 0
-798 -809 2976 0
45 -2977 0
258 -2977 0
-45 -258 2977 0
-564 -2978 0
489 -2978 0
564 -489 2978 0
-652 -2979 0
921 -2979 0
652 -921 2979 0
-752 -2980 0
695 -2980 0
752 -695 2980 0
839 -2981 0
-628 -2981 0
-839 628 2981 0
221 -2982 0
-739 -2982 0
-221 739 2982 0
448 -2983 0
-15 -2983 0
-448 15 2983 0
296 -2984 0
-133 -2984 0
-296 133 2984 0
751 -2985 0
-171 -2985 0
-751 171 2985 0
727 -2986 0
209 -2986 0
-727 -209 2986 0
79 -2987 0
-436 -2987 0
-79 436 2987 0
651 -2988 0
674 -2988 0
-651 -674 2988 0
284 -2989 0
-589 -2989 0
-284 589 2989 0
-594 -2990 0
169 -2990 0
594 -169 2990 0
605 -2991 0
-997 -2991 0
-605 997 2991 0
278 -2992 0
-61 -2992 0
-278 61 2992 0
-204 -2993 0
10 -2993 0
204 -10 2993 0
378 -2994 0
369 -2994 0
-378 -369 2994 0
-392 -2995 0
948 -2995 0
392 -948 2995 0
-99 -2996 0
76 -2996 0
99 -76 2996 0
877 -2997 0
-902 -2997 0
-877 902 2997 0
400 -2998 0
556 -2998 0
-400 -556 2998 0
652 -2999 0
-511 -2999 0
-652 511 2999 0
224 -3000 0
401 -3000 0
-224 -401 3000 0
815 -3001 0
-251 -3001 0
-815 251 3001 0
-56 -3002 0
85 -3002 0
56 -85 3002 0
260 -3003 0
-295 -3003 0
-260 295 3003 0
-316 -3004 0
762 -3004 0
316 -762 3004 0
942 -3005 0
-293 -3005 0
-942 293 3005 0
772 -3006 0
-95 -3006 0
-772 95 3006 0
845 -3007 0
-668 -3007 0
-845 668 3007 0
967 -3008 0
522 -3008 0
-967 -522 3008 0
-986 -3009 0
123 -3009 0
986 -123 3009 0
-844 -3010 0
386 -3010 0
844 -386 3010 0
200 -3011 0
402 -3011 0
-200 -402 3011 0
536 -3012 0
-357 -3012 0
-536 357 3012 0
544 -3013 0
642 -3013 0
-544 -642 3013 0
72 -3014 0
-754 -3014 0
-72 754 3014 0
829 -3015 0
37 -3015 0
-829 -37 3015 0
-795 -3016 0
995 -3016 0
795 -995 3016 0
655 -3017 0
646 -3017 0
-655 -646 3017 0
415 -3018 0
-557 -3018 0
-415 557 3018 0
6 -3019 0
658 -3019 0
-6 -658 3019 0
583 -3020 0
179 -3020 0
-583 -179 3020 0
8 -3021 0
-256 -3021 0
-8 256 3021 0
694 -3022 0
633 -3022 0
-694 -633 3022 0
-56 -3023 0
775 -3023 0
56 -775 3023 0
774 -3024 0
-386 -3024 0
-774 386 3024 0
-1000 -3025 0
923 -3025 0
1000 -923 3025 0
805 -3026 0
-783 -3026 0
-805 783 3026 0
554 -3027 0
-607 -3027 0
-554 607 3027 0
581 -3028 0
531 -3028 0
-581 -531 3028 0
848 -3029 0
-334 -3029 0
-848 334 3029 0
808 -3030 0
-794 -3030 0
-808 794 3030 0
197 -3031 0
971 -3031 0
-197 -971 3031 0
-845 -3032 0
114 -3032 0
845 -114 3032 0
-961 -3033 0
206 -3033 0
961 -206 3033 0
-312 -3034 0
978 -3034 0
312 -978 3034 0
534 -3035 0
306 -3035 0
-534 -306 3035 0
566 -3036 0
-459 -3036 0
-566 459 3036 0
-94 -3037 0
585 -3037 0
94 -585 3037 0
155 -3038 0
-646 -3038 0
-155 646 3038 0
22 -3039 0
-3 -3039 0
-22 3 3039 0
-803 -3040 0
459 -3040 0
803 -459 3040 0
703 -3041 0
715 -3041 0
-703 -715 3041 0
516 -3042 0
467 -3042 0
-516 -467 3042 0
50 -3043 0
826 -3043 0
-50 -826 3043 0
406 -3044 0
-195 -3044 0
-406 195 3044 0
591 -3045 0
805 -3045 0
-591 -805 3045 0
-283 -3046 0
853 -3046 0
283 -853 3046 0
-706 -3047 0
454 -3047 0
706 -454 3047 0
987 -3048 0
-239 -3048 0
-987 239 3048 0
-801 -3049 0
172 -3049 0
801 -172 3049 0
504 -3050 0
-852 -3050 0
-504 852 3050 0
949 -3051 0
-156 -3051 0
-949 156 3051 0
-144 -3052 0
325 -3052 0
144 -325 3052 0
112 -3053 0
59 -3053 0
-112 -59 3053 0
648 -3054 0
-941 -3054 0
-648 941 3054 0
-385 -3055 0
668 -3055 0
385 -668 3055 0
709 -3056 0
-334 -3056 0
-709 334 3056 0
684 -3057 0
-260 -3057 0
-684 260 3057 0
588 -3058 0
299 -3058 0
-588 -299 3058 0
554 -3059 0
649 -3059 0
-554 -649 3059 0
734 -3060 0
478 -3060 0
-734 -478 3060 0
804 -3061 0
-5 -3061 0
-804 5 3061 0
176 -3062 0
-19 -3062 0
-176 19 3062 0
540 -3063 0
273 -3063 0
-540 -273 3063 0
28 -3064 0
537 -3064 0
-28 -537 3064 0
719 -3065 0
476 -3065 0
-719 -476 3065 0
-242 -3066 0
652 -3066 0
242 -652 3066 0
-56 -3067 0
672 -3067 0
56 -672 3067 0
872 -3068 0
-67 -3068 0
-872 67 3068 0
-85 -3069 0
706 -3069 0
85 -706 3069 0
-564 -3070 0
27 -3070 0
564 -27 3070 0
157 -3071 0
457 -3071 0
-157 -457 3071 0
-675 -3072 0
865 -3072 0
675 -865 3072 0
-646 -3073 0
713 -3073 0
646 -713 3073 0
96 -3074 0
-122 -3074 0
-96 122 3074 0
-441 -3075 0
9 -3075 0
441 -9 3075 0
182 -3076 0
674 -3076 0
-182 -674 3076 0
44 -3077 0
721 -3077 0
-44 -721 3077 0
-547 -3078 0
85 -3078 0
547 -85 3078 0
-72 -3079 0
74 -3079 0
72 -74 3079 0
-620 -3080 0
75 -3080 0
620 -75 3080 0
-785 -3081 0
103 -3081 0
785 -103 3081 0
550 -3082 0
202 -3082 0
-550 -202 3082 0
781 -3083 0
-660 -3083 0
-781 660 3083 0
440 -3084 0
-857 -3084 0
-440 857 3084 0
461 -3085 0
329 -3085 0
-461 -329 3085 0
339 -3086 0
-734 -3086 0
-339 734 3086 0
43 -3087 0
-711 -3087 0
-43 711 3087 0
757 -3088 0
-350 -3088 0
-757 350 3088 0
440 -3089 0
443 -3089 0
-440 -443 3089 0
-827 -3090 0
252 -3090 0
827 -252 3090 0
21 -3091 0
-759 -3091 0
-21 759 3091 0
122 -3092 0
-902 -3092 0
-122 902 3092 0
-942 -3093 0
761 -3093 0
942 -761 3093 0
-112 -3094 0
215 -3094 0
112 -215 3094 0
687 -3095 0
-573 -3095 0
-687 573 3095 0
325 -3096 0
620 -3096 0
-325 -620 3096 0
62 -3097 0
2 -3097 0
-62 -2 3097 0
670 -3098 0
538 -3098 0
-670 -538 3098 0
363 -3099 0
146 -3099 0
-363 -146 3099 0
351 -3100 0
-269 -3100 0
-351 269 3100 0
556 -3101 0
620 -3101 0
-556 -620 3101 0
-344 -3102 0
941 -3102 0
344 -941 3102 0
24 -3103 0
-593 -3104 0
354 -3104 0
593 -354 3104 0
210 -3105 0
226 -3105 0
-210 -226 3105 0
-337 -3106 0
757 -3106 0
337 -757 3106 0
677 -3107 0
315 -3107 0
-677 -315 3107 0
47 -3108 0
-311 -3108 0
-47 311 3108 0
927 -3109 0
780 -3109 0
-927 -780 3109 0
540 -3110 0
809 -3110 0
-540 -809 3110 0
-306 -3111 0
569 -3111 0
306 -569 3111 0
-920 -3112 0
770 -3112 0
920 -770 3112 0
-424 -3113 0
377 -3113 0
424 -377 3113 0
927 -3114 0
483 -3114 0
-927 -483 3114 0
604 -3115 0
196 -3115 0
-604 -196 3115 0
494 -3116 0
-621 -3116 0
-494 621 3116 0
-627 -3117 0
699 -3117 0
627 -699 3117 0
-857 -3118 0
551 -3118 0
857 -551 3118 0
965 -3119 0
-939 -3119 0
-965 939 3119 0
630 -3120 0
489 -3120 0
-630 -489 3120 0
-392 -3121 0
826 -3121 0
392 -826 3121 0
181 -3122 0
-605 -3122 0
-181 605 3122 0
188 -3123 0
-230 -3123 0
-188 230 3123 0
388 -3124 0
-36 -3124 0
-388 36 3124 0
927 -3125 0
-426 -3125 0
-927 426 3125 0
163 -3126 0
-198 -3126 0
-163 198 3126 0
-396 -3127 0
994 -3127 0
396 -994 3127 0
23 -3128 0
833 -3128 0
-23 -833 3128 0
-968 -3129 0
221 -3129 0
968 -221 3129 0
-994 -3130 0
934 -3130 0
994 -934 3130 0
614 -3131 0
-507 -3131 0
-614 507 3131 0
416 -3132 0
146 -3132 0
-416 -146 3132 0
759 -3133 0
-239 -3133 0
-759 239 3133 0
421 -3134 0
389 -3134 0
-421 -389 3134 0
-977 -3135 0
417 -3135 0
977 -417 3135 0
784 -3136 0
-500 -3136 0
-784 500 3136 0
-605 -3137 0
555 -3137 0
605 -555 3137 0
488 -3138 0
-205 -3138 0
-488 205 3138 0
928 -3139 0
556 -3139 0
-928 -556 3139 0
-232 -3140 0
511 -3140 0
232 -511 3140 0
438 -3141 0
-470 -3141 0
-438 470 3141 0
-218 -3142 0
466 -3142 0
218 -466 3142 0
717 -3143 0
-46 -3143 0
-717 46 3143 0
-360 -3144 0
710 -3144 0
360 -710 3144 0
5 -3145 0
-309 -3145 0
-5 309 3145 0
-689 -3146 0
810 -3146 0
689 -810 3146 0
917 -3147 0
-871 -3147 0
-917 871 3147 0
255 -3148 0
86 -3148 0
-255 -86 3148 0
835 -3149 0
-183 -3149 0
-835 183 3149 0
-329 -3150 0
649 -3150 0
329 -649 3150 0
64 -3151 0
641 -3151 0
-64 -641 3151 0
551 -3152 0
100 -3152 0
-551 -100 3152 0
-344 -3153 0
827 -3153 0
344 -827 3153 0
222 -3154 0
-565 -3154 0
-222 565 3154 0
-977 -3155 0
74 -3155 0
977 -74 3155 0
-369 -3156 0
989 -3156 0
369 -989 3156 0
327 -3157 0
843 -3157 0
-327 -843 3157 0
-409 -3158 0
138 -3158 0
409 -138 3158 0
22 -3159 0
-322 -3159 0
-22 322 3159 0
-328 -3160 0
387 -3160 0
328 -387 3160 0
116 -3161 0
569 -3161 0
-116 -569 3161 0
-743 -3162 0
25 -3162 0
743 -25 3162 0
-777 -3163 0
220 -3163 0
777 -220 3163 0
-281 -3164 0
812 -3164 0
281 -812 3164 0
-40 -3165 0
237 -3165 0
40 -237 3165 0
-345 -3166 0
565 -3166 0
345 -565 3166 0
126 -3167 0
843 -3167 0
-126 -843 3167 0
-904 -3168 0
237 -3168 0
904 -237 3168 0
997 -3169 0
-814 -3169 0
-997 814 3169 0
807 -3170 0
-438 -3170 0
-807 438 3170 0
990 -3171 0
418 -3171 0
-990 -418 3171 0
-333 -3172 0
155 -3172 0
333 -155 3172 0
76 -3173 0
491 -3173 0
-76 -491 3173 0
231 -3174 0
-869 -3174 0
-231 869 3174 0
506 -3175 0
833 -3175 0
-506 -833 3175 0
-808 -3176 0
493 -3176 0
808 -493 3176 0
323 -3177 0
370 -3177 0
-323 -370 3177 0
765 -3178 0
-499 -3178 0
-765 499 3178 0
951 -3179 0
-381 -3179 0
-951 381 3179 0
-447 -3180 0
137 -3180 0
447 -137 3180 0
-819 -3181 0
225 -3181 0
819 -225 3181 0
888 -3182 0
-971 -3182 0
-888 971 3182 0
-891 -3183 0
129 -3183 0
891 -129 3183 0
78 -3184 0
-830 -3184 0
-78 830 3184 0
773 -3185 0
291 -3185 0
-773 -291 3185 0
-608 -3186 0
106 -3186 0
608 -106 3186 0
-112 -3187 0
798 -3187 0
112 -798 3187 0
55 -3188 0
-965 -3188 0
-55 965 3188 0
844 -3189 0
-599 -3189 0
-844 599 3189 0
-730 -3190 0
385 -3190 0
730 -385 3190 0
680 -3191 0
490 -3191 0
-680 -490 3191 0
949 -3192 0
204 -3192 0
-949 -204 3192 0
-83 -3193 0
994 -3193 0
83 -994 3193 0
159 -3194 0
445 -3194 0
-159 -445 3194 0
822 -3195 0
-770 -3195 0
-822 770 3195 0
620 -3196 0
996 -3196 0
-620 -996 3196 0
935 -3197 0
-724 -3197 0
-935 724 3197 0
-72 -3198 0
57 -3198 0
72 -57 3198 0
272 -3199 0
83 -3199 0
-272 -83 3199 0
487 -3200 0
-967 -3200 0
-487 967 3200 0
639 -3201 0
-581 -3201 0
-639 581 3201 0
262 -3202 0
66 -3202 0
-262 -66 3202 0
543 -3203 0
-245 -3203 0
-543 245 3203 0
-572 -3204 0
665 -3204 0
572 -665 3204 0
-194 -3205 0
73 -3205 0
194 -73 3205 0
715 -3206 0
-742 -3206 0
-715 742 3206 0
20 -3207 0
753 -3207 0
-20 -753 3207 0
167 -3208 0
973 -3208 0
-167 -973 3208 0
223 -3209 0
-789 -3209 0
-223 789 3209 0
316 -3210 0
-903 -3210 0
-316 903 3210 0
-552 -3211 0
1 -3211 0
552 -1 3211 0
805 -3212 0
-591 -3212 0
-805 591 3212 0
416 -3213 0
749 -3213 0
-416 -749 3213 0
301 -3214 0
-670 -3214 0
-301 670 3214 0
55 -3215 0
803 -3215 0
-55 -803 3215 0
664 -3216 0
-955 -3216 0
-664 955 3216 0
365 -3217 0
-694 -3217 0
-365 694 3217 0
46 -3218 0
-63 -3218 0
-46 63 3218 0
-977 -3219 0
217 -3219 0
977 -217 3219 0
-704 -3220 0
586 -3220 0
704 -586 3220 0
655 -3221 0
764 -3221 0
-655 -764 3221 0
-658 -3222 0
252 -3222 0
658 -252 3222 0
-968 -3223 0
588 -3223 0
968 -588 3223 0
820 -3224 0
-798 -3224 0
-820 798 3224 0
-736 -3225 0
499 -3225 0
736 -499 3225 0
-233 -3226 0
669 -3226 0
233 -669 3226 0
263 -3227 0
-930 -3227 0
-263 930 3227 0
-306 -3228 0
884 -3228 0
306 -884 3228 0
233 -3229 0
-447 -3229 0
-233 447 3229 0
495 -3230 0
-918 -3230 0
-495 918 3230 0
838 -3231 0
-590 -3231 0
-838 590 3231 0
-946 -3232 0
142 -3232 0
946 -142 3232 0
608 -3233 0
-67 -3233 0
-608 67 3233 0
-544 -3234 0
731 -3234 0
544 -731 3234 0
-296 -3235 0
941 -3235 0
296 -941 3235 0
719 -3236 0
-876 -3236 0
-719 876 3236 0
32 -3237 0
911 -3237 0
-32 -911 3237 0
-534 -3238 0
209 -3238 0
534 -209 3238 0
336 -3239 0
-495 -3239 0
-336 495 3239 0
76 -3240 0
658 -3240 0
-76 -658 3240 0
-114 -3241 0
132 -3241 0
114 -132 3241 0
-147 -3242 0
379 -3242 0
147 -379 3242 0
359 -3243 0
-914 -3243 0
-359 914 3243 0
-329 -3244 0
726 -3244 0
329 -726 3244 0
990 -3245 0
-173 -3245 0
-990 173 3245 0
-897 -3246 0
482 -3246 0
897 -482 3246 0
214 -3247 0
457 -3247 0
-214 -457 3247 0
-451 -3248 0
642 -3248 0
451 -642 3248 0
447 -3249 0
526 -3249 0
-447 -526 3249 0
-259 -3250 0
420 -3250 0
259 -420 3250 0
331 -3251 0
417 -3251 0
-331 -417 3251 0
375 -3252 0
-301 -3252 0
-375 301 3252 0
-546 -3253 0
324 -3253 0
546 -324 3253 0
68 -3254 0
634 -3254 0
-68 -634 3254 0
24 -3255 0
977 -3255 0
-24 -977 3255 0
600 -3256 0
-177 -3256 0
-600 177 3256 0
472 -3257 0
784 -3257 0
-472 -784 3257 0
99 -3258 0
330 -3258 0
-99 -330 3258 0
813 -3259 0
-284 -3259 0
-813 284 3259 0
81 -3260 0
897 -3260 0
-81 -897 3260 0
888 -3261 0
430 -3261 0
-888 -430 3261 0
-416 -3262 0
141 -3262 0
416 -141 3262 0
246 -3263 0
-844 -3263 0
-246 844 3263 0
222 -3264 0
782 -3264 0
-222 -782 3264 0
550 -3265 0
-254 -3265 0
-550 254 3265 0
-177 -3266 0
105 -3266 0
177 -105 3266 0
143 -3267 0
446 -3267 0
-143 -446 3267 0
528 -3268 0
654 -3268 0
-528 -654 3268 0
866 -3269 0
393 -3269 0
-866 -393 3269 0
-665 -3270 0
715 -3270 0
665 -715 3270 0
-16 -3271 0
236 -3271 0
16 -236 3271 0
-626 -3272 0
961 -3272 0
626 -961 3272 0
702 -3273 0
-534 -3273 0
-702 534 3273 0
-688 -3274 0
175 -3274 0
688 -175 3274 0
741 -3275 0
653 -3275 0
-741 -653 3275 0
410 -3276 0
-534 -3276 0
-410 534 3276 0
-473 -3277 0
866 -3277 0
473 -866 3277 0
566 -3278 0
-579 -3278 0
-566 579 3278 0
431 -3279 0
195 -3279 0
-431 -195 3279 0
-678 -3280 0
778 -3280 0
678 -778 3280 0
444 -3281 0
-110 -3281 0
-444 110 3281 0
-866 -3282 0
883 -3282 0
866 -883 3282 0
-259 -3283 0
801 -3283 0
259 -801 3283 0
36 -3284 0
-631 -3284 0
-36 631 3284 0
366 -3285 0
546 -3285 0
-366 -546 3285 0
66 -3286 0
-510 -3286 0
-66 510 3286 0
157 -3287 0
-902 -3287 0
-157 902 3287 0
877 -3288 0
125 -3288 0
-877 -125 3288 0
-784 -3289 0
215 -3289 0
784 -215 3289 0
517 -3290 0
53 -3290 0
-517 -53 3290 0
-497 -3291 0
757 -3291 0
497 -757 3291 0
144 -3292 0
522 -3292 0
-144 -522 3292 0
332 -3293 0
43 -3293 0
-332 -43 3293 0
519 -3294 0
396 -3295 0
-23 -3295 0
-396 23 3295 0
303 -3296 0
-101 -3296 0
-303 101 3296 0
-627 -3297 0
449 -3297 0
627 -449 3297 0
770 -3298 0
673 -3298 0
-770 -673 3298 0
-472 -3299 0
602 -3299 0
472 -602 3299 0
832 -3300 0
-14 -3300 0
-832 14 3300 0
739 -3301 0
906 -3301 0
-739 -906 3301 0
-472 -3302 0
284 -3302 0
472 -284 3302 0
664 -3303 0
-87 -3303 0
-664 87 3303 0
-593 -3304 0
651 -3304 0
593 -651 3304 0
-221 -3305 0
938 -3305 0
221 -938 3305 0
664 -3306 0
-873 -3306 0
-664 873 3306 0
106 -3307 0
58 -3307 0
-106 -58 3307 0
967 -3308 0
-274 -3308 0
-967 274 3308 0
-796 -3309 0
442 -3309 0
796 -442 3309 0
112 -3310 0
-175 -3310 0
-112 175 3310 0
886 -3311 0
-309 -3311 0
-886 309 3311 0
926 -3312 0
-644 -3312 0
-926 644 3312 0
142 -3313 0
554 -3313 0
-142 -554 3313 0
351 -3314 0
-126 -3314 0
-351 126 3314 0
-761 -3315 0
130 -3315 0
761 -130 3315 0
194 -3316 0
322 -3316 0
-194 -322 3316 0
935 -3317 0
199 -3317 0
-935 -199 3317 0
-414 -3318 0
473 -3318 0
414 -473 3318 0
-481 -3319 0
89 -3319 0
481 -89 3319 0
424 -3320 0
-732 -3320 0
-424 732 3320 0
80 -3321 0
-452 -3321 0
-80 452 3321 0
7 -3322 0
-463 -3322 0
-7 463 3322 0
-512 -3323 0
874 -3323 0
512 -874 3323 0
424 -3324 0
991 -3324 0
-424 -991 3324 0
984 -3325 0
-354 -3325 0
-984 354 3325 0
840 -3326 0
814 -3326 0
-840 -814 3326 0
-440 -3327 0
497 -3327 0
440 -497 3327 0
583 -3328 0
493 -3328 0
-583 -493 3328 0
847 -3329 0
-306 -3329 0
-847 306 3329 0
471 -3330 0
506 -3330 0
-471 -506 3330 0
-464 -3331 0
421 -3331 0
464 -421 3331 0
456 -3332 0
-135 -3332 0
-456 135 3332 0
908 -3333 0
-884 -3334 0
92 -3334 0
884 -92 3334 0
523 -3335 0
241 -3335 0
-523 -241 3335 0
-132 -3336 0
428 -3336 0
132 -428 3336 0
317 -3337 0
298 -3337 0
-317 -298 3337 0
-969 -3338 0
421 -3338 0
969 -421 3338 0
734 -3339 0
869 -3339 0
-734 -869 3339 0
182 -3340 0
-919 -3340 0
-182 919 3340 0
-208 -3341 0
183 -3341 0
208 -183 3341 0
-808 -3342 0
63 -3342 0
808 -63 3342 0
767 -3343 0
-219 -3343 0
-767 219 3343 0
984 -3344 0
-600 -3344 0
-984 600 3344 0
813 -3345 0
-612 -3345 0
-813 612 3345 0
-874 -3346 0
621 -3346 0
874 -621 3346 0
-517 -3347 0
843 -3347 0
517 -843 3347 0
814 -3348 0
-580 -3348 0
-814 580 3348 0
-316 -3349 0
756 -3349 0
316 -756 3349 0
888 -3350 0
-439 -3350 0
-888 439 3350 0
509 -3351 0
532 -3351 0
-509 -532 3351 0
-713 -3352 0
300 -3352 0
713 -300 3352 0
560 -3353 0
272 -3353 0
-560 -272 3353 0
813 -3354 0
545 -3354 0
-813 -545 3354 0
-688 -3355 0
787 -3355 0
688 -787 3355 0
866 -3356 0
-118 -3356 0
-866 118 3356 0
806 -3357 0
-596 -3357 0
-806 596 3357 0
711 -3358 0
-473 -3358 0
-711 473 3358 0
359 -3359 0
-798 -3359 0
-359 798 3359 0
-611 -3360 0
997 -3360 0
611 -997 3360 0
146 -3361 0
386 -3361 0
-146 -386 3361 0
222 -3362 0
-179 -3362 0
-222 179 3362 0
355 -3363 0
-23 -3363 0
-355 23 3363 0
-664 -3364 0
817 -3364 0
664 -817 3364 0
610 -3365 0
738 -3365 0
-610 -738 3365 0
460 -3366 0
-508 -3366 0
-460 508 3366 0
-13 -3367 0
457 -3367 0
13 -457 3367 0
872 -3368 0
514 -3368 0
-872 -514 3368 0
-899 -3369 0
273 -3369 0
899 -273 3369 0
576 -3370 0
586 -3370 0
-576 -586 3370 0
764 -3371 0
361 -3371 0
-764 -361 3371 0
-505 -3372 0
139 -3372 0
505 -139 3372 0
784 -3373 0
-211 -3373 0
-784 211 3373 0
261 -3374 0
291 -3374 0
-261 -291 3374 0
-840 -3375 0
623 -3375 0
840 -623 3375 0
262 -3376 0
-386 -3376 0
-262 386 3376 0
191 -3377 0
139 -3377 0
-191 -139 3377 0
959 -3378 0
-277 -3378 0
-959 277 3378 0
-984 -3379 0
795 -3379 0
984 -795 3379 0
625 -3380 0
-879 -3380 0
-625 879 3380 0
40 -3381 0
774 -3381 0
-40 -774 3381 0
-836 -3382 0
49 -3382 0
836 -49 3382 0
159 -3383 0
-526 -3383 0
-159 526 3383 0
-660 -3384 0
43 -3384 0
660 -43 3384 0
607 -3385 0
-330 -3385 0
-607 330 3385 0
486 -3386 0
690 -3386 0
-486 -690 3386 0
843 -3387 0
714 -3387 0
-843 -714 3387 0
637 -3388 0
-675 -3388 0
-637 675 3388 0
127 -3389 0
227 -3389 0
-127 -227 3389 0
429 -3390 0
229 -3390 0
-429 -229 3390 0
37 -3391 0
500 -3391 0
-37 -500 3391 0
358 -3392 0
-26 -3392 0
-358 26 3392 0
336 -3393 0
52 -3393 0
-336 -52 3393 0
575 -3394 0
-111 -3394 0
-575 111 3394 0
722 -3395 0
274 -3395 0
-722 -274 3395 0
-968 -3396 0
738 -3396 0
968 -738 3396 0
750 -3397 0
789 -3397 0
-750 -789 3397 0
-176 -3398 0
166 -3398 0
176 -166 3398 0
741 -3399 0
793 -3399 0
-741 -793 3399 0
-41 -3400 0
110 -3400 0
41 -110 3400 0
158 -3401 0
-303 -3401 0
-158 303 3401 0
678 -3402 0
-332 -3402 0
-678 332 3402 0
262 -3403 0
-733 -3403 0
-262 733 3403 0
855 -3404 0
541 -3404 0
-855 -541 3404 0
174 -3405 0
996 -3405 0
-174 -996 3405 0
342 -3406 0
-213 -3406 0
-342 213 3406 0
838 -3407 0
142 -3407 0
-838 -142 3407 0
580 -3408 0
-117 -3408 0
-580 117 3408 0
55 -3409 0
-540 -3409 0
-55 540 3409 0
-949 -3410 0
809 -3410 0
949 -809 3410 0
656 -3411 0
-186 -3411 0
-656 186 3411 0
983 -3412 0
-314 -3412 0
-983 314 3412 0
928 -3413 0
55 -3413 0
-928 -55 3413 0
564 -3414 0
-695 -3414 0
-564 695 3414 0
-261 -3415 0
458 -3415 0
261 -458 3415 0
232 -3416 0
-988 -3416 0
-232 988 3416 0
336 -3417 0
945 -3417 0
-336 -945 3417 0
151 -3418 0
511 -3418 0
-151 -511 3418 0
589 -3419 0
25 -3419 0
-589 -25 3419 0
-624 -3420 0
86 -3420 0
624 -86 3420 0
384 -3421 0
-300 -3421 0
-384 300 3421 0
320 -3422 0
169 -3422 0
-320 -169 3422 0
-342 -3423 0
577 -3423 0
342 -577 3423 0
-82 -3424 0
755 -3424 0
82 -755 3424 0
310 -3425 0
-275 -3425 0
-310 275 3425 0
-465 -3426 0
406 -3426 0
465 -406 3426 0
419 -3427 0
-175 -3427 0
-419 175 3427 0
391 -3428 0
188 -3428 0
-391 -188 3428 0
93 -3429 0
-167 -3429 0
-93 167 3429 0
218 -3430 0
217 -3430 0
-218 -217 3430 0
-161 -3431 0
401 -3431 0
161 -401 3431 0
967 -3432 0
-155 -3432 0
-967 155 3432 0
64 -3433 0
208 -3433 0
-64 -208 3433 0
920 -3434 0
-995 -3434 0
-920 995 3434 0
375 -3435 0
-307 -3435 0
-375 307 3435 0
245 -3436 0
21 -3436 0
-245 -21 3436 0
863 -3437 0
899 -3437 0
-863 -899 3437 0
-531 -3438 0
244 -3438 0
531 -244 3438 0
204 -3439 0
186 -3439 0
-204 -186 3439 0
988 -3440 0
-542 -3440 0
-988 542 3440 0
-621 -3441 0
67 -3441 0
621 -67 3441 0
143 -3442 0
-242 -3442 0
-143 242 3442 0
-635 -3443 0
61 -3443 0
635 -61 3443 0
-90 -3444 0
646 -3444 0
90 -646 3444 0
5 -3445 0
76 -3445 0
-5 -76 3445 0
80 -3446 0
-77 -3446 0
-80 77 3446 0
750 -3447 0
332 -3447 0
-750 -332 3447 0
701 -3448 0
-253 -3448 0
-701 253 3448 0
736 -3449 0
294 -3449 0
-736 -294 3449 0
-741 -3450 0
385 -3450 0
741 -385 3450 0
253 -3451 0
852 -3451 0
-253 -852 3451 0
853 -3452 0
708 -3452 0
-853 -708 3452 0
-784 -3453 0
118 -3453 0
784 -118 3453 0
468 -3454 0
9 -3454 0
-468 -9 3454 0
-217 -3455 0
277 -3455 0
217 -277 3455 0
565 -3456 0
388 -3456 0
-565 -388 3456 0
653 -3457 0
521 -3457 0
-653 -521 3457 0
114 -3458 0
746 -3458 0
-114 -746 3458 0
942 -3459 0
25 -3459 0
-942 -25 3459 0
-731 -3460 0
149 -3460 0
731 -149 3460 0
884 -3461 0
523 -3461 0
-884 -523 3461 0
-640 -3462 0
239 -3462 0
640 -239 3462 0
-998 -3463 0
273 -3463 0
998 -273 3463 0
-481 -3464 0
494 -3464 0
481 -494 3464 0
900 -3465 0
858 -3465 0
-900 -858 3465 0
-977 -3466 0
110 -3466 0
977 -110 3466 0
819 -3467 0
-543 -3467 0
-819 543 3467 0
-467 -3468 0
434 -3468 0
467 -434 3468 0
887 -3469 0
962 -3469 0
-887 -962 3469 0
-338 -3470 0
265 -3470 0
338 -265 3470 0
696 -3471 0
-7 -3471 0
-696 7 3471 0
-131 -3472 0
573 -3472 0
131 -573 3472 0
-170 -3473 0
436 -3473 0
170 -436 3473 0
392 -3474 0
339 -3474 0
-392 -339 3474 0
11 -3475 0
226 -3475 0
-11 -226 3475 0
575 -3476 0
-148 -3476 0
-575 148 3476 0
744 -3477 0
-42 -3477 0
-744 42 3477 0
640 -3478 0
111 -3478 0
-640 -111 3478 0
636 -3479 0
-711 -3479 0
-636 711 3479 0
446 -3480 0
809 -3480 0
-446 -809 3480 0
567 -3481 0
-518 -3481 0
-567 518 3481 0
-955 -3482 0
289 -3482 0
955 -289 3482 0
368 -3483 0
-132 -3483 0
-368 132 3483 0
-544 -3484 0
228 -3484 0
544 -228 3484 0
950 -3485 0
83 -3485 0
-950 -83 3485 0
917 -3486 0
169 -3486 0
-917 -169 3486 0
-966 -3487 0
609 -3487 0
966 -609 3487 0
414 -3488 0
937 -3488 0
-414 -937 3488 0
467 -3489 0
-965 -3489 0
-467 965 3489 0
811 -3490 0
-351 -3490 0
-811 351 3490 0
760 -3491 0
-567 -3491 0
-760 567 3491 0
453 -3492 0
754 -3492 0
-453 -754 3492 0
-713 -3493 0
99 -3493 0
713 -99 3493 0
-216 -3494 0
846 -3494 0
216 -846 3494 0
831 -3495 0
-157 -3495 0
-831 157 3495 0
366 -3496 0
-654 -3496 0
-366 654 3496 0
535 -3497 0
-975 -3497 0
-535 975 3497 0
183 -3498 0
94 -3498 0
-183 -94 3498 0
80 -3499 0
328 -3499 0
-80 -328 3499 0
-949 -3500 0
610 -3500 0
949 -610 3500 0
862 -3501 0
442 -3501 0
-862 -442 3501 0
-536 -3502 0
148 -3502 0
536 -148 3502 0
366 -3503 0
842 -3503 0
-366 -842 3503 0
-601 -3504 0
711 -3504 0
601 -711 3504 0
-460 -3505 0
178 -3505 0
460 -178 3505 0
-722 -3506 0
331 -3506 0
722 -331 3506 0
709 -3507 0
297 -3507 0
-709 -297 3507 0
845 -3508 0
99 -3508 0
-845 -99 3508 0
804 -3509 0
-268 -3509 0
-804 268 3509 0
712 -3510 0
-635 -3510 0
-712 635 3510 0
391 -3511 0
838 -3511 0
-391 -838 3511 0
-550 -3512 0
329 -3512 0
550 -329 3512 0
758 -3513 0
-165 -3513 0
-758 165 3513 0
614 -3514 0
-854 -3514 0
-614 854 3514 0
749 -3515 0
-796 -3515 0
-749 796 3515 0
575 -3516 0
452 -3516 0
-575 -452 3516 0
31 -3517 0
-282 -3517 0
-31 282 3517 0
467 -3518 0
-543 -3518 0
-467 543 3518 0
70 -3519 0
722 -3519 0
-70 -722 3519 0
751 -3520 0
221 -3520 0
-751 -221 3520 0
-992 -3521 0
267 -3521 0
992 -267 3521 0
253 -3522 0
289 -3522 0
-253 -289 3522 0
-517 -3523 0
481 -3523 0
517 -481 3523 0
-174 -3524 0
906 -3524 0
174 -906 3524 0
342 -3525 0
770 -3525 0
-342 -770 3525 0
919 -3526 0
54 -3526 0
-919 -54 3526 0
280 -3527 0
-284 -3527 0
-280 284 3527 0
958 -3528 0
917 -3528 0
-958 -917 3528 0
-672 -3529 0
385 -3529 0
672 -385 3529 0
-921 -3530 0
674 -3530 0
921 -674 3530 0
-817 -3531 0
140 -3531 0
817 -140 3531 0
126 -3532 0
-415 -3532 0
-126 415 3532 0
-157 -3533 0
617 -3533 0
157 -617 3533 0
780 -3534 0
18 -3534 0
-780 -18 3534 0
655 -3535 0
421 -3535 0
-655 -421 3535 0
367 -3536 0
646 -3536 0
-367 -646 3536 0
982 -3537 0
970 -3537 0
-982 -970 3537 0
-813 -3538 0
506 -3538 0
813 -506 3538 0
406 -3539 0
-27 -3539 0
-406 27 3539 0
-97 -3540 0
861 -3540 0
97 -861 3540 0
-434 -3541 0
499 -3541 0
434 -499 3541 0
-120 -3542 0
952 -3542 0
120 -952 3542 0
199 -3543 0
548 -3543 0
-199 -548 3543 0
516 -3544 0
467 -3544 0
-516 -467 3544 0
168 -3545 0
745 -3545 0
-168 -745 3545 0
-778 -3546 0
718 -3546 0
778 -718 3546 0
-673 -3547 0
246 -3547 0
673 -246 3547 0
-162 -3548 0
413 -3548 0
162 -413 3548 0
376 -3549 0
-499 -3549 0
-376 499 3549 0
-752 -3550 0
492 -3550 0
752 -492 3550 0
457 -3551 0
41 -3551 0
-457 -41 3551 0
-757 -3552 0
161 -3552 0
757 -161 3552 0
430 -3553 0
-901 -3553 0
-430 901 3553 0
391 -3554 0
-610 -3554 0
-391 610 3554 0
996 -3555 0
-101 -3555 0
-996 101 3555 0
-899 -3556 0
980 -3556 0
899 -980 3556 0
537 -3557 0
-455 -3557 0
-537 455 3557 0
-549 -3558 0
979 -3558 0
549 -979 3558 0
80 -3559 0
-304 -3559 0
-80 304 3559 0
-699 -3560 0
761 -3560 0
699 -761 3560 0
-968 -3561 0
895 -3561 0
968 -895 3561 0
680 -3562 0
518 -3562 0
-680 -518 3562 0
307 -3563 0
-423 -3563 0
-307 423 3563 0
-125 -3564 0
475 -3564 0
125 -475 3564 0
392 -3565 0
-401 -3565 0
-392 401 3565 0
997 -3566 0
909 -3566 0
-997 -909 3566 0
16 -3567 0
803 -3567 0
-16 -803 3567 0
432 -3568 0
-499 -3568 0
-432 499 3568 0
479 -3569 0
-423 -3569 0
-479 423 3569 0
504 -3570 0
276 -3570 0
-504 -276 3570 0
516 -3571 0
-524 -3571 0
-516 524 3571 0
800 -3572 0
-934 -3572 0
-800 934 3572 0
-146 -3573 0
429 -3573 0
146 -429 3573 0
-265 -3574 0
738 -3574 0
265 -738 3574 0
-138 -3575 0
987 -3575 0
138 -987 3575 0
-196 -3576 0
538 -3576 0
196 -538 3576 0
-24 -3577 0
550 -3577 0
24 -550 3577 0
822 -3578 0
-259 -3578 0
-822 259 3578 0
272 -3579 0
-668 -3579 0
-272 668 3579 0
455 -3580 0
-897 -3580 0
-455 897 3580 0
-873 -3581 0
750 -3581 0
873 -750 3581 0
755 -3582 0
-454 -3582 0
-755 454 3582 0
803 -3583 0
-406 -3583 0
-803 406 3583 0
478 -3584 0
313 -3584 0
-478 -313 3584 0
736 -3585 0
-308 -3585 0
-736 308 3585 0
286 -3586 0
981 -3586 0
-286 -981 3586 0
877 -3587 0
164 -3587 0
-877 -164 3587 0
268 -3588 0
-806 -3588 0
-268 806 3588 0
-962 -3589 0
699 -3589 0
962 -699 3589 0
-849 -3590 0
918 -3590 0
849 -918 3590 0
128 -3591 0
-103 -3591 0
-128 103 3591 0
-883 -3592 0
325 -3592 0
883 -325 3592 0
462 -3593 0
-259 -3593 0
-462 259 3593 0
-360 -3594 0
540 -3594 0
360 -540 3594 0
-58 -3595 0
709 -3595 0
58 -709 3595 0
293 -3596 0
993 -3596 0
-293 -993 3596 0
758 -3597 0
-135 -3597 0
-758 135 3597 0
771 -3598 0
-629 -3598 0
-771 629 3598 0
680 -3599 0
-10 -3599 0
-680 10 3599 0
734 -3600 0
548 -3600 0
-734 -548 3600 0
-465 -3601 0
644 -3601 0
465 -644 3601 0
598 -3602 0
42 -3602 0
-598 -42 3602 0
856 -3603 0
753 -3603 0
-856 -753 3603 0
112 -3604 0
-457 -3604 0
-112 457 3604 0
641 -3605 0
-423 -3605 0
-641 423 3605 0
624 -3606 0
-411 -3606 0
-624 411 3606 0
-520 -3607 0
2 -3607 0
520 -2 3607 0
896 -3608 0
-801 -3608 0
-896 801 3608 0
798 -3609 0
273 -3609 0
-798 -273 3609 0
493 -3610 0
-732 -3610 0
-493 732 3610 0
600 -3611 0
520 -3611 0
-600 -520 3611 0
976 -3612 0
-602 -3612 0
-976 602 3612 0
-530 -3613 0
131 -3613 0
530 -131 3613 0
72 -3614 0
606 -3614 0
-72 -606 3614 0
679 -3615 0
-407 -3615 0
-679 407 3615 0
325 -3616 0
-447 -3616 0
-325 447 3616 0
-474 -3617 0
161 -3617 0
474 -161 3617 0
606 -3618 0
-919 -3618 0
-606 919 3618 0
60 -3619 0
-94 -3619 0
-60 94 3619 0
413 -3620 0
922 -3620 0
-413 -922 3620 0
-696 -3621 0
339 -3621 0
696 -339 3621 0
-444 -3622 0
84 -3622 0
444 -84 3622 0
125 -3623 0
-492 -3623 0
-125 492 3623 0
220 -3624 0
595 -3624 0
-220 -595 3624 0
77 -3625 0
884 -3625 0
-77 -884 3625 0
532 -3626 0
11 -3626 0
-532 -11 3626 0
759 -3627 0
343 -3627 0
-759 -343 3627 0
768 -3628 0
33 -3628 0
-768 -33 3628 0
456 -3629 0
-400 -3629 0
-456 400 3629 0
279 -3630 0
-23 -3630 0
-279 23 3630 0
890 -3631 0
-263 -3631 0
-890 263 3631 0
860 -3632 0
-638 -3632 0
-860 638 3632 0
-20 -3633 0
867 -3633 0
20 -867 3633 0
255 -3634 0
-470 -3634 0
-255 470 3634 0
846 -3635 0
-860 -3635 0
-846 860 3635 0
426 -3636 0
713 -3636 0
-426 -713 3636 0
287 -3637 0
819 -3637 0
-287 -819 3637 0
-787 -3638 0
451 -3638 0
787 -451 3638 0
216 -3639 0
36 -3639 0
-216 -36 3639 0
749 -3640 0
-525 -3640 0
-749 525 3640 0
-642 -3641 0
387 -3641 0
642 -387 3641 0
-722 -3642 0
692 -3642 0
722 -692 3642 0
52 -3643 0
-717 -3643 0
-52 717 3643 0
-380 -3644 0
274 -3644 0
380 -274 3644 0
-889 -3645 0
516 -3645 0
889 -516 3645 0
555 -3646 0
394 -3646 0
-555 -394 3646 0
419 -3647 0
-622 -3647 0
-419 622 3647 0
38 -3648 0
390 -3648 0
-38 -390 3648 0
-370 -3649 0
625 -3649 0
370 -625 3649 0
-160 -3650 0
300 -3650 0
160 -300 3650 0
271 -3651 0
295 -3651 0
-271 -295 3651 0
136 -3652 0
912 -3652 0
-136 -912 3652 0
360 -3653 0
634 -3653 0
-360 -634 3653 0
50 -3654 0
-983 -3654 0
-50 983 3654 0
-867 -3655 0
555 -3655 0
867 -555 3655 0
959 -3656 0
-19 -3656 0
-959 19 3656 0
496 -3657 0
-218 -3657 0
-496 218 3657 0
-248 -3658 0
219 -3658 0
248 -219 3658 0
656 -3659 0
313 -3659 0
-656 -313 3659 0
391 -3660 0
605 -3660 0
-391 -605 3660 0
731 -3661 0
721 -3661 0
-731 -721 3661 0
61 -3662 0
274 -3662 0
-61 -274 3662 0
312 -3663 0
-662 -3663 0
-312 662 3663 0
301 -3664 0
649 -3664 0
-301 -649 3664 0
-432 -3665 0
728 -3665 0
432 -728 3665 0
40 -3666 0
-42 -3666 0
-40 42 3666 0
-323 -3667 0
308 -3667 0
323 -308 3667 0
683 -3668 0
601 -3668 0
-683 -601 3668 0
589 -3669 0
-279 -3669 0
-589 279 3669 0
-181 -3670 0
970 -3670 0
181 -970 3670 0
-136 -3671 0
762 -3671 0
136 -762 3671 0
312 -3672 0
-106 -3672 0
-312 106 3672 0
197 -3673 0
451 -3673 0
-197 -451 3673 0
756 -3674 0
778 -3674 0
-756 -778 3674 0
-188 -3675 0
35 -3675 0
188 -35 3675 0
-649 -3676 0
812 -3676 0
649 -812 3676 0
532 -3677 0
-567 -3677 0
-532 567 3677 0
430 -3678 0
667 -3678 0
-430 -667 3678 0
312 -3679 0
-206 -3679 0
-312 206 3679 0
583 -3680 0
538 -3680 0
-583 -538 3680 0
412 -3681 0
-309 -3681 0
-412 309 3681 0
-217 -3682 0
877 -3682 0
217 -877 3682 0
-535 -3683 0
721 -3683 0
535 -721 3683 0
-33 -3684 0
850 -3684 0
33 -850 3684 0
824 -3685 0
-161 -3685 0
-824 161 3685 0
621 -3686 0
692 -3686 0
-621 -692 3686 0
-59 -3687 0
893 -3687 0
59 -893 3687 0
105 -3688 0
33 -3688 0
-105 -33 3688 0
-844 -3689 0
931 -3689 0
844 -931 3689 0
237 -3690 0
145 -3690 0
-237 -145 3690 0
491 -3691 0
-470 -3691 0
-491 470 3691 0
181 -3692 0
699 -3692 0
-181 -699 3692 0
526 -3693 0
-279 -3693 0
-526 279 3693 0
79 -3694 0
339 -3694 0
-79 -339 3694 0
-520 -3695 0
877 -3695 0
520 -877 3695 0
821 -3696 0
283 -3696 0
-821 -283 3696 0
-877 -3697 0
891 -3697 0
877 -891 3697 0
584 -3698 0
392 -3698 0
-584 -392 3698 0
268 -3699 0
537 -3699 0
-268 -537 3699 0
447 -3700 0
-36 -3700 0
-447 36 3700 0
606 -3701 0
845 -3701 0
-606 -845 3701 0
-673 -3702 0
477 -3702 0
673 -477 3702 0
234 -3703 0
361 -3703 0
-234 -361 3703 0
701 -3704 0
691 -3704 0
-701 -691 3704 0
205 -3705 0
-479 -3705 0
-205 479 3705 0
926 -3706 0
827 -3706 0
-926 -827 3706 0
-560 -3707 0
742 -3707 0
560 -742 3707 0
-205 -3708 0
835 -3708 0
205 -835 3708 0
246 -3709 0
-341 -3709 0
-246 341 3709 0
124 -3710 0
730 -3710 0
-124 -730 3710 0
-694 -3711 0
641 -3711 0
694 -641 3711 0
-85 -3712 0
449 -3712 0
85 -449 3712 0
294 -3713 0
108 -3713 0
-294 -108 3713 0
335 -3714 0
-122 -3714 0
-335 122 3714 0
49 -3715 0
881 -3715 0
-49 -881 3715 0
952 -3716 0
-954 -3716 0
-952 954 3716 0
100 -3717 0
698 -3717 0
-100 -698 3717 0
-385 -3718 0
881 -3718 0
385 -881 3718 0
527 -3719 0
-183 -3719 0
-527 183 3719 0
-512 -3720 0
141 -3720 0
512 -141 3720 0
687 -3721 0
-140 -3721 0
-687 140 3721 0
99 -3722 0
569 -3722 0
-99 -569 3722 0
634 -3723 0
-495 -3723 0
-634 495 3723 0
197 -3724 0
-558 -3724 0
-197 558 3724 0
102 -3725 0
345 -3725 0
-102 -345 3725 0
813 -3726 0
-820 -3726 0
-813 820 3726 0
803 -3727 0
505 -3727 0
-803 -505 3727 0
556 -3728 0
-596 -3728 0
-556 596 3728 0
760 -3729 0
983 -3729 0
-760 -983 3729 0
-666 -3730 0
925 -3730 0
666 -925 3730 0
781 -3731 0
385 -3731 0
-781 -385 3731 0
-97 -3732 0
617 -3732 0
97 -617 3732 0
-841 -3733 0
274 -3733 0
841 -274 3733 0
-636 -3734 0
81 -3734 0
636 -81 3734 0
768 -3735 0
-867 -3735 0
-768 867 3735 0
332 -3736 0
-110 -3736 0
-332 110 3736 0
-825 -3737 0
489 -3737 0
825 -489 3737 0
800 -3738 0
-506 -3738 0
-800 506 3738 0
363 -3739 0
665 -3739 0
-363 -665 3739 0
819 -3740 0
82 -3740 0
-819 -82 3740 0
-476 -3741 0
874 -3741 0
476 -874 3741 0
-728 -3742 0
562 -3742 0
728 -562 3742 0
752 -3743 0
-754 -3743 0
-752 754 3743 0
-219 -3744 0
673 -3744 0
219 -673 3744 0
192 -3745 0
486 -3745 0
-192 -486 3745 0
631 -3746 0
-719 -3746 0
-631 719 3746 0
-864 -3747 0
310 -3747 0
864 -310 3747 0
-713 -3748 0
236 -3748 0
713 -236 3748 0
646 -3749 0
405 -3749 0
-646 -405 3749 0
588 -3750 0
-885 -3750 0
-588 885 3750 0
599 -3751 0
337 -3751 0
-599 -337 3751 0
-761 -3752 0
159 -3752 0
761 -159 3752 0
864 -3753 0
-678 -3753 0
-864 678 3753 0
-866 -3754 0
403 -3754 0
866 -403 3754 0
599 -3755 0
-695 -3755 0
-599 695 3755 0
324 -3756 0
483 -3756 0
-324 -483 3756 0
-849 -3757 0
612 -3757 0
849 -612 3757 0
126 -3758 0
-163 -3758 0
-126 163 3758 0
335 -3759 0
-638 -3759 0
-335 638 3759 0
784 -3760 0
925 -3760 0
-784 -925 3760 0
207 -3761 0
-603 -3761 0
-207 603 3761 0
-577 -3762 0
363 -3762 0
577 -363 3762 0
-875 -3763 0
411 -3763 0
875 -411 3763 0
902 -3764 0
922 -3764 0
-902 -922 3764 0
910 -3765 0
-852 -3765 0
-910 852 3765 0
6 -3766 0
58 -3766 0
-6 -58 3766 0
-691 -3767 0
610 -3767 0
691 -610 3767 0
939 -3768 0
-958 -3768 0
-939 958 3768 0
296 -3769 0
-6 -3769 0
-296 6 3769 0
-956 -3770 0
737 -3770 0
956 -737 3770 0
560 -3771 0
272 -3771 0
-560 -272 3771 0
159 -3772 0
451 -3772 0
-159 -451 3772 0
423 -3773 0
921 -3773 0
-423 -921 3773 0
900 -3774 0
-748 -3774 0
-900 748 3774 0
710 -3775 0
474 -3775 0
-710 -474 3775 0
-976 -3776 0
304 -3776 0
976 -304 3776 0
904 -3777 0
229 -3777 0
-904 -229 3777 0
15 -3778 0
685 -3778 0
-15 -685 3778 0
839 -3779 0
226 -3779 0
-839 -226 3779 0
-782 -3780 0
969 -3780 0
782 -969 3780 0
240 -3781 0
-584 -3781 0
-240 584 3781 0
214 -3782 0
561 -3782 0
-214 -561 3782 0
617 -3783 0
793 -3783 0
-617 -793 3783 0
535 -3784 0
9 -3784 0
-535 -9 3784 0
932 -3785 0
-469 -3785 0
-932 469 3785 0
247 -3786 0
230 -3786 0
-247 -230 3786 0
829 -3787 0
-171 -3787 0
-829 171 3787 0
468 -3788 0
524 -3788 0
-468 -524 3788 0
421 -3789 0
-987 -3789 0
-421 987 3789 0
43 -3790 0
106 -3790 0
-43 -106 3790 0
148 -3791 0
-142 -3791 0
-148 142 3791 0
589 -3792 0
-727 -3792 0
-589 727 3792 0
-80 -3793 0
25 -3793 0
80 -25 3793 0
805 -3794 0
484 -3794 0
-805 -484 3794 0
-249 -3795 0
809 -3795 0
249 -809 3795 0
544 -3796 0
510 -3796 0
-544 -510 3796 0
494 -3797 0
259 -3797 0
-494 -259 3797 0
583 -3798 0
717 -3798 0
-583 -717 3798 0
-353 -3799 0
346 -3799 0
353 -346 3799 0
318 -3800 0
836 -3800 0
-318 -836 3800 0
224 -3801 0
-400 -3801 0
-224 400 3801 0
-843 -3802 0
301 -3802 0
843 -301 3802 0
374 -3803 0
-895 -3803 0
-374 895 3803 0
512 -3804 0
353 -3804 0
-512 -353 3804 0
562 -3805 0
1 -3805 0
-562 -1 3805 0
940 -3806 0
793 -3806 0
-940 -793 3806 0
488 -3807 0
-470 -3807 0
-488 470 3807 0
23 -3808 0
636 -3808 0
-23 -636 3808 0
925 -3809 0
-630 -3809 0
-925 630 3809 0
-123 -3810 0
156 -3810 0
123 -156 3810 0
-777 -3811 0
772 -3811 0
777 -772 3811 0
182 -3812 0
-422 -3812 0
-182 422 3812 0
533 -3813 0
108 -3813 0
-533 -108 3813 0
879 -3814 0
-470 -3814 0
-879 470 3814 0
95 -3815 0
-860 -3815 0
-95 860 3815 0
-702 -3816 0
153 -3816 0
702 -153 3816 0
-664 -3817 0
968 -3817 0
664 -968 3817 0
-928 -3818 0
50 -3818 0
928 -50 3818 0
543 -3819 0
1 -3819 0
-543 -1 3819 0
152 -3820 0
-507 -3820 0
-152 507 3820 0
-337 -3821 0
442 -3821 0
337 -442 3821 0
290 -3822 0
-263 -3822 0
-290 263 3822 0
422 -3823 0
-742 -3823 0
-422 742 3823 0
144 -3824 0
-766 -3824 0
-144 766 3824 0
108 -3825 0
-654 -3825 0
-108 654 3825 0
-733 -3826 0
491 -3826 0
733 -491 3826 0
360 -3827 0
612 -3827 0
-360 -612 3827 0
772 -3828 0
81 -3828 0
-772 -81 3828 0
794 -3829 0
265 -3829 0
-794 -265 3829 0
-763 -3830 0
522 -3830 0
763 -522 3830 0
835 -3831 0
745 -3831 0
-835 -745 3831 0
447 -3832 0
-153 -3832 0
-447 153 3832 0
351 -3833 0
-127 -3833 0
-351 127 3833 0
904 -3834 0
297 -3834 0
-904 -297 3834 0
-27 -3835 0
187 -3835 0
27 -187 3835 0
316 -3836 0
-862 -3836 0
-316 862 3836 0
404 -3837 0
-206 -3837 0
-404 206 3837 0
209 -3838 0
-695 -3838 0
-209 695 3838 0
471 -3839 0
181 -3839 0
-471 -181 3839 0
877 -3840 0
74 -3840 0
-877 -74 3840 0
-190 -3841 0
50 -3841 0
190 -50 3841 0
-34 -3842 0
658 -3842 0
34 -658 3842 0
678 -3843 0
140 -3843 0
-678 -140 3843 0
288 -3844 0
-43 -3844 0
-288 43 3844 0
-356 -3845 0
706 -3845 0
356 -706 3845 0
648 -3846 0
842 -3846 0
-648 -842 3846 0
-162 -3847 0
300 -3847 0
162 -300 3847 0
-961 -3848 0
410 -3848 0
961 -410 3848 0
261 -3849 0
257 -3849 0
-261 -257 3849 0
98 -3850 0
-351 -3850 0
-98 351 3850 0
-440 -3851 0
801 -3851 0
440 -801 3851 0
-89 -3852 0
876 -3852 0
89 -876 3852 0
-552 -3853 0
122 -3853 0
552 -122 3853 0
308 -3854 0
-13 -3854 0
-308 13 3854 0
-873 -3855 0
153 -3855 0
873 -153 3855 0
-728 -3856 0
266 -3856 0
728 -266 3856 0
-642 -3857 0
998 -3857 0
642 -998 3857 0
-25 -3858 0
18 -3858 0
25 -18 3858 0
491 -3859 0
-885 -3859 0
-491 885 3859 0
492 -3860 0
-326 -3860 0
-492 326 3860 0
-738 -3861 0
825 -3861 0
738 -825 3861 0
-440 -3862 0
551 -3862 0
440 -551 3862 0
994 -3863 0
-591 -3863 0
-994 591 3863 0
-723 -3864 0
962 -3864 0
723 -962 3864 0
797 -3865 0
754 -3865 0
-797 -754 3865 0
-608 -3866 0
998 -3866 0
608 -998 3866 0
-453 -3867 0
418 -3867 0
453 -418 3867 0
-16 -3868 0
379 -3868 0
16 -379 3868 0
-162 -3869 0
876 -3869 0
162 -876 3869 0
145 -3870 0
353 -3870 0
-145 -353 3870 0
663 -3871 0
403 -3871 0
-663 -403 3871 0
997 -3872 0
-684 -3872 0
-997 684 3872 0
-884 -3873 0
115 -3873 0
884 -115 3873 0
806 -3874 0
-164 -3874 0
-806 164 3874 0
-705 -3875 0
877 -3875 0
705 -877 3875 0
792 -3876 0
-777 -3876 0
-792 777 3876 0
-699 -3877 0
579 -3877 0
699 -579 3877 0
173 -3878 0
-317 -3878 0
-173 317 3878 0
-764 -3879 0
689 -3879 0
764 -689 3879 0
-985 -3880 0
540 -3880 0
985 -540 3880 0
942 -3881 0
492 -3881 0
-942 -492 3881 0
-380 -3882 0
889 -3882 0
380 -889 3882 0
789 -3883 0
331 -3883 0
-789 -331 3883 0
728 -3884 0
218 -3884 0
-728 -218 3884 0
142 -3885 0
750 -3885 0
-142 -750 3885 0
830 -3886 0
-130 -3886 0
-830 130 3886 0
344 -3887 0
430 -3887 0
-344 -430 3887 0
-329 -3888 0
831 -3888 0
329 -831 3888 0
32 -3889 0
-692 -3889 0
-32 692 3889 0
-354 -3890 0
382 -3890 0
354 -382 3890 0
-925 -3891 0
890 -3891 0
925 -890 3891 0
-896 -3892 0
781 -3892 0
896 -781 3892 0
612 -3893 0
-157 -3893 0
-612 157 3893 0
525 -3894 0
-270 -3894 0
-525 270 3894 0
437 -3895 0
-275 -3895 0
-437 275 3895 0
-353 -3896 0
125 -3896 0
353 -125 3896 0
407 -3897 0
589 -3897 0
-407 -589 3897 0
408 -3898 0
901 -3898 0
-408 -901 3898 0
21 -3899 0
450 -3899 0
-21 -450 3899 0
791 -3900 0
-330 -3900 0
-791 330 3900 0
-218 -3901 0
990 -3901 0
218 -990 3901 0
39 -3902 0
-370 -3902 0
-39 370 3902 0
-788 -3903 0
450 -3903 0
788 -450 3903 0
884 -3904 0
-796 -3904 0
-884 796 3904 0
604 -3905 0
-463 -3905 0
-604 463 3905 0
862 -3906 0
870 -3906 0
-862 -870 3906 0
476 -3907 0
-950 -3907 0
-476 950 3907 0
-872 -3908 0
313 -3908 0
872 -313 3908 0
254 -3909 0
-717 -3909 0
-254 717 3909 0
320 -3910 0
-179 -3910 0
-320 179 3910 0
-849 -3911 0
193 -3911 0
849 -193 3911 0
638 -3912 0
385 -3912 0
-638 -385 3912 0
503 -3913 0
508 -3913 0
-503 -508 3913 0
296 -3914 0
-619 -3914 0
-296 619 3914 0
126 -3915 0
-253 -3915 0
-126 253 3915 0
30 -3916 0
316 -3916 0
-30 -316 3916 0
742 -3917 0
955 -3917 0
-742 -955 3917 0
672 -3918 0
245 -3918 0
-672 -245 3918 0
-612 -3919 0
996 -3919 0
612 -996 3919 0
-347 -3920 0
250 -3920 0
347 -250 3920 0
-458 -3921 0
709 -3921 0
458 -709 3921 0
338 -3922 0
505 -3922 0
-338 -505 3922 0
-997 -3923 0
506 -3923 0
997 -506 3923 0
-875 -3924 0
450 -3924 0
875 -450 3924 0
29 -3925 0
-46 -3925 0
-29 46 3925 0
-721 -3926 0
434 -3926 0
721 -434 3926 0
608 -3927 0
-418 -3927 0
-608 418 3927 0
824 -3928 0
259 -3928 0
-824 -259 3928 0
-817 -3929 0
993 -3929 0
817 -993 3929 0
399 -3930 0
999 -3930 0
-399 -999 3930 0
-812 -3931 0
713 -3931 0
812 -713 3931 0
-402 -3932 0
877 -3932 0
402 -877 3932 0
367 -3933 0
350 -3933 0
-367 -350 3933 0
133 -3934 0
507 -3934 0
-133 -507 3934 0
391 -3935 0
-799 -3935 0
-391 799 3935 0
-859 -3936 0
737 -3936 0
859 -737 3936 0
64 -3937 0
413 -3937 0
-64 -413 3937 0
844 -3938 0
123 -3938 0
-844 -123 3938 0
-944 -3939 0
288 -3939 0
944 -288 3939 0
-232 -3940 0
412 -3940 0
232 -412 3940 0
971 -3941 0
-967 -3941 0
-971 967 3941 0
-104 -3942 0
732 -3942 0
104 -732 3942 0
756 -3943 0
-565 -3943 0
-756 565 3943 0
448 -3944 0
98 -3944 0
-448 -98 3944 0
-496 -3945 0
773 -3945 0
496 -773 3945 0
78 -3946 0
803 -3946 0
-78 -803 3946 0
720 -3947 0
-303 -3947 0
-720 303 3947 0
498 -3948 0
841 -3948 0
-498 -841 3948 0
-456 -3949 0
888 -3949 0
456 -888 3949 0
30 -3950 0
907 -3950 0
-30 -907 3950 0
935 -3951 0
-553 -3951 0
-935 553 3951 0
227 -3952 0
41 -3952 0
-227 -41 3952 0
-907 -3953 0
241 -3953 0
907 -241 3953 0
955 -3954 0
962 -3954 0
-955 -962 3954 0
831 -3955 0
827 -3955 0
-831 -827 3955 0
150 -3956 0
-61 -3956 0
-150 61 3956 0
109 -3957 0
-207 -3957 0
-109 207 3957 0
111 -3958 0
403 -3958 0
-111 -403 3958 0
712 -3959 0
552 -3959 0
-712 -552 3959 0
-147 -3960 0
172 -3960 0
147 -172 3960 0
230 -3961 0
193 -3961 0
-230 -193 3961 0
747 -3962 0
-54 -3962 0
-747 54 3962 0
767 -3963 0
993 -3963 0
-767 -993 3963 0
360 -3964 0
-394 -3965 0
828 -3965 0
394 -828 3965 0
348 -3966 0
-662 -3966 0
-348 662 3966 0
38 -3967 0
923 -3967 0
-38 -923 3967 0
594 -3968 0
954 -3968 0
-594 -954 3968 0
-147 -3969 0
161 -3969 0
147 -161 3969 0
-58 -3970 0
965 -3970 0
58 -965 3970 0
-21 -3971 0
58 -3971 0
21 -58 3971 0
229 -3972 0
139 -3972 0
-229 -139 3972 0
56 -3973 0
94 -3973 0
-56 -94 3973 0
365 -3974 0
-958 -3974 0
-365 958 3974 0
971 -3975 0
-805 -3975 0
-971 805 3975 0
90 -3976 0
882 -3976 0
-90 -882 3976 0
487 -3977 0
-724 -3977 0
-487 724 3977 0
926 -3978 0
249 -3978 0
-926 -249 3978 0
64 -3979 0
581 -3979 0
-64 -581 3979 0
-708 -3980 0
577 -3980 0
708 -577 3980 0
-226 -3981 0
373 -3981 0
226 -373 3981 0
445 -3982 0
435 -3982 0
-445 -435 3982 0
394 -3983 0
186 -3983 0
-394 -186 3983 0
535 -3984 0
20 -3984 0
-535 -20 3984 0
443 -3985 0
866 -3985 0
-443 -866 3985 0
-501 -3986 0
891 -3986 0
501 -891 3986 0
16 -3987 0
-760 -3987 0
-16 760 3987 0
-709 -3988 0
321 -3988 0
709 -321 3988 0
93 -3989 0
817 -3989 0
-93 -817 3989 0
732 -3990 0
-773 -3990 0
-732 773 3990 0
-570 -3991 0
370 -3991 0
570 -370 3991 0
312 -3992 0
-757 -3992 0
-312 757 3992 0
-900 -3993 0
505 -3993 0
900 -505 3993 0
384 -3994 0
-862 -3994 0
-384 862 3994 0
-600 -3995 0
379 -3995 0
600 -379 3995 0
1000 -3996 0
961 -3996 0
-1000 -961 3996 0
736 -3997 0
588 -3997 0
-736 -588 3997 0
47 -3998 0
483 -3998 0
-47 -483 3998 0
235 -3999 0
921 -3999 0
-235 -921 3999 0
419 -4000 0
730 -4000 0
-419 -730 4000 0
600 -4001 0
-733 -4001 0
-600 733 4001 0
-810 -4002 0
345 -4002 0
810 -345 4002 0
720 -4003 0
34 -4003 0
-720 -34 4003 0
501 -4004 0
-739 -4004 0
-501 739 4004 0
-266 -4005 0
356 -4005 0
266 -356 4005 0
782 -4006 0
259 -4006 0
-782 -259 4006 0
-480 -4007 0
819 -4007 0
480 -819 4007 0
542 -4008 0
-659 -4008 0
-542 659 4008 0
459 -4009 0
-511 -4009 0
-459 511 4009 0
450 -4010 0
609 -4010 0
-450 -609 4010 0
-428 -4011 0
859 -4011 0
428 -859 4011 0
-452 -4012 0
673 -4012 0
452 -673 4012 0
991 -4013 0
306 -4013 0
-991 -306 4013 0
919 -4014 0
111 -4014 0
-919 -111 4014 0
179 -4015 0
-119 -4015 0
-179 119 4015 0
175 -4016 0
-578 -4016 0
-175 578 4016 0
551 -4017 0
-677 -4017 0
-551 677 4017 0
-904 -4018 0
125 -4018 0
904 -125 4018 0
-328 -4019 0
327 -4019 0
328 -327 4019 0
584 -4020 0
198 -4020 0
-584 -198 4020 0
358 -4021 0
97 -4021 0
-358 -97 4021 0
-162 -4022 0
218 -4022 0
162 -218 4022 0
634 -4023 0
786 -4023 0
-634 -786 4023 0
648 -4024 0
-662 -4024 0
-648 662 4024 0
-590 -4025 0
305 -4025 0
590 -305 4025 0
8 -4026 0
106 -4026 0
-8 -106 4026 0
-379 -4027 0
795 -4027 0
379 -795 4027 0
164 -4028 0
244 -4028 0
-164 -244 4028 0
-144 -4029 0
685 -4029 0
144 -685 4029 0
488 -4030 0
794 -4030 0
-488 -794 4030 0
335 -4031 0
681 -4031 0
-335 -681 4031 0
836 -4032 0
833 -4032 0
-836 -833 4032 0
-337 -4033 0
876 -4033 0
337 -876 4033 0
589 -4034 0
-395 -4035 0
164 -4035 0
395 -164 4035 0
14 -4036 0
45 -4036 0
-14 -45 4036 0
719 -4037 0
189 -4037 0
-719 -189 4037 0
624 -4038 0
610 -4038 0
-624 -610 4038 0
772 -4039 0
699 -4039 0
-772 -699 4039 0
282 -4040 0
-455 -4040 0
-282 455 4040 0
199 -4041 0
898 -4041 0
-199 -898 4041 0
380 -4042 0
556 -4042 0
-380 -556 4042 0
830 -4043 0
-910 -4043 0
-830 910 4043 0
898 -4044 0
-215 -4044 0
-898 215 4044 0
-581 -4045 0
785 -4045 0
581 -785 4045 0
-856 -4046 0
451 -4046 0
856 -451 4046 0
269 -4047 0
153 -4047 0
-269 -153 4047 0
596 -4048 0
299 -4048 0
-596 -299 4048 0
-864 -4049 0
347 -4049 0
864 -347 4049 0
62 -4050 0
-149 -4050 0
-62 149 4050 0
821 -4051 0
427 -4051 0
-821 -427 4051 0
844 -4052 0
-206 -4052 0
-844 206 4052 0
949 -4053 0
53 -4053 0
-949 -53 4053 0
158 -4054 0
130 -4054 0
-158 -130 4054 0
90 -4055 0
354 -4055 0
-90 -354 4055 0
72 -4056 0
571 -4056 0
-72 -571 4056 0
312 -4057 0
-795 -4057 0
-312 795 4057 0
-760 -4058 0
873 -4058 0
760 -873 4058 0
868 -4059 0
-150 -4059 0
-868 150 4059 0
925 -4060 0
434 -4060 0
-925 -434 4060 0
734 -4061 0
269 -4061 0
-734 -269 4061 0
517 -4062 0
-846 -4062 0
-517 846 4062 0
703 -4063 0
10 -4063 0
-703 -10 4063 0
623 -4064 0
-894 -4064 0
-623 894 4064 0
348 -4065 0
-388 -4065 0
-348 388 4065 0
62 -4066 0
-75 -4066 0
-62 75 4066 0
791 -4067 0
578 -4067 0
-791 -578 4067 0
912 -4068 0
747 -4068 0
-912 -747 4068 0
-672 -4069 0
364 -4069 0
672 -364 4069 0
-458 -4070 0
741 -4070 0
458 -741 4070 0
844 -4071 0
-543 -4071 0
-844 543 4071 0
694 -4072 0
802 -4072 0
-694 -802 4072 0
-354 -4073 0
861 -4073 0
354 -861 4073 0
-838 -4074 0
762 -4074 0
838 -762 4074 0
39 -4075 0
-442 -4075 0
-39 442 4075 0
-429 -4076 0
121 -4076 0
429 -121 4076 0
37 -4077 0
-255 -4077 0
-37 255 4077 0
-234 -4078 0
859 -4078 0
234 -859 4078 0
-450 -4079 0
20 -4079 0
450 -20 4079 0
962 -4080 0
153 -4080 0
-962 -153 4080 0
878 -4081 0
-695 -4081 0
-878 695 4081 0
-545 -4082 0
983 -4082 0
545 -983 4082 0
358 -4083 0
523 -4083 0
-358 -523 4083 0
871 -4084 0
780 -4084 0
-871 -780 4084 0
560 -4085 0
138 -4085 0
-560 -138 4085 0
776 -4086 0
932 -4086 0
-776 -932 4086 0
923 -4087 0
-734 -4087 0
-923 734 4087 0
-681 -4088 0
823 -4088 0
681 -823 4088 0
405 -4089 0
261 -4089 0
-405 -261 4089 0
32 -4090 0
842 -4090 0
-32 -842 4090 0
-616 -4091 0
581 -4091 0
616 -581 4091 0
248 -4092 0
-620 -4092 0
-248 620 4092 0
1000 -4093 0
-533 -4093 0
-1000 533 4093 0
895 -4094 0
955 -4094 0
-895 -955 4094 0
623 -4095 0
898 -4095 0
-623 -898 4095 0
632 -4096 0
396 -4096 0
-632 -396 4096 0
-955 -4097 0
244 -4097 0
955 -244 4097 0
807 -4098 0
-578 -4098 0
-807 578 4098 0
514 -4099 0
-79 -4099 0
-514 79 4099 0
214 -4100 0
617 -4100 0
-214 -617 4100 0
-59 -4101 0
549 -4101 0
59 -549 4101 0
74 -4102 0
113 -4102 0
-74 -113 4102 0
622 -4103 0
217 -4103 0
-622 -217 4103 0
-568 -4104 0
276 -4104 0
568 -276 4104 0
873 -4105 0
-223 -4105 0
-873 223 4105 0
-680 -4106 0
101 -4106 0
680 -101 4106 0
415 -4107 0
73 -4107 0
-415 -73 4107 0
615 -4108 0
847 -4108 0
-615 -847 4108 0
415 -4109 0
22 -4109 0
-415 -22 4109 0
-82 -4110 0
843 -4110 0
82 -843 4110 0
896 -4111 0
-405 -4111 0
-896 405 4111 0
-521 -4112 0
23 -4112 0
521 -23 4112 0
391 -4113 0
-319 -4113 0
-391 319 4113 0
-877 -4114 0
570 -4114 0
877 -570 4114 0
207 -4115 0
-810 -4115 0
-207 810 4115 0
564 -4116 0
-221 -4116 0
-564 221 4116 0
238 -4117 0
453 -4117 0
-238 -453 4117 0
12 -4118 0
-437 -4118 0
-12 437 4118 0
70 -4119 0
190 -4119 0
-70 -190 4119 0
911 -4120 0
217 -4120 0
-911 -217 4120 0
726 -4121 0
362 -4121 0
-726 -362 4121 0
127 -4122 0
-228 -4122 0
-127 228 4122 0
-985 -4123 0
505 -4123 0
985 -505 4123 0
-752 -4124 0
243 -4124 0
752 -243 4124 0
-375 -4125 0
185 -4125 0
375 -185 4125 0
939 -4126 0
-135 -4126 0
-939 135 4126 0
71 -4127 0
427 -4127 0
-71 -427 4127 0
-225 -4128 0
247 -4128 0
225 -247 4128 0
-150 -4129 0
857 -4129 0
150 -857 4129 0
543 -4130 0
-791 -4130 0
-543 791 4130 0
23 -4131 0
-404 -4131 0
-23 404 4131 0
235 -4132 0
-869 -4132 0
-235 869 4132 0
-477 -4133 0
522 -4133 0
477 -522 4133 0
-194 -4134 0
29 -4134 0
194 -29 4134 0
123 -4135 0
986 -4135 0
-123 -986 4135 0
-85 -4136 0
962 -4136 0
85 -962 4136 0
557 -4137 0
849 -4137 0
-557 -849 4137 0
287 -4138 0
-812 -4138 0
-287 812 4138 0
-104 -4139 0
948 -4139 0
104 -948 4139 0
-720 -4140 0
563 -4140 0
720 -563 4140 0
-225 -4141 0
428 -4141 0
225 -428 4141 0
445 -4142 0
626 -4142 0
-445 -626 4142 0
760 -4143 0
-44 -4143 0
-760 44 4143 0
-281 -4144 0
358 -4144 0
281 -358 4144 0
719 -4145 0
749 -4145 0
-719 -749 4145 0
270 -4146 0
609 -4146 0
-270 -609 4146 0
461 -4147 0
-436 -4147 0
-461 436 4147 0
167 -4148 0
222 -4148 0
-167 -222 4148 0
-792 -4149 0
741 -4149 0
792 -741 4149 0
-8 -4150 0
43 -4150 0
8 -43 4150 0
485 -4151 0
531 -4151 0
-485 -531 4151 0
-435 -4152 0
747 -4152 0
435 -747 4152 0
172 -4153 0
73 -4153 0
-172 -73 4153 0
-385 -4154 0
523 -4154 0
385 -523 4154 0
622 -4155 0
-231 -4155 0
-622 231 4155 0
40 -4156 0
-143 -4156 0
-40 143 4156 0
240 -4157 0
-680 -4157 0
-240 680 4157 0
755 -4158 0
-127 -4158 0
-755 127 4158 0
501 -4159 0
673 -4159 0
-501 -673 4159 0
870 -4160 0
-478 -4160 0
-870 478 4160 0
-521 -4161 0
782 -4161 0
521 -782 4161 0
-988 -4162 0
660 -4162 0
988 -660 4162 0
-40 -4163 0
322 -4163 0
40 -322 4163 0
-203 -4164 0
881 -4164 0
203 -881 4164 0
527 -4165 0
-773 -4165 0
-527 773 4165 0
104 -4166 0
-80 -4166 0
-104 80 4166 0
-567 -4167 0
657 -4167 0
567 -657 4167 0
-459 -4168 0
826 -4168 0
459 -826 4168 0
-861 -4169 0
323 -4169 0
861 -323 4169 0
-164 -4170 0
913 -4170 0
164 -913 4170 0
-281 -4171 0
998 -4171 0
281 -998 4171 0
918 -4172 0
-838 -4172 0
-918 838 4172 0
-536 -4173 0
589 -4173 0
536 -589 4173 0
678 -4174 0
357 -4174 0
-678 -357 4174 0
623 -4175 0
-158 -4175 0
-623 158 4175 0
906 -4176 0
-318 -4176 0
-906 318 4176 0
870 -4177 0
876 -4177 0
-870 -876 4177 0
975 -4178 0
-188 -4178 0
-975 188 4178 0
-448 -4179 0
30 -4179 0
448 -30 4179 0
84 -4180 0
236 -4180 0
-84 -236 4180 0
488 -4181 0
975 -4181 0
-488 -975 4181 0
981 -4182 0
-622 -4182 0
-981 622 4182 0
421 -4183 0
597 -4183 0
-421 -597 4183 0
366 -4184 0
-382 -4184 0
-366 382 4184 0
959 -4185 0
-270 -4185 0
-959 270 4185 0
517 -4186 0
459 -4186 0
-517 -459 4186 0
236 -4187 0
-837 -4187 0
-236 837 4187 0
-192 -4188 0
90 -4188 0
192 -90 4188 0
-404 -4189 0
697 -4189 0
404 -697 4189 0
425 -4190 0
-743 -4190 0
-425 743 4190 0
415 -4191 0
833 -4191 0
-415 -833 4191 0
-82 -4192 0
579 -4192 0
82 -579 4192 0
719 -4193 0
513 -4193 0
-719 -513 4193 0
-577 -4194 0
121 -4194 0
577 -121 4194 0
663 -4195 0
-356 -4195 0
-663 356 4195 0
203 -4196 0
-351 -4196 0
-203 351 4196 0
201 -4197 0
-679 -4197 0
-201 679 4197 0
975 -4198 0
-746 -4198 0
-975 746 4198 0
896 -4199 0
785 -4199 0
-896 -785 4199 0
-969 -4200 0
442 -4200 0
969 -442 4200 0
-861 -4201 0
417 -4201 0
861 -417 4201 0
-677 -4202 0
642 -4202 0
677 -642 4202 0
243 -4203 0
-423 -4203 0
-243 423 4203 0
-709 -4204 0
906 -4204 0
709 -906 4204 0
784 -4205 0
-891 -4205 0
-784 891 4205 0
-546 -4206 0
747 -4206 0
546 -747 4206 0
-248 -4207 0
446 -4207 0
248 -446 4207 0
-264 -4208 0
119 -4208 0
264 -119 4208 0
-841 -4209 0
537 -4209 0
841 -537 4209 0
655 -4210 0
670 -4210 0
-655 -670 4210 0
-648 -4211 0
413 -4211 0
648 -413 4211 0
-736 -4212 0
14 -4212 0
736 -14 4212 0
-8 -4213 0
732 -4213 0
8 -732 4213 0
-474 -4214 0
155 -4214 0
474 -155 4214 0
368 -4215 0
-611 -4215 0
-368 611 4215 0
464 -4216 0
-99 -4216 0
-464 99 4216 0
709 -4217 0
-4 -4217 0
-709 4 4217 0
733 -4218 0
546 -4218 0
-733 -546 4218 0
-643 -4219 0
553 -4219 0
643 -553 4219 0
918 -4220 0
661 -4220 0
-918 -661 4220 0
-221 -4221 0
170 -4221 0
221 -170 4221 0
754 -4222 0
-495 -4222 0
-754 495 4222 0
-129 -4223 0
523 -4223 0
129 -523 4223 0
-824 -4224 0
359 -4224 0
824 -359 4224 0
756 -4225 0
433 -4225 0
-756 -433 4225 0
-404 -4226 0
692 -4226 0
404 -692 4226 0
919 -4227 0
-726 -4227 0
-919 726 4227 0
94 -4228 0
-467 -4228 0
-94 467 4228 0
650 -4229 0
394 -4229 0
-650 -394 4229 0
181 -4230 0
91 -4230 0
-181 -91 4230 0
392 -4231 0
734 -4231 0
-392 -734 4231 0
-433 -4232 0
870 -4232 0
433 -870 4232 0
605 -4233 0
83 -4233 0
-605 -83 4233 0
-82 -4234 0
739 -4234 0
82 -739 4234 0
262 -4235 0
-847 -4235 0
-262 847 4235 0
-258 -4236 0
315 -4236 0
258 -315 4236 0
810 -4237 0
-71 -4237 0
-810 71 4237 0
968 -4238 0
-550 -4238 0
-968 550 4238 0
428 -4239 0
778 -4239 0
-428 -778 4239 0
-810 -4240 0
969 -4240 0
810 -969 4240 0
791 -4241 0
559 -4241 0
-791 -559 4241 0
856 -4242 0
357 -4242 0
-856 -357 4242 0
863 -4243 0
379 -4243 0
-863 -379 4243 0
164 -4244 0
793 -4244 0
-164 -793 4244 0
864 -4245 0
137 -4245 0
-864 -137 4245 0
826 -4246 0
73 -4246 0
-826 -73 4246 0
-307 -4247 0
93 -4247 0
307 -93 4247 0
160 -4248 0
-469 -4248 0
-160 469 4248 0
-656 -4249 0
194 -4249 0
656 -194 4249 0
856 -4250 0
-106 -4250 0
-856 106 4250 0
-289 -4251 0
350 -4251 0
289 -350 4251 0
-514 -4252 0
677 -4252 0
514 -677 4252 0
-705 -4253 0
419 -4253 0
705 -419 4253 0
906 -4254 0
778 -4254 0
-906 -778 4254 0
739 -4255 0
-631 -4255 0
-739 631 4255 0
382 -4256 0
705 -4256 0
-382 -705 4256 0
-600 -4257 0
863 -4257 0
600 -863 4257 0
237 -4258 0
-782 -4258 0
-237 782 4258 0
-804 -4259 0
91 -4259 0
804 -91 4259 0
211 -4260 0
-133 -4260 0
-211 133 4260 0
792 -4261 0
-34 -4261 0
-792 34 4261 0
207 -4262 0
722 -4262 0
-207 -722 4262 0
798 -4263 0
68 -4263 0
-798 -68 4263 0
429 -4264 0
845 -4264 0
-429 -845 4264 0
-673 -4265 0
84 -4265 0
673 -84 4265 0
471 -4266 0
-602 -4266 0
-471 602 4266 0
-627 -4267 0
412 -4267 0
627 -412 4267 0
843 -4268 0
-878 -4268 0
-843 878 4268 0
-827 -4269 0
699 -4269 0
827 -699 4269 0
159 -4270 0
611 -4270 0
-159 -611 4270 0
877 -4271 0
715 -4271 0
-877 -715 4271 0
838 -4272 0
-63 -4272 0
-838 63 4272 0
335 -4273 0
-539 -4273 0
-335 539 4273 0
406 -4274 0
-108 -4274 0
-406 108 4274 0
271 -4275 0
193 -4275 0
-271 -193 4275 0
328 -4276 0
684 -4276 0
-328 -684 4276 0
-932 -4277 0
75 -4277 0
932 -75 4277 0
451 -4278 0
634 -4278 0
-451 -634 4278 0
-410 -4279 0
795 -4279 0
410 -795 4279 0
-722 -4280 0
369 -4280 0
722 -369 4280 0
752 -4281 0
339 -4281 0
-752 -339 4281 0
-777 -4282 0
251 -4282 0
777 -251 4282 0
-189 -4283 0
610 -4283 0
189 -610 4283 0
150 -4284 0
-669 -4284 0
-150 669 4284 0
-729 -4285 0
621 -4285 0
729 -621 4285 0
870 -4286 0
867 -4286 0
-870 -867 4286 0
213 -4287 0
74 -4287 0
-213 -74 4287 0
194 -4288 0
-95 -4288 0
-194 95 4288 0
6 -4289 0
868 -4289 0
-6 -868 4289 0
702 -4290 0
833 -4290 0
-702 -833 4290 0
236 -4291 0
-982 -4291 0
-236 982 4291 0
77 -4292 0
458 -4292 0
-77 -458 4292 0
-416 -4293 0
748 -4293 0
416 -748 4293 0
-521 -4294 0
978 -4294 0
521 -978 4294 0
935 -4295 0
511 -4295 0
-935 -511 4295 0
-2 -4296 0
801 -4296 0
2 -801 4296 0
595 -4297 0
-639 -4297 0
-595 639 4297 0
-795 -4298 0
433 -4298 0
795 -433 4298 0
246 -4299 0
929 -4299 0
-246 -929 4299 0
-801 -4300 0
516 -4300 0
801 -516 4300 0
-704 -4301 0
333 -4301 0
704 -333 4301 0
-632 -4302 0
458 -4302 0
632 -458 4302 0
703 -4303 0
630 -4303 0
-703 -630 4303 0
85 -4304 0
652 -4304 0
-85 -652 4304 0
487 -4305 0
-743 -4305 0
-487 743 4305 0
-175 -4306 0
393 -4306 0
175 -393 4306 0
133 -4307 0
412 -4307 0
-133 -412 4307 0
629 -4308 0
620 -4308 0
-629 -620 4308 0
910 -4309 0
-940 -4309 0
-910 940 4309 0
16 -4310 0
-825 -4310 0
-16 825 4310 0
783 -4311 0
370 -4311 0
-783 -370 4311 0
-154 -4312 0
861 -4312 0
154 -861 4312 0
-893 -4313 0
905 -4313 0
893 -905 4313 0
888 -4314 0
486 -4314 0
-888 -486 4314 0
399 -4315 0
-788 -4315 0
-399 788 4315 0
108 -4316 0
10 -4316 0
-108 -10 4316 0
709 -4317 0
-150 -4317 0
-709 150 4317 0
259 -4318 0
-446 -4318 0
-259 446 4318 0
254 -4319 0
531 -4319 0
-254 -531 4319 0
961 -4320 0
-719 -4320 0
-961 719 4320 0
191 -4321 0
659 -4321 0
-191 -659 4321 0
848 -4322 0
-505 -4322 0
-848 505 4322 0
-234 -4323 0
197 -4323 0
234 -197 4323 0
837 -4324 0
315 -4324 0
-837 -315 4324 0
-505 -4325 0
563 -4325 0
505 -563 4325 0
732 -4326 0
-318 -4326 0
-732 318 4326 0
757 -4327 0
772 -4327 0
-757 -772 4327 0
-497 -4328 0
49 -4328 0
497 -49 4328 0
821 -4329 0
-246 -4329 0
-821 246 4329 0
989 -4330 0
876 -4330 0
-989 -876 4330 0
132 -4331 0
-182 -4331 0
-132 182 4331 0
254 -4332 0
-620 -4332 0
-254 620 4332 0
51 -4333 0
-614 -4333 0
-51 614 4333 0
519 -4334 0
286 -4334 0
-519 -286 4334 0
672 -4335 0
958 -4335 0
-672 -958 4335 0
199 -4336 0
91 -4336 0
-199 -91 4336 0
638 -4337 0
35 -4337 0
-638 -35 4337 0
284 -4338 0
347 -4338 0
-284 -347 4338 0
-45 -4339 0
891 -4339 0
45 -891 4339 0
-800 -4340 0
82 -4340 0
800 -82 4340 0
907 -4341 0
-638 -4341 0
-907 638 4341 0
237 -4342 0
41 -4342 0
-237 -41 4342 0
-840 -4343 0
51 -4343 0
840 -51 4343 0
949 -4344 0
716 -4344 0
-949 -716 4344 0
-321 -4345 0
413 -4345 0
321 -413 4345 0
-787 -4346 0
572 -4346 0
787 -572 4346 0
-555 -4347 0
941 -4347 0
555 -941 4347 0
776 -4348 0
-930 -4348 0
-776 930 4348 0
376 -4349 0
34 -4349 0
-376 -34 4349 0
-188 -4350 0
164 -4350 0
188 -164 4350 0
591 -4351 0
634 -4351 0
-591 -634 4351 0
543 -4352 0
-786 -4352 0
-543 786 4352 0
688 -4353 0
542 -4353 0
-688 -542 4353 0
556 -4354 0
833 -4354 0
-556 -833 4354 0
476 -4355 0
-927 -4355 0
-476 927 4355 0
580 -4356 0
762 -4356 0
-580 -762 4356 0
125 -4357 0
-206 -4357 0
-125 206 4357 0
572 -4358 0
-694 -4358 0
-572 694 4358 0
543 -4359 0
670 -4359 0
-543 -670 4359 0
105 -4360 0
-863 -4360 0
-105 863 4360 0
220 -4361 0
19 -4361 0
-220 -19 4361 0
-528 -4362 0
389 -4362 0
528 -389 4362 0
-66 -4363 0
329 -4363 0
66 -329 4363 0
-978 -4364 0
435 -4364 0
978 -435 4364 0
299 -4365 0
649 -4365 0
-299 -649 4365 0
-572 -4366 0
540 -4366 0
572 -540 4366 0
-704 -4367 0
695 -4367 0
704 -695 4367 0
292 -4368 0
164 -4368 0
-292 -164 4368 0
680 -4369 0
188 -4369 0
-680 -188 4369 0
-851 -4370 0
260 -4370 0
851 -260 4370 0
895 -4371 0
-934 -4371 0
-895 934 4371 0
924 -4372 0
129 -4372 0
-924 -129 4372 0
326 -4373 0
204 -4373 0
-326 -204 4373 0
596 -4374 0
701 -4375 0
259 -4375 0
-701 -259 4375 0
768 -4376 0
823 -4376 0
-768 -823 4376 0
-769 -4377 0
105 -4377 0
769 -105 4377 0
-152 -4378 0
425 -4378 0
152 -425 4378 0
284 -4379 0
-557 -4379 0
-284 557 4379 0
964 -4380 0
-62 -4380 0
-964 62 4380 0
798 -4381 0
-339 -4381 0
-798 339 4381 0
-545 -4382 0
475 -4382 0
545 -475 4382 0
510 -4383 0
378 -4383 0
-510 -378 4383 0
208 -4384 0
131 -4384 0
-208 -131 4384 0
-810 -4385 0
653 -4385 0
810 -653 4385 0
719 -4386 0
-876 -4386 0
-719 876 4386 0
510 -4387 0
667 -4387 0
-510 -667 4387 0
236 -4388 0
818 -4388 0
-236 -818 4388 0
451 -4389 0
-541 -4389 0
-451 541 4389 0
430 -4390 0
-119 -4390 0
-430 119 4390 0
302 -4391 0
-723 -4391 0
-302 723 4391 0
413 -4392 0
-630 -4392 0
-413 630 4392 0
-593 -4393 0
665 -4393 0
593 -665 4393 0
533 -4394 0
436 -4394 0
-533 -436 4394 0
574 -4395 0
213 -4395 0
-574 -213 4395 0
237 -4396 0
-607 -4396 0
-237 607 4396 0
852 -4397 0
-999 -4397 0
-852 999 4397 0
477 -4398 0
-820 -4398 0
-477 820 4398 0
564 -4399 0
650 -4399 0
-564 -650 4399 0
880 -4400 0
907 -4400 0
-880 -907 4400 0
492 -4401 0
-711 -4401 0
-492 711 4401 0
976 -4402 0
730 -4402 0
-976 -730 4402 0
447 -4403 0
-319 -4403 0
-447 319 4403 0
-73 -4404 0
219 -4404 0
73 -219 4404 0
-665 -4405 0
635 -4405 0
665 -635 4405 0
-738 -4406 0
129 -4406 0
738 -129 4406 0
-681 -4407 0
241 -4407 0
681 -241 4407 0
784 -4408 0
-538 -4408 0
-784 538 4408 0
445 -4409 0
-15 -4409 0
-445 15 4409 0
22 -4410 0
-851 -4410 0
-22 851 4410 0
376 -4411 0
387 -4411 0
-376 -387 4411 0
55 -4412 0
-469 -4412 0
-55 469 4412 0
-635 -4413 0
53 -4413 0
635 -53 4413 0
398 -4414 0
-675 -4414 0
-398 675 4414 0
-921 -4415 0
879 -4415 0
921 -879 4415 0
-571 -4416 0
690 -4416 0
571 -690 4416 0
572 -4417 0
604 -4417 0
-572 -604 4417 0
-855 -4418 0
577 -4418 0
855 -577 4418 0
845 -4419 0
-790 -4419 0
-845 790 4419 0
431 -4420 0
-886 -4420 0
-431 886 4420 0
968 -4421 0
-103 -4421 0
-968 103 4421 0
192 -4422 0
-339 -4422 0
-192 339 4422 0
503 -4423 0
-583 -4423 0
-503 583 4423 0
490 -4424 0
-135 -4424 0
-490 135 4424 0
331 -4425 0
-590 -4425 0
-331 590 4425 0
-129 -4426 0
767 -4426 0
129 -767 4426 0
710 -4427 0
-287 -4427 0
-710 287 4427 0
-368 -4428 0
137 -4428 0
368 -137 4428 0
-452 -4429 0
59 -4429 0
452 -59 4429 0
-81 -4430 0
65 -4430 0
81 -65 4430 0
844 -4431 0
-334 -4431 0
-844 334 4431 0
-401 -4432 0
700 -4432 0
401 -700 4432 0
-794 -4433 0
891 -4433 0
794 -891 4433 0
864 -4434 0
-819 -4434 0
-864 819 4434 0
413 -4435 0
882 -4435 0
-413 -882 4435 0
-600 -4436 0
253 -4436 0
600 -253 4436 0
512 -4437 0
-669 -4437 0
-512 669 4437 0
80 -4438 0
-623 -4438 0
-80 623 4438 0
-544 -4439 0
595 -4439 0
544 -595 4439 0
93 -4440 0
-135 -4440 0
-93 135 4440 0
-313 -4441 0
225 -4441 0
313 -225 4441 0
839 -4442 0
444 -4442 0
-839 -444 4442 0
-763 -4443 0
194 -4443 0
763 -194 4443 0
-570 -4444 0
452 -4444 0
570 -452 4444 0
116 -4445 0
276 -4445 0
-116 -276 4445 0
952 -4446 0
75 -4446 0
-952 -75 4446 0
-464 -4447 0
506 -4447 0
464 -506 4447 0
728 -4448 0
950 -4448 0
-728 -950 4448 0
534 -4449 0
-68 -4449 0
-534 68 4449 0
-43 -4450 0
33 -4450 0
43 -33 4450 0
300 -4451 0
-509 -4451 0
-300 509 4451 0
836 -4452 0
68 -4452 0
-836 -68 4452 0
-874 -4453 0
746 -4453 0
874 -746 4453 0
-692 -4454 0
643 -4454 0
692 -643 4454 0
-276 -4455 0
874 -4455 0
276 -874 4455 0
32 -4456 0
-250 -4456 0
-32 250 4456 0
-809 -4457 0
577 -4457 0
809 -577 4457 0
826 -4458 0
25 -4458 0
-826 -25 4458 0
824 -4459 0
-263 -4459 0
-824 263 4459 0
-970 -4460 0
747 -4460 0
970 -747 4460 0
903 -4461 0
-882 -4461 0
-903 882 4461 0
-125 -4462 0
27 -4462 0
125 -27 4462 0
-512 -4463 0
688 -4463 0
512 -688 4463 0
839 -4464 0
-707 -4464 0
-839 707 4464 0
420 -4465 0
-677 -4465 0
-420 677 4465 0
-719 -4466 0
129 -4466 0
719 -129 4466 0
173 -4467 0
617 -4467 0
-173 -617 4467 0
999 -4468 0
-435 -4468 0
-999 435 4468 0
478 -4469 0
-5 -4469 0
-478 5 4469 0
652 -4470 0
409 -4470 0
-652 -409 4470 0
591 -4471 0
883 -4471 0
-591 -883 4471 0
177 -4472 0
-231 -4472 0
-177 231 4472 0
56 -4473 0
-972 -4473 0
-56 972 4473 0
-148 -4474 0
562 -4474 0
148 -562 4474 0
723 -4475 0
-165 -4475 0
-723 165 4475 0
-380 -4476 0
194 -4476 0
380 -194 4476 0
477 -4477 0
-703 -4477 0
-477 703 4477 0
304 -4478 0
-339 -4478 0
-304 339 4478 0
-42 -4479 0
435 -4479 0
42 -435 4479 0
958 -4480 0
-379 -4480 0
-958 379 4480 0
748 -4481 0
-87 -4481 0
-748 87 4481 0
495 -4482 0
914 -4482 0
-495 -914 4482 0
582 -4483 0
-527 -4483 0
-582 527 4483 0
845 -4484 0
-268 -4484 0
-845 268 4484 0
960 -4485 0
316 -4485 0
-960 -316 4485 0
61 -4486 0
842 -4486 0
-61 -842 4486 0
74 -4487 0
729 -4487 0
-74 -729 4487 0
132 -4488 0
593 -4488 0
-132 -593 4488 0
695 -4489 0
658 -4489 0
-695 -658 4489 0
79 -4490 0
-303 -4490 0
-79 303 4490 0
565 -4491 0
-373 -4491 0
-565 373 4491 0
813 -4492 0
-814 -4492 0
-813 814 4492 0
869 -4493 0
171 -4493 0
-869 -171 4493 0
716 -4494 0
684 -4494 0
-716 -684 4494 0
72 -4495 0
825 -4495 0
-72 -825 4495 0
337 -4496 0
-127 -4496 0
-337 127 4496 0
583 -4497 0
-682 -4497 0
-583 682 4497 0
-313 -4498 0
12 -4498 0
313 -12 4498 0
888 -4499 0
-650 -4499 0
-888 650 4499 0
-305 -4500 0
967 -4500 0
305 -967 4500 0
836 -4501 0
139 -4501 0
-836 -139 4501 0
127 -4502 0
-60 -4502 0
-127 60 4502 0
-942 -4503 0
769 -4503 0
942 -769 4503 0
492 -4504 0
980 -4504 0
-492 -980 4504 0
-162 -4505 0
563 -4505 0
162 -563 4505 0
-529 -4506 0
13 -4506 0
529 -13 4506 0
871 -4507 0
-487 -4507 0
-871 487 4507 0
771 -4508 0
-357 -4508 0
-771 357 4508 0
982 -4509 0
-92 -4509 0
-982 92 4509 0
616 -4510 0
235 -4510 0
-616 -235 4510 0
709 -4511 0
-63 -4511 0
-709 63 4511 0
445 -4512 0
-167 -4512 0
-445 167 4512 0
-1000 -4513 0
769 -4513 0
1000 -769 4513 0
574 -4514 0
57 -4514 0
-574 -57 4514 0
880 -4515 0
-486 -4515 0
-880 486 4515 0
-904 -4516 0
691 -4516 0
904 -691 4516 0
-260 -4517 0
219 -4517 0
260 -219 4517 0
170 -4518 0
-191 -4518 0
-170 191 4518 0
72 -4519 0
-788 -4519 0
-72 788 4519 0
455 -4520 0
-545 -4520 0
-455 545 4520 0
125 -4521 0
890 -4521 0
-125 -890 4521 0
530 -4522 0
489 -4522 0
-530 -489 4522 0
595 -4523 0
561 -4523 0
-595 -561 4523 0
-898 -4524 0
230 -4524 0
898 -230 4524 0
876 -4525 0
154 -4525 0
-876 -154 4525 0
374 -4526 0
581 -4526 0
-374 -581 4526 0
181 -4527 0
122 -4527 0
-181 -122 4527 0
808 -4528 0
-300 -4528 0
-808 300 4528 0
488 -4529 0
-135 -4529 0
-488 135 4529 0
161 -4530 0
-495 -4530 0
-161 495 4530 0
559 -4531 0
-876 -4531 0
-559 876 4531 0
232 -4532 0
-885 -4532 0
-232 885 4532 0
-824 -4533 0
928 -4533 0
824 -928 4533 0
999 -4534 0
241 -4534 0
-999 -241 4534 0
743 -4535 0
597 -4535 0
-743 -597 4535 0
-41 -4536 0
35 -4536 0
41 -35 4536 0
264 -4537 0
212 -4537 0
-264 -212 4537 0
-410 -4538 0
891 -4538 0
410 -891 4538 0
-304 -4539 0
526 -4539 0
304 -526 4539 0
-190 -4540 0
857 -4540 0
190 -857 4540 0
399 -4541 0
709 -4541 0
-399 -709 4541 0
562 -4542 0
-326 -4542 0
-562 326 4542 0
-624 -4543 0
603 -4543 0
624 -603 4543 0
944 -4544 0
-221 -4544 0
-944 221 4544 0
720 -4545 0
-900 -4545 0
-720 900 4545 0
370 -4546 0
-407 -4546 0
-370 407 4546 0
711 -4547 0
502 -4547 0
-711 -502 4547 0
614 -4548 0
-477 -4548 0
-614 477 4548 0
-276 -4549 0
17 -4549 0
276 -17 4549 0
152 -4550 0
-813 -4550 0
-152 813 4550 0
934 -4551 0
-267 -4551 0
-934 267 4551 0
180 -4552 0
-303 -4552 0
-180 303 4552 0
-425 -4553 0
163 -4553 0
425 -163 4553 0
216 -4554 0
118 -4554 0
-216 -118 4554 0
-848 -4555 0
583 -4555 0
848 -583 4555 0
688 -4556 0
822 -4556 0
-688 -822 4556 0
261 -4557 0
170 -4557 0
-261 -170 4557 0
749 -4558 0
50 -4558 0
-749 -50 4558 0
-320 -4559 0
833 -4559 0
320 -833 4559 0
723 -4560 0
802 -4560 0
-723 -802 4560 0
63 -4561 0
-433 -4561 0
-63 433 4561 0
567 -4562 0
-383 -4562 0
-567 383 4562 0
120 -4563 0
553 -4563 0
-120 -553 4563 0
-126 -4564 0
417 -4564 0
126 -417 4564 0
-434 -4565 0
674 -4565 0
434 -674 4565 0
-516 -4566 0
387 -4566 0
516 -387 4566 0
400 -4567 0
550 -4567 0
-400 -550 4567 0
847 -4568 0
-791 -4568 0
-847 791 4568 0
298 -4569 0
33 -4569 0
-298 -33 4569 0
174 -4570 0
-726 -4570 0
-174 726 4570 0
803 -4571 0
-647 -4571 0
-803 647 4571 0
448 -4572 0
190 -4572 0
-448 -190 4572 0
-965 -4573 0
81 -4573 0
965 -81 4573 0
24 -4574 0
-253 -4574 0
-24 253 4574 0
-513 -4575 0
817 -4575 0
513 -817 4575 0
-742 -4576 0
297 -4576 0
742 -297 4576 0
635 -4577 0
-214 -4577 0
-635 214 4577 0
27 -4578 0
-550 -4578 0
-27 550 4578 0
728 -4579 0
375 -4579 0
-728 -375 4579 0
946 -4580 0
-711 -4580 0
-946 711 4580 0
927 -4581 0
179 -4581 0
-927 -179 4581 0
-522 -4582 0
125 -4582 0
522 -125 4582 0
-474 -4583 0
9 -4583 0
474 -9 4583 0
26 -4584 0
721 -4584 0
-26 -721 4584 0
311 -4585 0
-106 -4585 0
-311 106 4585 0
572 -4586 0
-284 -4586 0
-572 284 4586 0
627 -4587 0
233 -4587 0
-627 -233 4587 0
660 -4588 0
-950 -4588 0
-660 950 4588 0
725 -4589 0
956 -4589 0
-725 -956 4589 0
-137 -4590 0
571 -4590 0
137 -571 4590 0
607 -4591 0
673 -4591 0
-607 -673 4591 0
-386 -4592 0
77 -4592 0
386 -77 4592 0
695 -4593 0
-356 -4593 0
-695 356 4593 0
485 -4594 0
645 -4594 0
-485 -645 4594 0
710 -4595 0
43 -4595 0
-710 -43 4595 0
-898 -4596 0
605 -4596 0
898 -605 4596 0
954 -4597 0
953 -4597 0
-954 -953 4597 0
469 -4598 0
628 -4598 0
-469 -628 4598 0
709 -4599 0
250 -4599 0
-709 -250 4599 0
-460 -4600 0
658 -4600 0
460 -658 4600 0
717 -4601 0
987 -4601 0
-717 -987 4601 0
687 -4602 0
-805 -4602 0
-687 805 4602 0
136 -4603 0
340 -4603 0
-136 -340 4603 0
-432 -4604 0
868 -4604 0
432 -868 4604 0
566 -4605 0
-972 -4605 0
-566 972 4605 0
527 -4606 0
-20 -4606 0
-527 20 4606 0
710 -4607 0
5 -4607 0
-710 -5 4607 0
-668 -4608 0
3 -4608 0
668 -3 4608 0
293 -4609 0
-147 -4609 0
-293 147 4609 0
39 -4610 0
-239 -4610 0
-39 239 4610 0
414 -4611 0
-437 -4611 0
-414 437 4611 0
-173 -4612 0
619 -4612 0
173 -619 4612 0
-53 -4613 0
859 -4613 0
53 -859 4613 0
216 -4614 0
-457 -4614 0
-216 457 4614 0
582 -4615 0
-933 -4615 0
-582 933 4615 0
-961 -4616 0
163 -4616 0
961 -163 4616 0
63 -4617 0
-674 -4617 0
-63 674 4617 0
535 -4618 0
692 -4618 0
-535 -692 4618 0
883 -4619 0
-118 -4619 0
-883 118 4619 0
-49 -4620 0
446 -4620 0
49 -446 4620 0
940 -4621 0
891 -4621 0
-940 -891 4621 0
43 -4622 0
418 -4622 0
-43 -418 4622 0
894 -4623 0
164 -4623 0
-894 -164 4623 0
159 -4624 0
-324 -4624 0
-159 324 4624 0
230 -4625 0
-259 -4625 0
-230 259 4625 0
-156 -4626 0
300 -4626 0
156 -300 4626 0
-864 -4627 0
808 -4627 0
864 -808 4627 0
-882 -4628 0
906 -4628 0
882 -906 4628 0
613 -4629 0
-343 -4629 0
-613 343 4629 0
456 -4630 0
638 -4630 0
-456 -638 4630 0
582 -4631 0
-461 -4631 0
-582 461 4631 0
-879 -4632 0
625 -4632 0
879 -625 4632 0
594 -4633 0
-703 -4633 0
-594 703 4633 0
203 -4634 0
681 -4634 0
-203 -681 4634 0
-345 -4635 0
661 -4635 0
345 -661 4635 0
343 -4636 0
-167 -4636 0
-343 167 4636 0
916 -4637 0
769 -4637 0
-916 -769 4637 0
167 -4638 0
173 -4638 0
-167 -173 4638 0
669 -4639 0
-207 -4639 0
-669 207 4639 0
270 -4640 0
-102 -4640 0
-270 102 4640 0
-817 -4641 0
15 -4641 0
817 -15 4641 0
444 -4642 0
-653 -4642 0
-444 653 4642 0
183 -4643 0
-957 -4643 0
-183 957 4643 0
343 -4644 0
-679 -4644 0
-343 679 4644 0
853 -4645 0
-271 -4645 0
-853 271 4645 0
605 -4646 0
-990 -4646 0
-605 990 4646 0
-281 -4647 0
698 -4647 0
281 -698 4647 0
534 -4648 0
-731 -4648 0
-534 731 4648 0
-888 -4649 0
171 -4649 0
888 -171 4649 0
-232 -4650 0
916 -4650 0
232 -916 4650 0
989 -4651 0
-836 -4651 0
-989 836 4651 0
886 -4652 0
-174 -4652 0
-886 174 4652 0
798 -4653 0
-340 -4653 0
-798 340 4653 0
936 -4654 0
97 -4654 0
-936 -97 4654 0
384 -4655 0
-241 -4655 0
-384 241 4655 0
4 -4656 0
-71 -4656 0
-4 71 4656 0
-312 -4657 0
284 -4657 0
312 -284 4657 0
391 -4658 0
-394 -4658 0
-391 394 4658 0
750 -4659 0
98 -4659 0
-750 -98 4659 0
663 -4660 0
662 -4660 0
-663 -662 4660 0
-792 -4661 0
359 -4661 0
792 -359 4661 0
759 -4662 0
-36 -4662 0
-759 36 4662 0
826 -4663 0
-231 -4663 0
-826 231 4663 0
40 -4664 0
-106 -4664 0
-40 106 4664 0
435 -4665 0
546 -4665 0
-435 -546 4665 0
287 -4666 0
403 -4666 0
-287 -403 4666 0
91 -4667 0
-974 -4667 0
-91 974 4667 0
320 -4668 0
-708 -4668 0
-320 708 4668 0
571 -4669 0
-989 -4669 0
-571 989 4669 0
863 -4670 0
-27 -4670 0
-863 27 4670 0
-583 -4671 0
961 -4671 0
583 -961 4671 0
184 -4672 0
502 -4672 0
-184 -502 4672 0
366 -4673 0
52 -4673 0
-366 -52 4673 0
104 -4674 0
958 -4674 0
-104 -958 4674 0
479 -4675 0
683 -4675 0
-479 -683 4675 0
-921 -4676 0
333 -4676 0
921 -333 4676 0
896 -4677 0
-838 -4677 0
-896 838 4677 0
-388 -4678 0
794 -4678 0
388 -794 4678 0
800 -4679 0
174 -4679 0
-800 -174 4679 0
-833 -4680 0
462 -4680 0
833 -462 4680 0
371 -4681 0
-774 -4681 0
-371 774 4681 0
-621 -4682 0
90 -4682 0
621 -90 4682 0
160 -4683 0
-955 -4683 0
-160 955 4683 0
667 -4684 0
-158 -4684 0
-667 158 4684 0
-73 -4685 0
395 -4685 0
73 -395 4685 0
-674 -4686 0
369 -4686 0
674 -369 4686 0
559 -4687 0
-282 -4687 0
-559 282 4687 0
814 -4688 0
-181 -4688 0
-814 181 4688 0
-120 -4689 0
882 -4689 0
120 -882 4689 0
300 -4690 0
-543 -4690 0
-300 543 4690 0
208 -4691 0
65 -4691 0
-208 -65 4691 0
777 -4692 0
665 -4692 0
-777 -665 4692 0
-914 -4693 0
617 -4693 0
914 -617 4693 0
463 -4694 0
-810 -4694 0
-463 810 4694 0
189 -4695 0
-84 -4695 0
-189 84 4695 0
360 -4696 0
585 -4696 0
-360 -585 4696 0
535 -4697 0
10 -4697 0
-535 -10 4697 0
-498 -4698 0
861 -4698 0
498 -861 4698 0
631 -4699 0
422 -4699 0
-631 -422 4699 0
479 -4700 0
-82 -4700 0
-479 82 4700 0
557 -4701 0
99 -4701 0
-557 -99 4701 0
868 -4702 0
-45 -4702 0
-868 45 4702 0
-155 -4703 0
458 -4703 0
155 -458 4703 0
-954 -4704 0
121 -4704 0
954 -121 4704 0
140 -4705 0
554 -4705 0
-140 -554 4705 0
622 -4706 0
-876 -4706 0
-622 876 4706 0
-152 -4707 0
371 -4707 0
152 -371 4707 0
804 -4708 0
-365 -4708 0
-804 365 4708 0
529 -4709 0
-23 -4709 0
-529 23 4709 0
-345 -4710 0
415 -4710 0
345 -415 4710 0
637 -4711 0
621 -4711 0
-637 -621 4711 0
53 -4712 0
-951 -4712 0
-53 951 4712 0
400 -4713 0
-846 -4713 0
-400 846 4713 0
936 -4714 0
-434 -4714 0
-936 434 4714 0
-932 -4715 0
322 -4715 0
932 -322 4715 0
311 -4716 0
-382 -4716 0
-311 382 4716 0
298 -4717 0
-639 -4717 0
-298 639 4717 0
957 -4718 0
-196 -4718 0
-957 196 4718 0
979 -4719 0
-958 -4719 0
-979 958 4719 0
749 -4720 0
21 -4720 0
-749 -21 4720 0
-868 -4721 0
179 -4721 0
868 -179 4721 0
-64 -4722 0
65 -4722 0
64 -65 4722 0
460 -4723 0
-637 -4723 0
-460 637 4723 0
-804 -4724 0
220 -4724 0
804 -220 4724 0
766 -4725 0
-389 -4725 0
-766 389 4725 0
557 -4726 0
-895 -4726 0
-557 895 4726 0
959 -4727 0
-505 -4727 0
-959 505 4727 0
724 -4728 0
-837 -4728 0
-724 837 4728 0
816 -4729 0
868 -4729 0
-816 -868 4729 0
-81 -4730 0
942 -4730 0
81 -942 4730 0
-568 -4731 0
625 -4731 0
568 -625 4731 0
-968 -4732 0
933 -4732 0
968 -933 4732 0
175 -4733 0
279 -4733 0
-175 -279 4733 0
-765 -4734 0
777 -4734 0
765 -777 4734 0
706 -4735 0
626 -4735 0
-706 -626 4735 0
255 -4736 0
-863 -4736 0
-255 863 4736 0
870 -4737 0
-949 -4737 0
-870 949 4737 0
760 -4738 0
28 -4738 0
-760 -28 4738 0
803 -4739 0
-133 -4739 0
-803 133 4739 0
-442 -4740 0
203 -4740 0
442 -203 4740 0
146 -4741 0
-487 -4741 0
-146 487 4741 0
29 -4742 0
138 -4742 0
-29 -138 4742 0
-66 -4743 0
340 -4743 0
66 -340 4743 0
-524 -4744 0
177 -4744 0
524 -177 4744 0
-16 -4745 0
674 -4745 0
16 -674 4745 0
160 -4746 0
300 -4746 0
-160 -300 4746 0
751 -4747 0
-692 -4747 0
-751 692 4747 0
959 -4748 0
-708 -4748 0
-959 708 4748 0
660 -4749 0
-638 -4749 0
-660 638 4749 0
479 -4750 0
-107 -4750 0
-479 107 4750 0
989 -4751 0
-749 -4751 0
-989 749 4751 0
-955 -4752 0
283 -4752 0
955 -283 4752 0
720 -4753 0
755 -4753 0
-720 -755 4753 0
-970 -4754 0
722 -4754 0
970 -722 4754 0
-659 -4755 0
707 -4755 0
659 -707 4755 0
579 -4756 0
-527 -4756 0
-579 527 4756 0
336 -4757 0
-512 -4757 0
-336 512 4757 0
782 -4758 0
-487 -4758 0
-782 487 4758 0
542 -4759 0
105 -4759 0
-542 -105 4759 0
248 -4760 0
-6 -4760 0
-248 6 4760 0
640 -4761 0
-586 -4761 0
-640 586 4761 0
296 -4762 0
-38 -4762 0
-296 38 4762 0
-152 -4763 0
619 -4763 0
152 -619 4763 0
589 -4764 0
796 -4764 0
-589 -796 4764 0
146 -4765 0
-710 -4765 0
-146 710 4765 0
783 -4766 0
603 -4766 0
-783 -603 4766 0
-584 -4767 0
481 -4767 0
584 -481 4767 0
509 -4768 0
-686 -4768 0
-509 686 4768 0
412 -4769 0
57 -4769 0
-412 -57 4769 0
964 -4770 0
194 -4770 0
-964 -194 4770 0
650 -4771 0
-134 -4771 0
-650 134 4771 0
-48 -4772 0
116 -4772 0
48 -116 4772 0
908 -4773 0
-358 -4773 0
-908 358 4773 0
-867 -4774 0
162 -4774 0
867 -162 4774 0
37 -4775 0
-838 -4775 0
-37 838 4775 0
968 -4776 0
776 -4776 0
-968 -776 4776 0
551 -4777 0
322 -4777 0
-551 -322 4777 0
64 -4778 0
27 -4778 0
-64 -27 4778 0
797 -4779 0
825 -4779 0
-797 -825 4779 0
-744 -4780 0
747 -4780 0
744 -747 4780 0
-32 -4781 0
499 -4781 0
32 -499 4781 0
-321 -4782 0
184 -4783 0
-907 -4783 0
-184 907 4783 0
544 -4784 0
-330 -4784 0
-544 330 4784 0
592 -4785 0
300 -4785 0
-592 -300 4785 0
-921 -4786 0
917 -4786 0
921 -917 4786 0
653 -4787 0
537 -4787 0
-653 -537 4787 0
750 -4788 0
-197 -4788 0
-750 197 4788 0
-49 -4789 0
540 -4789 0
49 -540 4789 0
-674 -4790 0
822 -4790 0
674 -822 4790 0
535 -4791 0
245 -4791 0
-535 -245 4791 0
664 -4792 0
686 -4792 0
-664 -686 4792 0
581 -4793 0
-829 -4793 0
-581 829 4793 0
829 -4794 0
499 -4794 0
-829 -499 4794 0
-190 -4795 0
625 -4795 0
190 -625 4795 0
453 -4796 0
258 -4796 0
-453 -258 4796 0
-125 -4797 0
114 -4797 0
125 -114 4797 0
-995 -4798 0
275 -4798 0
995 -275 4798 0
-563 -4799 0
996 -4799 0
563 -996 4799 0
423 -4800 0
-500 -4800 0
-423 500 4800 0
-609 -4801 0
963 -4801 0
609 -963 4801 0
336 -4802 0
29 -4802 0
-336 -29 4802 0
272 -4803 0
341 -4803 0
-272 -341 4803 0
295 -4804 0
939 -4804 0
-295 -939 4804 0
160 -4805 0
655 -4805 0
-160 -655 4805 0
-441 -4806 0
947 -4806 0
441 -947 4806 0
658 -4807 0
617 -4807 0
-658 -617 4807 0
-199 -4808 0
625 -4808 0
199 -625 4808 0
-730 -4809 0
638 -4809 0
730 -638 4809 0
600 -4810 0
656 -4810 0
-600 -656 4810 0
-475 -4811 0
858 -4811 0
475 -858 4811 0
86 -4812 0
50 -4812 0
-86 -50 4812 0
760 -4813 0
-868 -4813 0
-760 868 4813 0
317 -4814 0
191 -4815 0
-774 -4815 0
-191 774 4815 0
791 -4816 0
347 -4816 0
-791 -347 4816 0
108 -4817 0
699 -4817 0
-108 -699 4817 0
933 -4818 0
89 -4818 0
-933 -89 4818 0
-321 -4819 0
502 -4819 0
321 -502 4819 0
795 -4820 0
530 -4820 0
-795 -530 4820 0
990 -4821 0
-820 -4821 0
-990 820 4821 0
886 -4822 0
395 -4822 0
-886 -395 4822 0
421 -4823 0
-903 -4823 0
-421 903 4823 0
319 -4824 0
282 -4824 0
-319 -282 4824 0
509 -4825 0
873 -4825 0
-509 -873 4825 0
174 -4826 0
-420 -4826 0
-174 420 4826 0
-444 -4827 0
476 -4827 0
444 -476 4827 0
-299 -4828 0
506 -4828 0
299 -506 4828 0
936 -4829 0
-124 -4829 0
-936 124 4829 0
485 -4830 0
-45 -4830 0
-485 45 4830 0
-220 -4831 0
914 -4831 0
220 -914 4831 0
384 -4832 0
275 -4832 0
-384 -275 4832 0
750 -4833 0
-934 -4833 0
-750 934 4833 0
-218 -4834 0
763 -4834 0
218 -763 4834 0
718 -4835 0
404 -4835 0
-718 -404 4835 0
516 -4836 0
170 -4836 0
-516 -170 4836 0
-193 -4837 0
532 -4837 0
193 -532 4837 0
680 -4838 0
794 -4838 0
-680 -794 4838 0
502 -4839 0
869 -4839 0
-502 -869 4839 0
-730 -4840 0
365 -4840 0
730 -365 4840 0
326 -4841 0
996 -4841 0
-326 -996 4841 0
-84 -4842 0
307 -4842 0
84 -307 4842 0
692 -4843 0
826 -4843 0
-692 -826 4843 0
763 -4844 0
178 -4844 0
-763 -178 4844 0
40 -4845 0
-188 -4845 0
-40 188 4845 0
-275 -4846 0
523 -4846 0
275 -523 4846 0
-960 -4847 0
555 -4847 0
960 -555 4847 0
714 -4848 0
257 -4848 0
-714 -257 4848 0
-955 -4849 0
138 -4849 0
955 -138 4849 0
-357 -4850 0
626 -4850 0
357 -626 4850 0
-102 -4851 0
441 -4851 0
102 -441 4851 0
551 -4852 0
108 -4852 0
-551 -108 4852 0
510 -4853 0
557 -4853 0
-510 -557 4853 0
408 -4854 0
-343 -4854 0
-408 343 4854 0
606 -4855 0
-746 -4855 0
-606 746 4855 0
132 -4856 0
732 -4856 0
-132 -732 4856 0
525 -4857 0
-567 -4857 0
-525 567 4857 0
365 -4858 0
395 -4858 0
-365 -395 4858 0
103 -4859 0
-302 -4859 0
-103 302 4859 0
-194 -4860 0
787 -4860 0
194 -787 4860 0
-312 -4861 0
269 -4861 0
312 -269 4861 0
-761 -4862 0
169 -4862 0
761 -169 4862 0
-872 -4863 0
523 -4863 0
872 -523 4863 0
767 -4864 0
886 -4864 0
-767 -886 4864 0
150 -4865 0
-908 -4865 0
-150 908 4865 0
984 -4866 0
939 -4866 0
-984 -939 4866 0
200 -4867 0
740 -4867 0
-200 -740 4867 0
620 -4868 0
-366 -4868 0
-620 366 4868 0
256 -4869 0
915 -4869 0
-256 -915 4869 0
-905 -4870 0
641 -4870 0
905 -641 4870 0
870 -4871 0
265 -4871 0
-870 -265 4871 0
-248 -4872 0
772 -4872 0
248 -772 4872 0
328 -4873 0
-21 -4873 0
-328 21 4873 0
750 -4874 0
-671 -4874 0
-750 671 4874 0
-457 -4875 0
815 -4875 0
457 -815 4875 0
-124 -4876 0
539 -4876 0
124 -539 4876 0
890 -4877 0
721 -4877 0
-890 -721 4877 0
252 -4878 0
-597 -4878 0
-252 597 4878 0
-332 -4879 0
401 -4879 0
332 -401 4879 0
264 -4880 0
921 -4880 0
-264 -921 4880 0
496 -4881 0
60 -4881 0
-496 -60 4881 0
93 -4882 0
-471 -4882 0
-93 471 4882 0
-104 -4883 0
780 -4883 0
104 -780 4883 0
877 -4884 0
241 -4884 0
-877 -241 4884 0
934 -4885 0
738 -4885 0
-934 -738 4885 0
-448 -4886 0
883 -4886 0
448 -883 4886 0
472 -4887 0
666 -4887 0
-472 -666 4887 0
-345 -4888 0
635 -4888 0
345 -635 4888 0
992 -4889 0
-228 -4889 0
-992 228 4889 0
638 -4890 0
-375 -4890 0
-638 375 4890 0
-925 -4891 0
801 -4891 0
925 -801 4891 0
229 -4892 0
-639 -4892 0
-229 639 4892 0
909 -4893 0
578 -4893 0
-909 -578 4893 0
962 -4894 0
881 -4894 0
-962 -881 4894 0
965 -4895 0
-694 -4895 0
-965 694 4895 0
229 -4896 0
-645 -4896 0
-229 645 4896 0
-244 -4897 0
91 -4897 0
244 -91 4897 0
480 -4898 0
-809 -4898 0
-480 809 4898 0
-605 -4899 0
26 -4899 0
605 -26 4899 0
98 -4900 0
-983 -4900 0
-98 983 4900 0
-705 -4901 0
404 -4901 0
705 -404 4901 0
53 -4902 0
-751 -4902 0
-53 751 4902 0
30 -4903 0
834 -4903 0
-30 -834 4903 0
520 -4904 0
446 -4904 0
-520 -446 4904 0
308 -4905 0
-534 -4905 0
-308 534 4905 0
999 -4906 0
-893 -4906 0
-999 893 4906 0
509 -4907 0
-29 -4907 0
-509 29 4907 0
-960 -4908 0
763 -4908 0
960 -763 4908 0
544 -4909 0
265 -4909 0
-544 -265 4909 0
-672 -4910 0
256 -4910 0
672 -256 4910 0
318 -4911 0
715 -4911 0
-318 -715 4911 0
-24 -4912 0
823 -4912 0
24 -823 4912 0
911 -4913 0
-890 -4913 0
-911 890 4913 0
166 -4914 0
997 -4914 0
-166 -997 4914 0
-772 -4915 0
418 -4915 0
772 -418 4915 0
-301 -4916 0
450 -4916 0
301 -450 4916 0
952 -4917 0
821 -4917 0
-952 -821 4917 0
-171 -4918 0
593 -4918 0
171 -593 4918 0
-112 -4919 0
831 -4919 0
112 -831 4919 0
336 -4920 0
-716 -4920 0
-336 716 4920 0
36 -4921 0
963 -4921 0
-36 -963 4921 0
198 -4922 0
697 -4922 0
-198 -697 4922 0
-813 -4923 0
850 -4923 0
813 -850 4923 0
-616 -4924 0
439 -4924 0
616 -439 4924 0
-110 -4925 0
249 -4925 0
110 -249 4925 0
783 -4926 0
419 -4926 0
-783 -419 4926 0
156 -4927 0
539 -4927 0
-156 -539 4927 0
462 -4928 0
346 -4928 0
-462 -346 4928 0
-378 -4929 0
220 -4929 0
378 -220 4929 0
256 -4930 0
939 -4930 0
-256 -939 4930 0
-546 -4931 0
107 -4931 0
546 -107 4931 0
902 -4932 0
601 -4932 0
-902 -601 4932 0
-152 -4933 0
400 -4933 0
152 -400 4933 0
109 -4934 0
428 -4934 0
-109 -428 4934 0
231 -4935 0
108 -4935 0
-231 -108 4935 0
623 -4936 0
-598 -4936 0
-623 598 4936 0
293 -4937 0
41 -4937 0
-293 -41 4937 0
-100 -4938 0
163 -4938 0
100 -163 4938 0
299 -4939 0
898 -4939 0
-299 -898 4939 0
596 -4940 0
962 -4940 0
-596 -962 4940 0
-658 -4941 0
226 -4941 0
658 -226 4941 0
891 -4942 0
-534 -4942 0
-891 534 4942 0
93 -4943 0
-5 -4943 0
-93 5 4943 0
813 -4944 0
-207 -4944 0
-813 207 4944 0
735 -4945 0
28 -4945 0
-735 -28 4945 0
-705 -4946 0
190 -4946 0
705 -190 4946 0
439 -4947 0
-566 -4947 0
-439 566 4947 0
-315 -4948 0
586 -4948 0
315 -586 4948 0
95 -4949 0
-319 -4949 0
-95 319 4949 0
-25 -4950 0
347 -4950 0
25 -347 4950 0
-381 -4951 0
209 -4951 0
381 -209 4951 0
167 -4952 0
-526 -4952 0
-167 526 4952 0
303 -4953 0
-807 -4953 0
-303 807 4953 0
-302 -4954 0
946 -4954 0
302 -946 4954 0
548 -4955 0
833 -4955 0
-548 -833 4955 0
-961 -4956 0
386 -4956 0
961 -386 4956 0
924 -4957 0
-389 -4957 0
-924 389 4957 0
413 -4958 0
-478 -4958 0
-413 478 4958 0
40 -4959 0
401 -4959 0
-40 -401 4959 0
470 -4960 0
226 -4960 0
-470 -226 4960 0
-139 -4961 0
873 -4961 0
139 -873 4961 0
-10 -4962 0
572 -4962 0
10 -572 4962 0
255 -4963 0
-421 -4963 0
-255 421 4963 0
-476 -4964 0
748 -4964 0
476 -748 4964 0
-173 -4965 0
649 -4965 0
173 -649 4965 0
662 -4966 0
140 -4966 0
-662 -140 4966 0
450 -4967 0
-814 -4967 0
-450 814 4967 0
191 -4968 0
599 -4968 0
-191 -599 4968 0
191 -4969 0
-111 -4969 0
-191 111 4969 0
608 -4970 0
439 -4970 0
-608 -439 4970 0
-571 -4971 0
580 -4971 0
571 -580 4971 0
446 -4972 0
-876 -4972 0
-446 876 4972 0
112 -4973 0
601 -4973 0
-112 -601 4973 0
884 -4974 0
468 -4974 0
-884 -468 4974 0
-20 -4975 0
457 -4975 0
20 -457 4975 0
-16 -4976 0
38 -4976 0
16 -38 4976 0
382 -4977 0
-195 -4977 0
-382 195 4977 0
667 -4978 0
-127 -4978 0
-667 127 4978 0
655 -4979 0
-466 -4979 0
-655 466 4979 0
447 -4980 0
-909 -4980 0
-447 909 4980 0
282 -4981 0
-671 -4981 0
-282 671 4981 0
-722 -4982 0
230 -4982 0
722 -230 4982 0
-818 -4983 0
700 -4983 0
818 -700 4983 0
366 -4984 0
-508 -4984 0
-366 508 4984 0
911 -4985 0
-899 -4985 0
-911 899 4985 0
23 -4986 0
46 -4986 0
-23 -46 4986 0
-328 -4987 0
278 -4987 0
328 -278 4987 0
528 -4988 0
974 -4988 0
-528 -974 4988 0
760 -4989 0
198 -4989 0
-760 -198 4989 0
227 -4990 0
-199 -4990 0
-227 199 4990 0
-20 -4991 0
482 -4991 0
20 -482 4991 0
-877 -4992 0
90 -4992 0
877 -90 4992 0
328 -4993 0
-467 -4993 0
-328 467 4993 0
684 -4994 0
-125 -4994 0
-684 125 4994 0
413 -4995 0
-781 -4995 0
-413 781 4995 0
260 -4996 0
-334 -4996 0
-260 334 4996 0
509 -4997 0
-781 -4997 0
-509 781 4997 0
479 -4998 0
-710 -4998 0
-479 710 4998 0
-370 -4999 0
299 -4999 0
370 -299 4999 0
583 -5000 0
-230 -5000 0
-583 230 5000 0
832 -5001 0
-882 -5001 0
-832 882 5001 0
138 -5002 0
-518 -5002 0
-138 518 5002 0
102 -5003 0
701 -5003 0
-102 -701 5003 0
239 -5004 0
-611 -5004 0
-239 611 5004 0
696 -5005 0
-544 -5005 0
-696 544 5005 0
519 -5006 0
-925 -5006 0
-519 925 5006 0
566 -5007 0
-820 -5007 0
-566 820 5007 0
-594 -5008 0
883 -5008 0
594 -883 5008 0
615 -5009 0
-947 -5009 0
-615 947 5009 0
496 -5010 0
-156 -5010 0
-496 156 5010 0
478 -5011 0
-469 -5011 0
-478 469 5011 0
535 -5012 0
-114 -5012 0
-535 114 5012 0
-209 -5013 0
988 -5013 0
209 -988 5013 0
608 -5014 0
-790 -5014 0
-608 790 5014 0
405 -5015 0
-30 -5015 0
-405 30 5015 0
292 -5016 0
219 -5016 0
-292 -219 5016 0
440 -5017 0
99 -5017 0
-440 -99 5017 0
456 -5018 0
-804 -5018 0
-456 804 5018 0
360 -5019 0
-124 -5019 0
-360 124 5019 0
315 -5020 0
826 -5020 0
-315 -826 5020 0
229 -5021 0
866 -5021 0
-229 -866 5021 0
126 -5022 0
-583 -5022 0
-126 583 5022 0
686 -5023 0
-956 -5023 0
-686 956 5023 0
-433 -5024 0
686 -5024 0
433 -686 5024 0
815 -5025 0
639 -5025 0
-815 -639 5025 0
112 -5026 0
483 -5026 0
-112 -483 5026 0
916 -5027 0
705 -5027 0
-916 -705 5027 0
-665 -5028 0
508 -5028 0
665 -508 5028 0
172 -5029 0
689 -5029 0
-172 -689 5029 0
-965 -5030 0
642 -5030 0
965 -642 5030 0
-724 -5031 0
322 -5031 0
724 -322 5031 0
849 -5032 0
-927 -5032 0
-849 927 5032 0
459 -5033 0
-366 -5033 0
-459 366 5033 0
912 -5034 0
721 -5034 0
-912 -721 5034 0
-665 -5035 0
583 -5035 0
665 -583 5035 0
262 -5036 0
69 -5036 0
-262 -69 5036 0
471 -5037 0
801 -5037 0
-471 -801 5037 0
-803 -5038 0
298 -5038 0
803 -298 5038 0
-831 -5039 0
721 -5039 0
831 -721 5039 0
29 -5040 0
-95 -5040 0
-29 95 5040 0
563 -5041 0
426 -5041 0
-563 -426 5041 0
628 -5042 0
-631 -5042 0
-628 631 5042 0
96 -5043 0
-713 -5043 0
-96 713 5043 0
151 -5044 0
290 -5044 0
-151 -290 5044 0
405 -5045 0
290 -5045 0
-405 -290 5045 0
316 -5046 0
202 -5046 0
-316 -202 5046 0
619 -5047 0
673 -5047 0
-619 -673 5047 0
-593 -5048 0
694 -5048 0
593 -694 5048 0
480 -5049 0
-264 -5049 0
-480 264 5049 0
726 -5050 0
-366 -5050 0
-726 366 5050 0
-816 -5051 0
460 -5051 0
816 -460 5051 0
-684 -5052 0
539 -5052 0
684 -539 5052 0
933 -5053 0
52 -5053 0
-933 -52 5053 0
-989 -5054 0
419 -5054 0
989 -419 5054 0
318 -5055 0
-298 -5055 0
-318 298 5055 0
663 -5056 0
246 -5056 0
-663 -246 5056 0
254 -5057 0
58 -5057 0
-254 -58 5057 0
698 -5058 0
-679 -5058 0
-698 679 5058 0
456 -5059 0
953 -5059 0
-456 -953 5059 0
-788 -5060 0
579 -5060 0
788 -579 5060 0
286 -5061 0
-794 -5061 0
-286 794 5061 0
748 -5062 0
-788 -5062 0
-748 788 5062 0
-407 -5063 0
265 -5063 0
407 -265 5063 0
499 -5064 0
-173 -5064 0
-499 173 5064 0
855 -5065 0
-850 -5065 0
-855 850 5065 0
-168 -5066 0
6 -5066 0
168 -6 5066 0
-147 -5067 0
82 -5067 0
147 -82 5067 0
741 -5068 0
-476 -5068 0
-741 476 5068 0
703 -5069 0
-746 -5069 0
-703 746 5069 0
-108 -5070 0
531 -5070 0
108 -531 5070 0
-792 -5071 0
838 -5071 0
792 -838 5071 0
543 -5072 0
-898 -5072 0
-543 898 5072 0
209 -5073 0
81 -5073 0
-209 -81 5073 0
-205 -5074 0
745 -5074 0
205 -745 5074 0
-8 -5075 0
981 -5075 0
8 -981 5075 0
-80 -5076 0
947 -5076 0
80 -947 5076 0
944 -5077 0
652 -5077 0
-944 -652 5077 0
158 -5078 0
841 -5078 0
-158 -841 5078 0
94 -5079 0
-572 -5079 0
-94 572 5079 0
360 -5080 0
943 -5080 0
-360 -943 5080 0
-785 -5081 0
669 -5081 0
785 -669 5081 0
580 -5082 0
986 -5082 0
-580 -986 5082 0
901 -5083 0
-629 -5083 0
-901 629 5083 0
400 -5084 0
487 -5084 0
-400 -487 5084 0
64 -5085 0
435 -5085 0
-64 -435 5085 0
-65 -5086 0
507 -5086 0
65 -507 5086 0
-145 -5087 0
548 -5087 0
145 -548 5087 0
271 -5088 0
-102 -5088 0
-271 102 5088 0
-608 -5089 0
294 -5089 0
608 -294 5089 0
539 -5090 0
722 -5090 0
-539 -722 5090 0
639 -5091 0
-519 -5091 0
-639 519 5091 0
-970 -5092 0
28 -5092 0
970 -28 5092 0
419 -5093 0
-141 -5093 0
-419 141 5093 0
-505 -5094 0
813 -5094 0
505 -813 5094 0
-298 -5095 0
490 -5095 0
298 -490 5095 0
286 -5096 0
-899 -5096 0
-286 899 5096 0
936 -5097 0
-463 -5097 0
-936 463 5097 0
-681 -5098 0
386 -5098 0
681 -386 5098 0
959 -5099 0
-157 -5099 0
-959 157 5099 0
422 -5100 0
157 -5100 0
-422 -157 5100 0
-49 -5101 0
102 -5101 0
49 -102 5101 0
-587 -5102 0
908 -5102 0
587 -908 5102 0
504 -5103 0
-536 -5103 0
-504 536 5103 0
-986 -5104 0
137 -5104 0
986 -137 5104 0
-851 -5105 0
549 -5105 0
851 -549 5105 0
-584 -5106 0
24 -5106 0
584 -24 5106 0
-66 -5107 0
522 -5107 0
66 -522 5107 0
951 -5108 0
478 -5108 0
-951 -478 5108 0
279 -5109 0
70 -5109 0
-279 -70 5109 0
296 -5110 0
554 -5110 0
-296 -554 5110 0
604 -5111 0
793 -5111 0
-604 -793 5111 0
861 -5112 0
563 -5112 0
-861 -563 5112 0
403 -5113 0
-191 -5113 0
-403 191 5113 0
-49 -5114 0
348 -5114 0
49 -348 5114 0
6 -5115 0
773 -5115 0
-6 -773 5115 0
-392 -5116 0
461 -5116 0
392 -461 5116 0
159 -5117 0
-189 -5117 0
-159 189 5117 0
238 -5118 0
182 -5118 0
-238 -182 5118 0
784 -5119 0
-773 -5119 0
-784 773 5119 0
-337 -5120 0
154 -5120 0
337 -154 5120 0
950 -5121 0
131 -5121 0
-950 -131 5121 0
999 -5122 0
-422 -5122 0
-999 422 5122 0
208 -5123 0
-307 -5123 0
-208 307 5123 0
84 -5124 0
-911 -5124 0
-84 911 5124 0
847 -5125 0
-21 -5125 0
-847 21 5125 0
724 -5126 0
-559 -5126 0
-724 559 5126 0
792 -5127 0
-847 -5127 0
-792 847 5127 0
-938 -5128 0
798 -5128 0
938 -798 5128 0
464 -5129 0
997 -5129 0
-464 -997 5129 0
234 -5130 0
-271 -5130 0
-234 271 5130 0
72 -5131 0
-16 -5131 0
-72 16 5131 0
701 -5132 0
893 -5132 0
-701 -893 5132 0
384 -5133 0
-227 -5133 0
-384 227 5133 0
439 -5134 0
773 -5134 0
-439 -773 5134 0
-253 -5135 0
337 -5135 0
253 -337 5135 0
934 -5136 0
-501 -5136 0
-934 501 5136 0
990 -5137 0
98 -5137 0
-990 -98 5137 0
379 -5138 0
-534 -5138 0
-379 534 5138 0
367 -5139 0
-229 -5139 0
-367 229 5139 0
534 -5140 0
-870 -5140 0
-534 870 5140 0
341 -5141 0
34 -5141 0
-341 -34 5141 0
324 -5142 0
-556 -5142 0
-324 556 5142 0
928 -5143 0
265 -5143 0
-928 -265 5143 0
79 -5144 0
702 -5144 0
-79 -702 5144 0
256 -5145 0
762 -5145 0
-256 -762 5145 0
56 -5146 0
-415 -5146 0
-56 415 5146 0
149 -5147 0
890 -5147 0
-149 -890 5147 0
-920 -5148 0
913 -5148 0
920 -913 5148 0
548 -5149 0
-108 -5149 0
-548 108 5149 0
749 -5150 0
611 -5150 0
-749 -611 5150 0
614 -5151 0
-850 -5151 0
-614 850 5151 0
694 -5152 0
246 -5152 0
-694 -246 5152 0
738 -5153 0
153 -5153 0
-738 -153 5153 0
422 -5154 0
-908 -5154 0
-422 908 5154 0
96 -5155 0
54 -5155 0
-96 -54 5155 0
-857 -5156 0
311 -5156 0
857 -311 5156 0
-134 -5157 0
97 -5157 0
134 -97 5157 0
-170 -5158 0
861 -5158 0
170 -861 5158 0
728 -5159 0
-598 -5159 0
-728 598 5159 0
198 -5160 0
402 -5160 0
-198 -402 5160 0
808 -5161 0
748 -5161 0
-808 -748 5161 0
192 -5162 0
-726 -5162 0
-192 726 5162 0
-200 -5163 0
890 -5163 0
200 -890 5163 0
370 -5164 0
-830 -5164 0
-370 830 5164 0
44 -5165 0
-348 -5165 0
-44 348 5165 0
700 -5166 0
-238 -5166 0
-700 238 5166 0
335 -5167 0
-934 -5167 0
-335 934 5167 0
200 -5168 0
926 -5168 0
-200 -926 5168 0
455 -5169 0
106 -5169 0
-455 -106 5169 0
-569 -5170 0
381 -5170 0
569 -381 5170 0
204 -5171 0
-895 -5171 0
-204 895 5171 0
869 -5172 0
-599 -5172 0
-869 599 5172 0
-401 -5173 0
972 -5173 0
401 -972 5173 0
-929 -5174 0
498 -5174 0
929 -498 5174 0
952 -5175 0
-274 -5175 0
-952 274 5175 0
87 -5176 0
-726 -5176 0
-87 726 5176 0
-410 -5177 0
25 -5177 0
410 -25 5177 0
-212 -5178 0
620 -5178 0
212 -620 5178 0
742 -5179 0
93 -5179 0
-742 -93 5179 0
-486 -5180 0
537 -5180 0
486 -537 5180 0
240 -5181 0
198 -5181 0
-240 -198 5181 0
275 -5182 0
937 -5182 0
-275 -937 5182 0
-177 -5183 0
861 -5183 0
177 -861 5183 0
911 -5184 0
50 -5184 0
-911 -50 5184 0
-227 -5185 0
515 -5185 0
227 -515 5185 0
839 -5186 0
-415 -5186 0
-839 415 5186 0
604 -5187 0
68 -5187 0
-604 -68 5187 0
44 -5188 0
546 -5188 0
-44 -546 5188 0
704 -5189 0
358 -5189 0
-704 -358 5189 0
364 -5190 0
-236 -5190 0
-364 236 5190 0
447 -5191 0
213 -5191 0
-447 -213 5191 0
476 -5192 0
841 -5192 0
-476 -841 5192 0
982 -5193 0
381 -5193 0
-982 -381 5193 0
54 -5194 0
-501 -5194 0
-54 501 5194 0
863 -5195 0
989 -5195 0
-863 -989 5195 0
878 -5196 0
925 -5196 0
-878 -925 5196 0
543 -5197 0
991 -5197 0
-543 -991 5197 0
479 -5198 0
453 -5198 0
-479 -453 5198 0
816 -5199 0
-450 -5199 0
-816 450 5199 0
-353 -5200 0
153 -5200 0
353 -153 5200 0
916 -5201 0
-959 -5201 0
-916 959 5201 0
-707 -5202 0
260 -5202 0
707 -260 5202 0
-356 -5203 0
651 -5203 0
356 -651 5203 0
976 -5204 0
225 -5204 0
-976 -225 5204 0
670 -5205 0
-276 -5205 0
-670 276 5205 0
-776 -5206 0
259 -5206 0
776 -259 5206 0
972 -5207 0
-572 -5207 0
-972 572 5207 0
356 -5208 0
-629 -5208 0
-356 629 5208 0
480 -5209 0
-347 -5209 0
-480 347 5209 0
-619 -5210 0
405 -5210 0
619 -405 5210 0
942 -5211 0
-509 -5211 0
-942 509 5211 0
-152 -5212 0
793 -5212 0
152 -793 5212 0
920 -5213 0
-761 -5213 0
-920 761 5213 0
-224 -5214 0
935 -5214 0
224 -935 5214 0
63 -5215 0
-809 -5215 0
-63 809 5215 0
997 -5216 0
-727 -5216 0
-997 727 5216 0
824 -5217 0
28 -5217 0
-824 -28 5217 0
791 -5218 0
-421 -5218 0
-791 421 5218 0
687 -5219 0
-165 -5219 0
-687 165 5219 0
-105 -5220 0
342 -5220 0
105 -342 5220 0
-748 -5221 0
83 -5221 0
748 -83 5221 0
-200 -5222 0
212 -5222 0
200 -212 5222 0
672 -5223 0
865 -5223 0
-672 -865 5223 0
-474 -5224 0
182 -5224 0
474 -182 5224 0
-561 -5225 0
871 -5225 0
561 -871 5225 0
710 -5226 0
189 -5226 0
-710 -189 5226 0
341 -5227 0
-485 -5227 0
-341 485 5227 0
-874 -5228 0
186 -5228 0
874 -186 5228 0
-427 -5229 0
730 -5229 0
427 -730 5229 0
-362 -5230 0
4 -5230 0
362 -4 5230 0
-131 -5231 0
698 -5231 0
131 -698 5231 0
916 -5232 0
-190 -5232 0
-916 190 5232 0
758 -5233 0
349 -5233 0
-758 -349 5233 0
486 -5234 0
377 -5234 0
-486 -377 5234 0
47 -5235 0
521 -5235 0
-47 -521 5235 0
868 -5236 0
50 -5236 0
-868 -50 5236 0
599 -5237 0
962 -5237 0
-599 -962 5237 0
676 -5238 0
-382 -5238 0
-676 382 5238 0
-925 -5239 0
474 -5239 0
925 -474 5239 0
-802 -5240 0
761 -5240 0
802 -761 5240 0
605 -5241 0
557 -5241 0
-605 -557 5241 0
784 -5242 0
795 -5242 0
-784 -795 5242 0
392 -5243 0
-42 -5243 0
-392 42 5243 0
-480 -5244 0
651 -5244 0
480 -651 5244 0
951 -5245 0
180 -5245 0
-951 -180 5245 0
-48 -5246 0
87 -5246 0
48 -87 5246 0
-281 -5247 0
860 -5247 0
281 -860 5247 0
43 -5248 0
107 -5248 0
-43 -107 5248 0
827 -5249 0
-727 -5249 0
-827 727 5249 0
-604 -5250 0
753 -5250 0
604 -753 5250 0
-694 -5251 0
289 -5251 0
694 -289 5251 0
328 -5252 0
198 -5252 0
-328 -198 5252 0
-741 -5253 0
522 -5253 0
741 -522 5253 0
62 -5254 0
442 -5254 0
-62 -442 5254 0
152 -5255 0
-331 -5255 0
-152 331 5255 0
696 -5256 0
-5 -5256 0
-696 5 5256 0
728 -5257 0
-259 -5257 0
-728 259 5257 0
592 -5258 0
447 -5258 0
-592 -447 5258 0
-697 -5259 0
2 -5259 0
697 -2 5259 0
-817 -5260 0
225 -5260 0
817 -225 5260 0
488 -5261 0
-908 -5261 0
-488 908 5261 0
999 -5262 0
-839 -5262 0
-999 839 5262 0
152 -5263 0
444 -5263 0
-152 -444 5263 0
-931 -5264 0
193 -5264 0
931 -193 5264 0
670 -5265 0
-146 -5265 0
-670 146 5265 0
-315 -5266 0
131 -5266 0
315 -131 5266 0
-435 -5267 0
644 -5267 0
435 -644 5267 0
-338 -5268 0
108 -5268 0
338 -108 5268 0
198 -5269 0
-759 -5269 0
-198 759 5269 0
23 -5270 0
-559 -5270 0
-23 559 5270 0
-507 -5271 0
361 -5271 0
507 -361 5271 0
-956 -5272 0
561 -5272 0
956 -561 5272 0
216 -5273 0
-214 -5273 0
-216 214 5273 0
189 -5274 0
-780 -5274 0
-189 780 5274 0
99 -5275 0
-422 -5275 0
-99 422 5275 0
-56 -5276 0
610 -5276 0
56 -610 5276 0
7 -5277 0
-174 -5277 0
-7 174 5277 0
-956 -5278 0
475 -5278 0
956 -475 5278 0
-969 -5279 0
18 -5279 0
969 -18 5279 0
-680 -5280 0
218 -5280 0
680 -218 5280 0
336 -5281 0
-348 -5281 0
-336 348 5281 0
-161 -5282 0
643 -5282 0
161 -643 5282 0
931 -5283 0
113 -5283 0
-931 -113 5283 0
-592 -5284 0
676 -5284 0
592 -676 5284 0
63 -5285 0
993 -5285 0
-63 -993 5285 0
-226 -5286 0
148 -5286 0
226 -148 5286 0
515 -5287 0
-735 -5287 0
-515 735 5287 0
808 -5288 0
493 -5288 0
-808 -493 5288 0
101 -5289 0
906 -5289 0
-101 -906 5289 0
184 -5290 0
-255 -5290 0
-184 255 5290 0
144 -5291 0
-757 -5291 0
-144 757 5291 0
404 -5292 0
-60 -5292 0
-404 60 5292 0
717 -5293 0
649 -5293 0
-717 -649 5293 0
143 -5294 0
353 -5294 0
-143 -353 5294 0
576 -5295 0
-234 -5295 0
-576 234 5295 0
328 -5296 0
-361 -5296 0
-328 361 5296 0
41 -5297 0
-255 -5297 0
-41 255 5297 0
-256 -5298 0
204 -5298 0
256 -204 5298 0
803 -5299 0
-237 -5299 0
-803 237 5299 0
269 -5300 0
-101 -5300 0
-269 101 5300 0
984 -5301 0
374 -5301 0
-984 -374 5301 0
-423 -5302 0
777 -5302 0
423 -777 5302 0
421 -5303 0
490 -5303 0
-421 -490 5303 0
-297 -5304 0
759 -5304 0
297 -759 5304 0
895 -5305 0
-387 -5305 0
-895 387 5305 0
792 -5306 0
246 -5306 0
-792 -246 5306 0
542 -5307 0
-508 -5307 0
-542 508 5307 0
916 -5308 0
404 -5308 0
-916 -404 5308 0
524 -5309 0
-855 -5309 0
-524 855 5309 0
816 -5310 0
-27 -5310 0
-816 27 5310 0
-3 -5311 0
618 -5311 0
3 -618 5311 0
207 -5312 0
983 -5312 0
-207 -983 5312 0
344 -5313 0
-125 -5313 0
-344 125 5313 0
846 -5314 0
521 -5314 0
-846 -521 5314 0
139 -5315 0
521 -5315 0
-139 -521 5315 0
7 -5316 0
82 -5316 0
-7 -82 5316 0
296 -5317 0
-694 -5317 0
-296 694 5317 0
915 -5318 0
-557 -5318 0
-915 557 5318 0
334 -5319 0
193 -5319 0
-334 -193 5319 0
943 -5320 0
-26 -5320 0
-943 26 5320 0
77 -5321 0
553 -5321 0
-77 -553 5321 0
959 -5322 0
-198 -5322 0
-959 198 5322 0
430 -5323 0
-14 -5323 0
-430 14 5323 0
720 -5324 0
-531 -5324 0
-720 531 5324 0
671 -5325 0
-308 -5325 0
-671 308 5325 0
-2 -5326 0
989 -5326 0
2 -989 5326 0
72 -5327 0
-165 -5327 0
-72 165 5327 0
296 -5328 0
915 -5328 0
-296 -915 5328 0
-668 -5329 0
266 -5329 0
668 -266 5329 0
695 -5330 0
334 -5330 0
-695 -334 5330 0
-579 -5331 0
923 -5331 0
579 -923 5331 0
367 -5332 0
438 -5332 0
-367 -438 5332 0
-180 -5333 0
433 -5333 0
180 -433 5333 0
21 -5334 0
-78 -5334 0
-21 78 5334 0
-434 -5335 0
806 -5335 0
434 -806 5335 0
-426 -5336 0
84 -5336 0
426 -84 5336 0
-337 -5337 0
74 -5337 0
337 -74 5337 0
1000 -5338 0
-201 -5338 0
-1000 201 5338 0
286 -5339 0
60 -5339 0
-286 -60 5339 0
605 -5340 0
-966 -5340 0
-605 966 5340 0
-420 -5341 0
858 -5341 0
420 -858 5341 0
378 -5342 0
705 -5342 0
-378 -705 5342 0
-785 -5343 0
254 -5343 0
785 -254 5343 0
575 -5344 0
359 -5344 0
-575 -359 5344 0
-565 -5345 0
721 -5345 0
565 -721 5345 0
948 -5346 0
-783 -5346 0
-948 783 5346 0
55 -5347 0
850 -5347 0
-55 -850 5347 0
112 -5348 0
-922 -5348 0
-112 922 5348 0
944 -5349 0
5 -5349 0
-944 -5 5349 0
567 -5350 0
277 -5350 0
-567 -277 5350 0
192 -5351 0
523 -5351 0
-192 -523 5351 0
939 -5352 0
-95 -5352 0
-939 95 5352 0
569 -5353 0
897 -5353 0
-569 -897 5353 0
-329 -5354 0
649 -5354 0
329 -649 5354 0
148 -5355 0
-6 -5355 0
-148 6 5355 0
472 -5356 0
-351 -5356 0
-472 351 5356 0
-81 -5357 0
955 -5357 0
81 -955 5357 0
736 -5358 0
-246 -5358 0
-736 246 5358 0
-522 -5359 0
843 -5359 0
522 -843 5359 0
981 -5360 0
-45 -5360 0
-981 45 5360 0
860 -5361 0
756 -5361 0
-860 -756 5361 0
720 -5362 0
130 -5362 0
-720 -130 5362 0
-609 -5363 0
363 -5363 0
609 -363 5363 0
728 -5364 0
180 -5364 0
-728 -180 5364 0
464 -5365 0
991 -5365 0
-464 -991 5365 0
22 -5366 0
-887 -5366 0
-22 887 5366 0
571 -5367 0
625 -5367 0
-571 -625 5367 0
574 -5368 0
-644 -5368 0
-574 644 5368 0
575 -5369 0
-130 -5369 0
-575 130 5369 0
492 -5370 0
-5 -5370 0
-492 5 5370 0
-210 -5371 0
161 -5371 0
210 -161 5371 0
742 -5372 0
-587 -5372 0
-742 587 5372 0
550 -5373 0
386 -5373 0
-550 -386 5373 0
-801 -5374 0
44 -5374 0
801 -44 5374 0
462 -5375 0
-470 -5375 0
-462 470 5375 0
94 -5376 0
116 -5376 0
-94 -116 5376 0
-771 -5377 0
197 -5377 0
771 -197 5377 0
-418 -5378 0
657 -5378 0
418 -657 5378 0
282 -5379 0
777 -5379 0
-282 -777 5379 0
567 -5380 0
882 -5380 0
-567 -882 5380 0
-365 -5381 0
555 -5381 0
365 -555 5381 0
-832 -5382 0
209 -5382 0
832 -209 5382 0
-235 -5383 0
317 -5383 0
235 -317 5383 0
304 -5384 0
559 -5384 0
-304 -559 5384 0
-348 -5385 0
42 -5385 0
348 -42 5385 0
879 -5386 0
395 -5386 0
-879 -395 5386 0
66 -5387 0
465 -5387 0
-66 -465 5387 0
552 -5388 0
372 -5388 0
-552 -372 5388 0
449 -5389 0
-599 -5389 0
-449 599 5389 0
600 -5390 0
-767 -5390 0
-600 767 5390 0
616 -5391 0
-172 -5391 0
-616 172 5391 0
447 -5392 0
875 -5392 0
-447 -875 5392 0
-217 -5393 0
446 -5393 0
217 -446 5393 0
291 -5394 0
762 -5394 0
-291 -762 5394 0
620 -5395 0
-820 -5395 0
-620 820 5395 0
379 -5396 0
-189 -5396 0
-379 189 5396 0
-978 -5397 0
525 -5397 0
978 -525 5397 0
-851 -5398 0
58 -5398 0
851 -58 5398 0
364 -5399 0
-799 -5399 0
-364 799 5399 0
724 -5400 0
-622 -5400 0
-724 622 5400 0
839 -5401 0
219 -5401 0
-839 -219 5401 0
438 -5402 0
644 -5402 0
-438 -644 5402 0
613 -5403 0
283 -5403 0
-613 -283 5403 0
592 -5404 0
-369 -5404 0
-592 369 5404 0
52 -5405 0
-165 -5405 0
-52 165 5405 0
625 -5406 0
-719 -5406 0
-625 719 5406 0
824 -5407 0
928 -5407 0
-824 -928 5407 0
542 -5408 0
-123 -5408 0
-542 123 5408 0
544 -5409 0
410 -5409 0
-544 -410 5409 0
-106 -5410 0
395 -5410 0
106 -395 5410 0
157 -5411 0
-204 -5411 0
-157 204 5411 0
835 -5412 0
969 -5412 0
-835 -969 5412 0
773 -5413 0
-924 -5413 0
-773 924 5413 0
923 -5414 0
81 -5414 0
-923 -81 5414 0
677 -5415 0
-366 -5415 0
-677 366 5415 0
517 -5416 0
403 -5416 0
-517 -403 5416 0
376 -5417 0
-767 -5417 0
-376 767 5417 0
710 -5418 0
-108 -5418 0
-710 108 5418 0
-20 -5419 0
473 -5419 0
20 -473 5419 0
8 -5420 0
601 -5420 0
-8 -601 5420 0
-26 -5421 0
381 -5421 0
26 -381 5421 0
636 -5422 0
-509 -5422 0
-636 509 5422 0
-651 -5423 0
906 -5423 0
651 -906 5423 0
956 -5424 0
-589 -5424 0
-956 589 5424 0
893 -5425 0
-661 -5425 0
-893 661 5425 0
494 -5426 0
420 -5426 0
-494 -420 5426 0
80 -5427 0
-129 -5427 0
-80 129 5427 0
991 -5428 0
359 -5428 0
-991 -359 5428 0
-258 -5429 0
115 -5429 0
258 -115 5429 0
766 -5430 0
909 -5430 0
-766 -909 5430 0
120 -5431 0
220 -5431 0
-120 -220 5431 0
-906 -5432 0
205 -5432 0
906 -205 5432 0
-423 -5433 0
409 -5433 0
423 -409 5433 0
83 -5434 0
530 -5434 0
-83 -530 5434 0
854 -5435 0
250 -5435 0
-854 -250 5435 0
805 -5436 0
778 -5436 0
-805 -778 5436 0
110 -5437 0
-619 -5437 0
-110 619 5437 0
675 -5438 0
-14 -5438 0
-675 14 5438 0
483 -5439 0
617 -5439 0
-483 -617 5439 0
664 -5440 0
817 -5440 0
-664 -817 5440 0
808 -5441 0
638 -5441 0
-808 -638 5441 0
575 -5442 0
493 -5442 0
-575 -493 5442 0
-819 -5443 0
883 -5443 0
819 -883 5443 0
-722 -5444 0
124 -5444 0
722 -124 5444 0
-75 -5445 0
812 -5445 0
75 -812 5445 0
203 -5446 0
938 -5446 0
-203 -938 5446 0
-832 -5447 0
976 -5447 0
832 -976 5447 0
63 -5448 0
307 -5448 0
-63 -307 5448 0
692 -5449 0
-871 -5449 0
-692 871 5449 0
919 -5450 0
-515 -5450 0
-919 515 5450 0
223 -5451 0
-157 -5451 0
-223 157 5451 0
-667 -5452 0
458 -5452 0
667 -458 5452 0
539 -5453 0
-214 -5453 0
-539 214 5453 0
-114 -5454 0
707 -5454 0
114 -707 5454 0
-152 -5455 0
137 -5455 0
152 -137 5455 0
853 -5456 0
-966 -5456 0
-853 966 5456 0
254 -5457 0
966 -5457 0
-254 -966 5457 0
966 -5458 0
-563 -5458 0
-966 563 5458 0
560 -5459 0
-188 -5459 0
-560 188 5459 0
-152 -5460 0
362 -5460 0
152 -362 5460 0
-907 -5461 0
945 -5461 0
907 -945 5461 0
4 -5462 0
-831 -5462 0
-4 831 5462 0
-569 -5463 0
366 -5463 0
569 -366 5463 0
562 -5464 0
-486 -5464 0
-562 486 5464 0
-633 -5465 0
241 -5465 0
633 -241 5465 0
-384 -5466 0
369 -5466 0
384 -369 5466 0
903 -5467 0
-827 -5467 0
-903 827 5467 0
-796 -5468 0
265 -5468 0
796 -265 5468 0
-915 -5469 0
26 -5469 0
915 -26 5469 0
415 -5470 0
-447 -5470 0
-415 447 5470 0
247 -5471 0
-116 -5471 0
-247 116 5471 0
120 -5472 0
-55 -5472 0
-120 55 5472 0
-164 -5473 0
19 -5473 0
164 -19 5473 0
-184 -5474 0
813 -5474 0
184 -813 5474 0
592 -5475 0
-845 -5475 0
-592 845 5475 0
7 -5476 0
-783 -5476 0
-7 783 5476 0
-828 -5477 0
834 -5477 0
828 -834 5477 0
80 -5478 0
-812 -5478 0
-80 812 5478 0
-850 -5479 0
13 -5479 0
850 -13 5479 0
-3 -5480 0
737 -5480 0
3 -737 5480 0
-298 -5481 0
73 -5481 0
298 -73 5481 0
132 -5482 0
217 -5482 0
-132 -217 5482 0
-289 -5483 0
339 -5483 0
289 -339 5483 0
990 -5484 0
-405 -5484 0
-990 405 5484 0
862 -5485 0
396 -5485 0
-862 -396 5485 0
140 -5486 0
339 -5486 0
-140 -339 5486 0
-817 -5487 0
978 -5487 0
817 -978 5487 0
460 -5488 0
186 -5488 0
-460 -186 5488 0
-176 -5489 0
368 -5489 0
176 -368 5489 0
959 -5490 0
20 -5490 0
-959 -20 5490 0
562 -5491 0
-807 -5491 0
-562 807 5491 0
159 -5492 0
-813 -5492 0
-159 813 5492 0
592 -5493 0
505 -5493 0
-592 -505 5493 0
40 -5494 0
775 -5494 0
-40 -775 5494 0
120 -5495 0
933 -5495 0
-120 -933 5495 0
886 -5496 0
-382 -5496 0
-886 382 5496 0
-305 -5497 0
893 -5497 0
305 -893 5497 0
501 -5498 0
-709 -5498 0
-501 709 5498 0
108 -5499 0
122 -5499 0
-108 -122 5499 0
-545 -5500 0
945 -5500 0
545 -945 5500 0
879 -5501 0
-42 -5501 0
-879 42 5501 0
328 -5502 0
32 -5502 0
-328 -32 5502 0
735 -5503 0
107 -5503 0
-735 -107 5503 0
94 -5504 0
538 -5504 0
-94 -538 5504 0
584 -5505 0
-333 -5505 0
-584 333 5505 0
847 -5506 0
-148 -5506 0
-847 148 5506 0
-256 -5507 0
492 -5507 0
256 -492 5507 0
-554 -5508 0
969 -5508 0
554 -969 5508 0
64 -5509 0
-986 -5509 0
-64 986 5509 0
-973 -5510 0
810 -5510 0
973 -810 5510 0
402 -5511 0
474 -5511 0
-402 -474 5511 0
837 -5512 0
-205 -5512 0
-837 205 5512 0
287 -5513 0
-701 -5513 0
-287 701 5513 0
640 -5514 0
-696 -5514 0
-640 696 5514 0
-774 -5515 0
177 -5515 0
774 -177 5515 0
367 -5516 0
921 -5516 0
-367 -921 5516 0
254 -5517 0
-901 -5517 0
-254 901 5517 0
-147 -5518 0
251 -5518 0
147 -251 5518 0
263 -5519 0
-188 -5519 0
-263 188 5519 0
720 -5520 0
326 -5520 0
-720 -326 5520 0
231 -5521 0
372 -5521 0
-231 -372 5521 0
-213 -5522 0
674 -5522 0
213 -674 5522 0
309 -5523 0
69 -5523 0
-309 -69 5523 0
251 -5524 0
-215 -5524 0
-251 215 5524 0
-618 -5525 0
883 -5525 0
618 -883 5525 0
413 -5526 0
828 -5526 0
-413 -828 5526 0
200 -5527 0
591 -5527 0
-200 -591 5527 0
404 -5528 0
770 -5528 0
-404 -770 5528 0
-608 -5529 0
420 -5529 0
608 -420 5529 0
-687 -5530 0
57 -5530 0
687 -57 5530 0
696 -5531 0
130 -5531 0
-696 -130 5531 0
40 -5532 0
-223 -5532 0
-40 223 5532 0
-72 -5533 0
947 -5533 0
72 -947 5533 0
344 -5534 0
-303 -5534 0
-344 303 5534 0
656 -5535 0
647 -5535 0
-656 -647 5535 0
-624 -5536 0
945 -5536 0
624 -945 5536 0
999 -5537 0
-580 -5537 0
-999 580 5537 0
824 -5538 0
890 -5538 0
-824 -890 5538 0
-530 -5539 0
764 -5539 0
530 -764 5539 0
512 -5540 0
-18 -5540 0
-512 18 5540 0
447 -5541 0
804 -5541 0
-447 -804 5541 0
525 -5542 0
913 -5542 0
-525 -913 5542 0
608 -5543 0
-821 -5543 0
-608 821 5543 0
339 -5544 0
-407 -5544 0
-339 407 5544 0
-513 -5545 0
532 -5545 0
513 -532 5545 0
-965 -5546 0
746 -5546 0
965 -746 5546 0
133 -5547 0
730 -5547 0
-133 -730 5547 0
-897 -5548 0
326 -5548 0
897 -326 5548 0
38 -5549 0
755 -5549 0
-38 -755 5549 0
-608 -5550 0
605 -5550 0
608 -605 5550 0
727 -5551 0
502 -5551 0
-727 -502 5551 0
416 -5552 0
819 -5552 0
-416 -819 5552 0
951 -5553 0
-654 -5553 0
-951 654 5553 0
-641 -5554 0
421 -5554 0
641 -421 5554 0
676 -5555 0
-405 -5555 0
-676 405 5555 0
375 -5556 0
363 -5556 0
-375 -363 5556 0
-688 -5557 0
775 -5557 0
688 -775 5557 0
18 -5558 0
665 -5558 0
-18 -665 5558 0
-197 -5559 0
545 -5559 0
197 -545 5559 0
890 -5560 0
-639 -5560 0
-890 639 5560 0
-952 -5561 0
287 -5561 0
952 -287 5561 0
159 -5562 0
833 -5562 0
-159 -833 5562 0
677 -5563 0
441 -5563 0
-677 -441 5563 0
604 -5564 0
-446 -5564 0
-604 446 5564 0
-707 -5565 0
218 -5565 0
707 -218 5565 0
-482 -5566 0
602 -5566 0
482 -602 5566 0
152 -5567 0
104 -5567 0
-152 -104 5567 0
77 -5568 0
-150 -5568 0
-77 150 5568 0
-677 -5569 0
890 -5569 0
677 -890 5569 0
694 -5570 0
906 -5570 0
-694 -906 5570 0
-765 -5571 0
793 -5571 0
765 -793 5571 0
-718 -5572 0
825 -5572 0
718 -825 5572 0
583 -5573 0
499 -5573 0
-583 -499 5573 0
-368 -5574 0
678 -5574 0
368 -678 5574 0
-96 -5575 0
385 -5575 0
96 -385 5575 0
526 -5576 0
-98 -5576 0
-526 98 5576 0
-11 -5577 0
211 -5577 0
11 -211 5577 0
871 -5578 0
535 -5578 0
-871 -535 5578 0
-504 -5579 0
679 -5579 0
504 -679 5579 0
795 -5580 0
466 -5580 0
-795 -466 5580 0
-760 -5581 0
409 -5581 0
760 -409 5581 0
747 -5582 0
-230 -5582 0
-747 230 5582 0
82 -5583 0
-214 -5583 0
-82 214 5583 0
596 -5584 0
-406 -5584 0
-596 406 5584 0
402 -5585 0
497 -5585 0
-402 -497 5585 0
848 -5586 0
398 -5586 0
-848 -398 5586 0
798 -5587 0
-947 -5587 0
-798 947 5587 0
262 -5588 0
-964 -5588 0
-262 964 5588 0
85 -5589 0
682 -5589 0
-85 -682 5589 0
-416 -5590 0
447 -5590 0
416 -447 5590 0
-70 -5591 0
905 -5591 0
70 -905 5591 0
488 -5592 0
769 -5592 0
-488 -769 5592 0
-579 -5593 0
59 -5593 0
579 -59 5593 0
-165 -5594 0
457 -5594 0
165 -457 5594 0
749 -5595 0
-478 -5595 0
-749 478 5595 0
463 -5596 0
805 -5596 0
-463 -805 5596 0
-248 -5597 0
99 -5597 0
248 -99 5597 0
912 -5598 0
-771 -5598 0
-912 771 5598 0
-459 -5599 0
347 -5599 0
459 -347 5599 0
759 -5600 0
-458 -5600 0
-759 458 5600 0
-594 -5601 0
177 -5601 0
594 -177 5601 0
704 -5602 0
-231 -5602 0
-704 231 5602 0
666 -5603 0
-799 -5603 0
-666 799 5603 0
655 -5604 0
766 -5604 0
-655 -766 5604 0
476 -5605 0
-143 -5605 0
-476 143 5605 0
-385 -5606 0
508 -5606 0
385 -508 5606 0
588 -5607 0
441 -5607 0
-588 -441 5607 0
645 -5608 0
-247 -5608 0
-645 247 5608 0
155 -5609 0
363 -5609 0
-155 -363 5609 0
629 -5610 0
340 -5610 0
-629 -340 5610 0
992 -5611 0
-357 -5611 0
-992 357 5611 0
-672 -5612 0
233 -5612 0
672 -233 5612 0
-466 -5613 0
330 -5613 0
466 -330 5613 0
-9 -5614 0
838 -5614 0
9 -838 5614 0
-498 -5615 0
905 -5615 0
498 -905 5615 0
-522 -5616 0
654 -5616 0
522 -654 5616 0
-97 -5617 0
905 -5617 0
97 -905 5617 0
192 -5618 0
862 -5618 0
-192 -862 5618 0
-410 -5619 0
706 -5619 0
410 -706 5619 0
503 -5620 0
-750 -5620 0
-503 750 5620 0
-984 -5621 0
941 -5621 0
984 -941 5621 0
442 -5622 0
-607 -5622 0
-442 607 5622 0
661 -5623 0
412 -5623 0
-661 -412 5623 0
-585 -5624 0
870 -5624 0
585 -870 5624 0
118 -5625 0
-541 -5625 0
-118 541 5625 0
-874 -5626 0
454 -5626 0
874 -454 5626 0
71 -5627 0
-14 -5627 0
-71 14 5627 0
463 -5628 0
451 -5628 0
-463 -451 5628 0
454 -5629 0
-923 -5629 0
-454 923 5629 0
896 -5630 0
891 -5630 0
-896 -891 5630 0
-738 -5631 0
468 -5631 0
738 -468 5631 0
701 -5632 0
564 -5632 0
-701 -564 5632 0
-443 -5633 0
260 -5633 0
443 -260 5633 0
37 -5634 0
-940 -5634 0
-37 940 5634 0
596 -5635 0
-478 -5635 0
-596 478 5635 0
-51 -5636 0
36 -5636 0
51 -36 5636 0
-292 -5637 0
994 -5637 0
292 -994 5637 0
-854 -5638 0
826 -5638 0
854 -826 5638 0
-608 -5639 0
617 -5639 0
608 -617 5639 0
-528 -5640 0
219 -5640 0
528 -219 5640 0
572 -5641 0
194 -5641 0
-572 -194 5641 0
-137 -5642 0
636 -5642 0
137 -636 5642 0
-916 -5643 0
457 -5643 0
916 -457 5643 0
39 -5644 0
-356 -5644 0
-39 356 5644 0
207 -5645 0
-533 -5645 0
-207 533 5645 0
951 -5646 0
787 -5646 0
-951 -787 5646 0
919 -5647 0
-414 -5647 0
-919 414 5647 0
-626 -5648 0
265 -5648 0
626 -265 5648 0
-232 -5649 0
352 -5649 0
232 -352 5649 0
717 -5650 0
-557 -5650 0
-717 557 5650 0
878 -5651 0
-271 -5651 0
-878 271 5651 0
46 -5652 0
149 -5652 0
-46 -149 5652 0
43 -5653 0
161 -5653 0
-43 -161 5653 0
726 -5654 0
218 -5654 0
-726 -218 5654 0
430 -5655 0
-510 -5655 0
-430 510 5655 0
586 -5656 0
977 -5656 0
-586 -977 5656 0
662 -5657 0
235 -5657 0
-662 -235 5657 0
-600 -5658 0
738 -5658 0
600 -738 5658 0
152 -5659 0
-799 -5659 0
-152 799 5659 0
103 -5660 0
-854 -5660 0
-103 854 5660 0
447 -5661 0
983 -5661 0
-447 -983 5661 0
900 -5662 0
827 -5662 0
-900 -827 5662 0
265 -5663 0
-167 -5663 0
-265 167 5663 0
303 -5664 0
886 -5664 0
-303 -886 5664 0
-536 -5665 0
197 -5665 0
536 -197 5665 0
647 -5666 0
-284 -5666 0
-647 284 5666 0
184 -5667 0
-28 -5667 0
-184 28 5667 0
775 -5668 0
-158 -5668 0
-775 158 5668 0
-283 -5669 0
547 -5669 0
283 -547 5669 0
468 -5670 0
921 -5670 0
-468 -921 5670 0
-848 -5671 0
674 -5671 0
848 -674 5671 0
518 -5672 0
762 -5672 0
-518 -762 5672 0
110 -5673 0
801 -5673 0
-110 -801 5673 0
92 -5674 0
145 -5674 0
-92 -145 5674 0
-965 -5675 0
305 -5675 0
965 -305 5675 0
-66 -5676 0
708 -5676 0
66 -708 5676 0
-13 -5677 0
834 -5677 0
13 -834 5677 0
157 -5678 0
522 -5678 0
-157 -522 5678 0
372 -5679 0
284 -5679 0
-372 -284 5679 0
-391 -5680 0
713 -5680 0
391 -713 5680 0
685 -5681 0
-667 -5681 0
-685 667 5681 0
391 -5682 0
855 -5682 0
-391 -855 5682 0
31 -5683 0
685 -5683 0
-31 -685 5683 0
997 -5684 0
356 -5684 0
-997 -356 5684 0
-801 -5685 0
252 -5686 0
988 -5686 0
-252 -988 5686 0
-665 -5687 0
900 -5687 0
665 -900 5687 0
872 -5688 0
225 -5688 0
-872 -225 5688 0
924 -5689 0
395 -5689 0
-924 -395 5689 0
471 -5690 0
299 -5690 0
-471 -299 5690 0
610 -5691 0
250 -5691 0
-610 -250 5691 0
751 -5692 0
-405 -5692 0
-751 405 5692 0
93 -5693 0
745 -5693 0
-93 -745 5693 0
741 -5694 0
-219 -5694 0
-741 219 5694 0
-804 -5695 0
257 -5695 0
804 -257 5695 0
63 -5696 0
-693 -5696 0
-63 693 5696 0
-579 -5697 0
275 -5697 0
579 -275 5697 0
-330 -5698 0
177 -5698 0
330 -177 5698 0
923 -5699 0
-959 -5699 0
-923 959 5699 0
862 -5700 0
-818 -5700 0
-862 818 5700 0
791 -5701 0
-84 -5701 0
-791 84 5701 0
646 -5702 0
-765 -5702 0
-646 765 5702 0
-198 -5703 0
466 -5703 0
198 -466 5703 0
550 -5704 0
452 -5704 0
-550 -452 5704 0
123 -5705 0
74 -5705 0
-123 -74 5705 0
-627 -5706 0
141 -5706 0
627 -141 5706 0
408 -5707 0
687 -5707 0
-408 -687 5707 0
310 -5708 0
-923 -5708 0
-310 923 5708 0
320 -5709 0
-151 -5709 0
-320 151 5709 0
216 -5710 0
494 -5710 0
-216 -494 5710 0
766 -5711 0
930 -5711 0
-766 -930 5711 0
40 -5712 0
-852 -5712 0
-40 852 5712 0
838 -5713 0
662 -5713 0
-838 -662 5713 0
-802 -5714 0
778 -5714 0
802 -778 5714 0
164 -5715 0
-837 -5715 0
-164 837 5715 0
910 -5716 0
-917 -5716 0
-910 917 5716 0
333 -5717 0
355 -5717 0
-333 -355 5717 0
423 -5718 0
166 -5718 0
-423 -166 5718 0
-41 -5719 0
285 -5719 0
41 -285 5719 0
159 -5720 0
975 -5720 0
-159 -975 5720 0
824 -5721 0
-206 -5721 0
-824 206 5721 0
-395 -5722 0
361 -5722 0
395 -361 5722 0
184 -5723 0
572 -5723 0
-184 -572 5723 0
8 -5724 0
682 -5724 0
-8 -682 5724 0
256 -5725 0
610 -5725 0
-256 -610 5725 0
336 -5726 0
-593 -5726 0
-336 593 5726 0
240 -5727 0
23 -5727 0
-240 -23 5727 0
8 -5728 0
-892 -5728 0
-8 892 5728 0
4 -5729 0
-165 -5729 0
-4 165 5729 0
704 -5730 0
-783 -5730 0
-704 783 5730 0
-337 -5731 0
91 -5731 0
337 -91 5731 0
-185 -5732 0
412 -5732 0
185 -412 5732 0
-160 -5733 0
391 -5733 0
160 -391 5733 0
616 -5734 0
296 -5734 0
-616 -296 5734 0
710 -5735 0
777 -5735 0
-710 -777 5735 0
476 -5736 0
-726 -5736 0
-476 726 5736 0
670 -5737 0
958 -5737 0
-670 -958 5737 0
279 -5738 0
284 -5738 0
-279 -284 5738 0
-347 -5739 0
756 -5739 0
347 -756 5739 0
-932 -5740 0
425 -5740 0
932 -425 5740 0
180 -5741 0
610 -5741 0
-180 -610 5741 0
-240 -5742 0
770 -5742 0
240 -770 5742 0
944 -5743 0
-897 -5743 0
-944 897 5743 0
-923 -5744 0
772 -5744 0
923 -772 5744 0
998 -5745 0
579 -5745 0
-998 -579 5745 0
162 -5746 0
650 -5746 0
-162 -650 5746 0
-129 -5747 0
441 -5747 0
129 -441 5747 0
471 -5748 0
667 -5748 0
-471 -667 5748 0
-496 -5749 0
543 -5749 0
496 -543 5749 0
-794 -5750 0
329 -5750 0
794 -329 5750 0
751 -5751 0
780 -5751 0
-751 -780 5751 0
-124 -5752 0
700 -5752 0
124 -700 5752 0
930 -5753 0
634 -5753 0
-930 -634 5753 0
29 -5754 0
91 -5754 0
-29 -91 5754 0
-597 -5755 0
571 -5755 0
597 -571 5755 0
955 -5756 0
689 -5756 0
-955 -689 5756 0
711 -5757 0
505 -5757 0
-711 -505 5757 0
-444 -5758 0
361 -5758 0
444 -361 5758 0
247 -5759 0
133 -5759 0
-247 -133 5759 0
224 -5760 0
-169 -5760 0
-224 169 5760 0
-123 -5761 0
756 -5761 0
123 -756 5761 0
85 -5762 0
-620 -5762 0
-85 620 5762 0
943 -5763 0
-271 -5763 0
-943 271 5763 0
769 -5764 0
-335 -5764 0
-769 335 5764 0
230 -5765 0
-259 -5765 0
-230 259 5765 0
-513 -5766 0
498 -5766 0
513 -498 5766 0
119 -5767 0
999 -5767 0
-119 -999 5767 0
296 -5768 0
854 -5768 0
-296 -854 5768 0
572 -5769 0
1 -5769 0
-572 -1 5769 0
935 -5770 0
820 -5770 0
-935 -820 5770 0
48 -5771 0
-365 -5771 0
-48 365 5771 0
15 -5772 0
119 -5772 0
-15 -119 5772 0
687 -5773 0
538 -5773 0
-687 -538 5773 0
151 -5774 0
-389 -5774 0
-151 389 5774 0
559 -5775 0
215 -5775 0
-559 -215 5775 0
389 -5776 0
-709 -5776 0
-389 709 5776 0
20 -5777 0
66 -5777 0
-20 -66 5777 0
214 -5778 0
-391 -5778 0
-214 391 5778 0
-700 -5779 0
483 -5779 0
700 -483 5779 0
887 -5780 0
357 -5780 0
-887 -357 5780 0
-277 -5781 0
387 -5781 0
277 -387 5781 0
21 -5782 0
-431 -5782 0
-21 431 5782 0
575 -5783 0
-850 -5783 0
-575 850 5783 0
560 -5784 0
154 -5784 0
-560 -154 5784 0
-498 -5785 0
474 -5785 0
498 -474 5785 0
792 -5786 0
-216 -5786 0
-792 216 5786 0
965 -5787 0
-564 -5787 0
-965 564 5787 0
774 -5788 0
587 -5788 0
-774 -587 5788 0
717 -5789 0
129 -5789 0
-717 -129 5789 0
70 -5790 0
-42 -5790 0
-70 42 5790 0
-427 -5791 0
85 -5791 0
427 -85 5791 0
864 -5792 0
-301 -5792 0
-864 301 5792 0
564 -5793 0
977 -5793 0
-564 -977 5793 0
904 -5794 0
-42 -5794 0
-904 42 5794 0
31 -5795 0
915 -5795 0
-31 -915 5795 0
991 -5796 0
194 -5796 0
-991 -194 5796 0
599 -5797 0
-38 -5797 0
-599 38 5797 0
816 -5798 0
-664 -5798 0
-816 664 5798 0
598 -5799 0
206 -5799 0
-598 -206 5799 0
-115 -5800 0
730 -5800 0
115 -730 5800 0
-904 -5801 0
411 -5801 0
904 -411 5801 0
120 -5802 0
870 -5802 0
-120 -870 5802 0
541 -5803 0
-742 -5803 0
-541 742 5803 0
595 -5804 0
401 -5804 0
-595 -401 5804 0
311 -5805 0
-826 -5805 0
-311 826 5805 0
-469 -5806 0
434 -5806 0
469 -434 5806 0
512 -5807 0
-543 -5807 0
-512 543 5807 0
516 -5808 0
315 -5808 0
-516 -315 5808 0
293 -5809 0
724 -5809 0
-293 -724 5809 0
468 -5810 0
761 -5810 0
-468 -761 5810 0
680 -5811 0
849 -5811 0
-680 -849 5811 0
642 -5812 0
-166 -5812 0
-642 166 5812 0
630 -5813 0
138 -5813 0
-630 -138 5813 0
997 -5814 0
-62 -5814 0
-997 62 5814 0
320 -5815 0
841 -5815 0
-320 -841 5815 0
552 -5816 0
86 -5816 0
-552 -86 5816 0
-528 -5817 0
531 -5817 0
528 -531 5817 0
-166 -5818 0
377 -5818 0
166 -377 5818 0
467 -5819 0
705 -5819 0
-467 -705 5819 0
582 -5820 0
709 -5820 0
-582 -709 5820 0
800 -5821 0
-192 -5821 0
-800 192 5821 0
982 -5822 0
332 -5822 0
-982 -332 5822 0
63 -5823 0
-863 -5823 0
-63 863 5823 0
-496 -5824 0
434 -5824 0
496 -434 5824 0
342 -5825 0
436 -5825 0
-342 -436 5825 0
-520 -5826 0
314 -5826 0
520 -314 5826 0
268 -5827 0
899 -5827 0
-268 -899 5827 0
-201 -5828 0
843 -5828 0
201 -843 5828 0
-201 -5829 0
765 -5829 0
201 -765 5829 0
21 -5830 0
533 -5830 0
-21 -533 5830 0
-813 -5831 0
594 -5831 0
813 -594 5831 0
-66 -5832 0
156 -5832 0
66 -156 5832 0
286 -5833 0
522 -5833 0
-286 -522 5833 0
271 -5834 0
655 -5834 0
-271 -655 5834 0
-502 -5835 0
665 -5835 0
502 -665 5835 0
150 -5836 0
605 -5836 0
-150 -605 5836 0
-459 -5837 0
314 -5837 0
459 -314 5837 0
636 -5838 0
932 -5838 0
-636 -932 5838 0
-257 -5839 0
558 -5839 0
257 -558 5839 0
315 -5840 0
-63 -5840 0
-315 63 5840 0
956 -5841 0
-12 -5841 0
-956 12 5841 0
-784 -5842 0
554 -5842 0
784 -554 5842 0
871 -5843 0
196 -5843 0
-871 -196 5843 0
-627 -5844 0
389 -5844 0
627 -389 5844 0
-415 -5845 0
617 -5845 0
415 -617 5845 0
207 -5846 0
-331 -5846 0
-207 331 5846 0
467 -5847 0
178 -5847 0
-467 -178 5847 0
-370 -5848 0
513 -5848 0
370 -513 5848 0
-962 -5849 0
958 -5849 0
962 -958 5849 0
126 -5850 0
-882 -5850 0
-126 882 5850 0
164 -5851 0
993 -5851 0
-164 -993 5851 0
-978 -5852 0
702 -5852 0
978 -702 5852 0
949 -5853 0
-919 -5853 0
-949 919 5853 0
-594 -5854 0
945 -5854 0
594 -945 5854 0
342 -5855 0
371 -5855 0
-342 -371 5855 0
-648 -5856 0
266 -5856 0
648 -266 5856 0
800 -5857 0
-120 -5857 0
-800 120 5857 0
383 -5858 0
-571 -5858 0
-383 571 5858 0
-197 -5859 0
738 -5859 0
197 -738 5859 0
72 -5860 0
835 -5860 0
-72 -835 5860 0
-384 -5861 0
771 -5861 0
384 -771 5861 0
901 -5862 0
378 -5862 0
-901 -378 5862 0
834 -5863 0
49 -5863 0
-834 -49 5863 0
157 -5864 0
681 -5864 0
-157 -681 5864 0
271 -5865 0
257 -5865 0
-271 -257 5865 0
-497 -5866 0
82 -5866 0
497 -82 5866 0
126 -5867 0
59 -5867 0
-126 -59 5867 0
248 -5868 0
-293 -5868 0
-248 293 5868 0
-168 -5869 0
516 -5869 0
168 -516 5869 0
372 -5870 0
684 -5870 0
-372 -684 5870 0
-616 -5871 0
879 -5871 0
616 -879 5871 0
-520 -5872 0
77 -5872 0
520 -77 5872 0
70 -5873 0
541 -5873 0
-70 -541 5873 0
533 -5874 0
-748 -5874 0
-533 748 5874 0
158 -5875 0
532 -5875 0
-158 -532 5875 0
455 -5876 0
-511 -5876 0
-455 511 5876 0
686 -5877 0
926 -5877 0
-686 -926 5877 0
904 -5878 0
35 -5878 0
-904 -35 5878 0
-647 -5879 0
529 -5879 0
647 -529 5879 0
111 -5880 0
-71 -5880 0
-111 71 5880 0
871 -5881 0
-866 -5881 0
-871 866 5881 0
-554 -5882 0
65 -5882 0
554 -65 5882 0
942 -5883 0
-511 -5883 0
-942 511 5883 0
251 -5884 0
409 -5884 0
-251 -409 5884 0
-676 -5885 0
667 -5885 0
676 -667 5885 0
-405 -5886 0
89 -5886 0
405 -89 5886 0
376 -5887 0
-550 -5887 0
-376 550 5887 0
901 -5888 0
916 -5888 0
-901 -916 5888 0
688 -5889 0
-98 -5889 0
-688 98 5889 0
-629 -5890 0
562 -5890 0
629 -562 5890 0
551 -5891 0
149 -5891 0
-551 -149 5891 0
620 -5892 0
-6 -5892 0
-620 6 5892 0
872 -5893 0
-294 -5893 0
-872 294 5893 0
972 -5894 0
-548 -5894 0
-972 548 5894 0
192 -5895 0
-94 -5895 0
-192 94 5895 0
213 -5896 0
-783 -5896 0
-213 783 5896 0
-577 -5897 0
358 -5897 0
577 -358 5897 0
192 -5898 0
-410 -5898 0
-192 410 5898 0
854 -5899 0
41 -5899 0
-854 -41 5899 0
877 -5900 0
-508 -5900 0
-877 508 5900 0
216 -5901 0
562 -5901 0
-216 -562 5901 0
80 -5902 0
-201 -5902 0
-80 201 5902 0
-280 -5903 0
979 -5903 0
280 -979 5903 0
669 -5904 0
-431 -5904 0
-669 431 5904 0
539 -5905 0
-775 -5905 0
-539 775 5905 0
-795 -5906 0
332 -5906 0
795 -332 5906 0
7 -5907 0
-291 -5907 0
-7 291 5907 0
678 -5908 0
-999 -5908 0
-678 999 5908 0
150 -5909 0
650 -5909 0
-150 -650 5909 0
333 -5910 0
97 -5910 0
-333 -97 5910 0
127 -5911 0
-669 -5911 0
-127 669 5911 0
713 -5912 0
-295 -5912 0
-713 295 5912 0
-728 -5913 0
76 -5913 0
728 -76 5913 0
391 -5914 0
998 -5914 0
-391 -998 5914 0
108 -5915 0
361 -5915 0
-108 -361 5915 0
631 -5916 0
-687 -5916 0
-631 687 5916 0
-899 -5917 0
882 -5917 0
899 -882 5917 0
935 -5918 0
-82 -5918 0
-935 82 5918 0
574 -5919 0
402 -5919 0
-574 -402 5919 0
-648 -5920 0
132 -5920 0
648 -132 5920 0
-827 -5921 0
849 -5921 0
827 -849 5921 0
-546 -5922 0
849 -5922 0
546 -849 5922 0
-836 -5923 0
402 -5923 0
836 -402 5923 0
839 -5924 0
-260 -5924 0
-839 260 5924 0
-1000 -5925 0
417 -5925 0
1000 -417 5925 0
876 -5926 0
908 -5926 0
-876 -908 5926 0
-435 -5927 0
777 -5927 0
435 -777 5927 0
-208 -5928 0
387 -5928 0
208 -387 5928 0
708 -5929 0
419 -5929 0
-708 -419 5929 0
-968 -5930 0
140 -5930 0
968 -140 5930 0
976 -5931 0
660 -5931 0
-976 -660 5931 0
115 -5932 0
-351 -5932 0
-115 351 5932 0
771 -5933 0
170 -5933 0
-771 -170 5933 0
485 -5934 0
-172 -5934 0
-485 172 5934 0
366 -5935 0
747 -5935 0
-366 -747 5935 0
-328 -5936 0
142 -5936 0
328 -142 5936 0
-922 -5937 0
917 -5937 0
922 -917 5937 0
548 -5938 0
-564 -5938 0
-548 564 5938 0
336 -5939 0
976 -5939 0
-336 -976 5939 0
745 -5940 0
713 -5940 0
-745 -713 5940 0
160 -5941 0
-146 -5941 0
-160 146 5941 0
-753 -5942 0
874 -5942 0
753 -874 5942 0
469 -5943 0
-724 -5943 0
-469 724 5943 0
292 -5944 0
4 -5944 0
-292 -4 5944 0
-989 -5945 0
137 -5945 0
989 -137 5945 0
-88 -5946 0
180 -5946 0
88 -180 5946 0
-160 -5947 0
693 -5947 0
160 -693 5947 0
763 -5948 0
-606 -5948 0
-763 606 5948 0
244 -5949 0
-511 -5949 0
-244 511 5949 0
773 -5950 0
116 -5950 0
-773 -116 5950 0
621 -5951 0
-684 -5951 0
-621 684 5951 0
-937 -5952 0
803 -5952 0
937 -803 5952 0
838 -5953 0
-711 -5953 0
-838 711 5953 0
228 -5954 0
-238 -5954 0
-228 238 5954 0
784 -5955 0
-655 -5955 0
-784 655 5955 0
606 -5956 0
17 -5956 0
-606 -17 5956 0
-507 -5957 0
627 -5957 0
507 -627 5957 0
389 -5958 0
147 -5958 0
-389 -147 5958 0
895 -5959 0
-655 -5959 0
-895 655 5959 0
604 -5960 0
491 -5960 0
-604 -491 5960 0
792 -5961 0
435 -5961 0
-792 -435 5961 0
-676 -5962 0
873 -5962 0
676 -873 5962 0
943 -5963 0
210 -5963 0
-943 -210 5963 0
-900 -5964 0
828 -5964 0
900 -828 5964 0
-728 -5965 0
541 -5965 0
728 -541 5965 0
114 -5966 0
33 -5966 0
-114 -33 5966 0
-312 -5967 0
662 -5967 0
312 -662 5967 0
533 -5968 0
939 -5968 0
-533 -939 5968 0
-877 -5969 0
897 -5969 0
877 -897 5969 0
880 -5970 0
-412 -5970 0
-880 412 5970 0
762 -5971 0
401 -5971 0
-762 -401 5971 0
-475 -5972 0
739 -5972 0
475 -739 5972 0
328 -5973 0
-317 -5973 0
-328 317 5973 0
702 -5974 0
114 -5974 0
-702 -114 5974 0
34 -5975 0
-367 -5975 0
-34 367 5975 0
567 -5976 0
-620 -5976 0
-567 620 5976 0
295 -5977 0
-655 -5977 0
-295 655 5977 0
328 -5978 0
-483 -5978 0
-328 483 5978 0
772 -5979 0
-135 -5979 0
-772 135 5979 0
544 -5980 0
-576 -5980 0
-544 576 5980 0
-184 -5981 0
122 -5981 0
184 -122 5981 0
-232 -5982 0
603 -5982 0
232 -603 5982 0
722 -5983 0
610 -5983 0
-722 -610 5983 0
520 -5984 0
41 -5984 0
-520 -41 5984 0
-185 -5985 0
278 -5985 0
185 -278 5985 0
-273 -5986 0
150 -5986 0
273 -150 5986 0
-226 -5987 0
185 -5987 0
226 -185 5987 0
558 -5988 0
587 -5988 0
-558 -587 5988 0
820 -5989 0
-926 -5989 0
-820 926 5989 0
752 -5990 0
816 -5990 0
-752 -816 5990 0
426 -5991 0
105 -5991 0
-426 -105 5991 0
493 -5992 0
389 -5992 0
-493 -389 5992 0
366 -5993 0
345 -5993 0
-366 -345 5993 0
703 -5994 0
-900 -5994 0
-703 900 5994 0
189 -5995 0
588 -5995 0
-189 -588 5995 0
-396 -5996 0
579 -5996 0
396 -579 5996 0
399 -5997 0
-354 -5997 0
-399 354 5997 0
589 -5998 0
-276 -5998 0
-589 276 5998 0
872 -5999 0
659 -5999 0
-872 -659 5999 0
-841 -6000 0
700 -6000 0
841 -700 6000 0
952 -6001 0
-708 -6001 0
-952 708 6001 0
684 -6002 0
433 -6002 0
-684 -433 6002 0
678 -6003 0
-182 -6003 0
-678 182 6003 0
895 -6004 0
-644 -6004 0
-895 644 6004 0
653 -6005 0
163 -6005 0
-653 -163 6005 0
872 -6006 0
739 -6006 0
-872 -739 6006 0
-554 -6007 0
835 -6007 0
554 -835 6007 0
376 -6008 0
-641 -6008 0
-376 641 6008 0
868 -6009 0
-52 -6009 0
-868 52 6009 0
235 -6010 0
-511 -6010 0
-235 511 6010 0
-721 -6011 0
638 -6011 0
721 -638 6011 0
332 -6012 0
387 -6012 0
-332 -387 6012 0
916 -6013 0
-375 -6013 0
-916 375 6013 0
-809 -6014 0
86 -6014 0
809 -86 6014 0
886 -6015 0
66 -6015 0
-886 -66 6015 0
706 -6016 0
226 -6016 0
-706 -226 6016 0
683 -6017 0
777 -6017 0
-683 -777 6017 0
-920 -6018 0
848 -6018 0
920 -848 6018 0
716 -6019 0
-807 -6019 0
-716 807 6019 0
488 -6020 0
682 -6020 0
-488 -682 6020 0
-946 -6021 0
121 -6021 0
946 -121 6021 0
488 -6022 0
772 -6022 0
-488 -772 6022 0
-307 -6023 0
691 -6023 0
307 -691 6023 0
639 -6024 0
734 -6024 0
-639 -734 6024 0
-986 -6025 0
899 -6025 0
986 -899 6025 0
288 -6026 0
-869 -6026 0
-288 869 6026 0
668 -6027 0
-783 -6027 0
-668 783 6027 0
248 -6028 0
859 -6028 0
-248 -859 6028 0
-688 -6029 0
545 -6029 0
688 -545 6029 0
479 -6030 0
244 -6030 0
-479 -244 6030 0
-164 -6031 0
364 -6031 0
164 -364 6031 0
-355 -6032 0
145 -6032 0
355 -145 6032 0
-811 -6033 0
155 -6033 0
811 -155 6033 0
181 -6034 0
619 -6034 0
-181 -619 6034 0
-952 -6035 0
447 -6035 0
952 -447 6035 0
-424 -6036 0
239 -6036 0
424 -239 6036 0
415 -6037 0
625 -6037 0
-415 -625 6037 0
-793 -6038 0
734 -6038 0
793 -734 6038 0
222 -6039 0
428 -6039 0
-222 -428 6039 0
470 -6040 0
763 -6040 0
-470 -763 6040 0
863 -6041 0
873 -6041 0
-863 -873 6041 0
246 -6042 0
338 -6042 0
-246 -338 6042 0
803 -6043 0
-735 -6043 0
-803 735 6043 0
169 -6044 0
289 -6044 0
-169 -289 6044 0
-811 -6045 0
681 -6045 0
811 -681 6045 0
95 -6046 0
-708 -6046 0
-95 708 6046 0
800 -6047 0
-913 -6047 0
-800 913 6047 0
708 -6048 0
-101 -6048 0
-708 101 6048 0
717 -6049 0
-847 -6049 0
-717 847 6049 0
518 -6050 0
117 -6050 0
-518 -117 6050 0
758 -6051 0
196 -6051 0
-758 -196 6051 0
583 -6052 0
-626 -6052 0
-583 626 6052 0
140 -6053 0
-702 -6053 0
-140 702 6053 0
477 -6054 0
530 -6054 0
-477 -530 6054 0
-737 -6055 0
129 -6055 0
737 -129 6055 0
294 -6056 0
645 -6056 0
-294 -645 6056 0
676 -6057 0
579 -6057 0
-676 -579 6057 0
919 -6058 0
393 -6058 0
-919 -393 6058 0
-377 -6059 0
817 -6059 0
377 -817 6059 0
-706 -6060 0
955 -6060 0
706 -955 6060 0
-778 -6061 0
673 -6061 0
778 -673 6061 0
936 -6062 0
-552 -6062 0
-936 552 6062 0
669 -6063 0
-356 -6063 0
-669 356 6063 0
727 -6064 0
-170 -6064 0
-727 170 6064 0
183 -6065 0
-757 -6065 0
-183 757 6065 0
-617 -6066 0
921 -6066 0
617 -921 6066 0
624 -6067 0
-43 -6067 0
-624 43 6067 0
686 -6068 0
-198 -6068 0
-686 198 6068 0
-605 -6069 0
627 -6069 0
605 -627 6069 0
-442 -6070 0
233 -6070 0
442 -233 6070 0
-421 -6071 0
50 -6071 0
421 -50 6071 0
-40 -6072 0
585 -6072 0
40 -585 6072 0
951 -6073 0
180 -6073 0
-951 -180 6073 0
-204 -6074 0
692 -6074 0
204 -692 6074 0
815 -6075 0
726 -6075 0
-815 -726 6075 0
395 -6076 0
-479 -6076 0
-395 479 6076 0
-945 -6077 0
426 -6077 0
945 -426 6077 0
908 -6078 0
772 -6078 0
-908 -772 6078 0
-325 -6079 0
81 -6079 0
325 -81 6079 0
373 -6080 0
-655 -6080 0
-373 655 6080 0
325 -6081 0
625 -6081 0
-325 -625 6081 0
632 -6082 0
-976 -6082 0
-632 976 6082 0
710 -6083 0
323 -6083 0
-710 -323 6083 0
-935 -6084 0
305 -6084 0
935 -305 6084 0
848 -6085 0
-557 -6085 0
-848 557 6085 0
-349 -6086 0
105 -6086 0
349 -105 6086 0
238 -6087 0
-354 -6087 0
-238 354 6087 0
588 -6088 0
913 -6088 0
-588 -913 6088 0
415 -6089 0
-195 -6089 0
-415 195 6089 0
86 -6090 0
-211 -6090 0
-86 211 6090 0
399 -6091 0
-742 -6091 0
-399 742 6091 0
367 -6092 0
-884 -6092 0
-367 884 6092 0
829 -6093 0
265 -6093 0
-829 -265 6093 0
-418 -6094 0
674 -6094 0
418 -674 6094 0
494 -6095 0
-964 -6095 0
-494 964 6095 0
950 -6096 0
557 -6096 0
-950 -557 6096 0
-649 -6097 0
994 -6097 0
649 -994 6097 0
843 -6098 0
-111 -6098 0
-843 111 6098 0
-171 -6099 0
508 -6099 0
171 -508 6099 0
238 -6100 0
-159 -6100 0
-238 159 6100 0
79 -6101 0
-111 -6101 0
-79 111 6101 0
-600 -6102 0
270 -6102 0
600 -270 6102 0
527 -6103 0
-353 -6103 0
-527 353 6103 0
679 -6104 0
538 -6104 0
-679 -538 6104 0
933 -6105 0
-861 -6105 0
-933 861 6105 0
63 -6106 0
612 -6106 0
-63 -612 6106 0
907 -6107 0
-765 -6107 0
-907 765 6107 0
358 -6108 0
380 -6108 0
-358 -380 6108 0
748 -6109 0
-773 -6109 0
-748 773 6109 0
38 -6110 0
338 -6110 0
-38 -338 6110 0
-857 -6111 0
796 -6111 0
857 -796 6111 0
632 -6112 0
510 -6112 0
-632 -510 6112 0
-944 -6113 0
333 -6113 0
944 -333 6113 0
243 -6114 0
122 -6114 0
-243 -122 6114 0
648 -6115 0
279 -6115 0
-648 -279 6115 0
-803 -6116 0
35 -6116 0
803 -35 6116 0
261 -6117 0
-807 -6117 0
-261 807 6117 0
376 -6118 0
149 -6118 0
-376 -149 6118 0
270 -6119 0
865 -6119 0
-270 -865 6119 0
-489 -6120 0
71 -6120 0
489 -71 6120 0
413 -6121 0
91 -6121 0
-413 -91 6121 0
-608 -6122 0
44 -6122 0
608 -44 6122 0
901 -6123 0
-924 -6123 0
-901 924 6123 0
336 -6124 0
-481 -6124 0
-336 481 6124 0
32 -6125 0
726 -6125 0
-32 -726 6125 0
464 -6126 0
-512 -6126 0
-464 512 6126 0
126 -6127 0
907 -6127 0
-126 -907 6127 0
-739 -6128 0
195 -6128 0
739 -195 6128 0
-38 -6129 0
602 -6129 0
38 -602 6129 0
128 -6130 0
-247 -6130 0
-128 247 6130 0
-266 -6131 0
20 -6131 0
266 -20 6131 0
-369 -6132 0
113 -6132 0
369 -113 6132 0
638 -6133 0
282 -6133 0
-638 -282 6133 0
279 -6134 0
-44 -6134 0
-279 44 6134 0
622 -6135 0
122 -6135 0
-622 -122 6135 0
431 -6136 0
51 -6136 0
-431 -51 6136 0
-379 -6137 0
10 -6137 0
379 -10 6137 0
-160 -6138 0
667 -6138 0
160 -667 6138 0
440 -6139 0
262 -6139 0
-440 -262 6139 0
-537 -6140 0
573 -6140 0
537 -573 6140 0
-261 -6141 0
665 -6141 0
261 -665 6141 0
573 -6142 0
-359 -6142 0
-573 359 6142 0
117 -6143 0
-742 -6143 0
-117 742 6143 0
-936 -6144 0
150 -6144 0
936 -150 6144 0
157 -6145 0
-174 -6145 0
-157 174 6145 0
111 -6146 0
918 -6146 0
-111 -918 6146 0
957 -6147 0
485 -6147 0
-957 -485 6147 0
-420 -6148 0
250 -6148 0
420 -250 6148 0
869 -6149 0
11 -6149 0
-869 -11 6149 0
519 -6150 0
49 -6150 0
-519 -49 6150 0
784 -6151 0
-649 -6151 0
-784 649 6151 0
-251 -6152 0
473 -6152 0
251 -473 6152 0
66 -6153 0
961 -6153 0
-66 -961 6153 0
854 -6154 0
-693 -6154 0
-854 693 6154 0
828 -6155 0
-173 -6155 0
-828 173 6155 0
734 -6156 0
556 -6156 0
-734 -556 6156 0
789 -6157 0
-895 -6157 0
-789 895 6157 0
821 -6158 0
-119 -6158 0
-821 119 6158 0
710 -6159 0
242 -6159 0
-710 -242 6159 0
64 -6160 0
-540 -6160 0
-64 540 6160 0
-525 -6161 0
697 -6161 0
525 -697 6161 0
932 -6162 0
-405 -6162 0
-932 405 6162 0
216 -6163 0
532 -6163 0
-216 -532 6163 0
40 -6164 0
211 -6164 0
-40 -211 6164 0
615 -6165 0
166 -6165 0
-615 -166 6165 0
-148 -6166 0
10 -6166 0
148 -10 6166 0
964 -6167 0
-742 -6167 0
-964 742 6167 0
565 -6168 0
-443 -6168 0
-565 443 6168 0
575 -6169 0
-948 -6169 0
-575 948 6169 0
362 -6170 0
-471 -6170 0
-362 471 6170 0
267 -6171 0
-197 -6171 0
-267 197 6171 0
-603 -6172 0
499 -6172 0
603 -499 6172 0
454 -6173 0
-723 -6173 0
-454 723 6173 0
168 -6174 0
-996 -6174 0
-168 996 6174 0
765 -6175 0
-908 -6175 0
-765 908 6175 0
264 -6176 0
-992 -6176 0
-264 992 6176 0
704 -6177 0
166 -6177 0
-704 -166 6177 0
748 -6178 0
387 -6178 0
-748 -387 6178 0
534 -6179 0
-51 -6179 0
-534 51 6179 0
72 -6180 0
951 -6180 0
-72 -951 6180 0
912 -6181 0
239 -6181 0
-912 -239 6181 0
956 -6182 0
97 -6182 0
-956 -97 6182 0
645 -6183 0
-173 -6183 0
-645 173 6183 0
-448 -6184 0
801 -6184 0
448 -801 6184 0
-224 -6185 0
749 -6185 0
224 -749 6185 0
-634 -6186 0
534 -6186 0
634 -534 6186 0
110 -6187 0
13 -6187 0
-110 -13 6187 0
748 -6188 0
387 -6188 0
-748 -387 6188 0
272 -6189 0
-448 -6189 0
-272 448 6189 0
-145 -6190 0
339 -6190 0
145 -339 6190 0
-58 -6191 0
774 -6191 0
58 -774 6191 0
-985 -6192 0
366 -6192 0
985 -366 6192 0
114 -6193 0
-207 -6193 0
-114 207 6193 0
464 -6194 0
-827 -6194 0
-464 827 6194 0
998 -6195 0
812 -6195 0
-998 -812 6195 0
8 -6196 0
-493 -6196 0
-8 493 6196 0
-152 -6197 0
751 -6197 0
152 -751 6197 0
-938 -6198 0
526 -6198 0
938 -526 6198 0
-170 -6199 0
284 -6199 0
170 -284 6199 0
440 -6200 0
-949 -6200 0
-440 949 6200 0
131 -6201 0
475 -6201 0
-131 -475 6201 0
477 -6202 0
-755 -6202 0
-477 755 6202 0
764 -6203 0
907 -6203 0
-764 -907 6203 0
550 -6204 0
785 -6204 0
-550 -785 6204 0
744 -6205 0
-628 -6205 0
-744 628 6205 0
-897 -6206 0
905 -6206 0
897 -905 6206 0
298 -6207 0
-215 -6207 0
-298 215 6207 0
15 -6208 0
-197 -6208 0
-15 197 6208 0
112 -6209 0
-136 -6209 0
-112 136 6209 0
-57 -6210 0
401 -6210 0
57 -401 6210 0
-608 -6211 0
375 -6211 0
608 -375 6211 0
790 -6212 0
-738 -6212 0
-790 738 6212 0
120 -6213 0
157 -6213 0
-120 -157 6213 0
718 -6214 0
532 -6214 0
-718 -532 6214 0
930 -6215 0
-7 -6215 0
-930 7 6215 0
357 -6216 0
780 -6216 0
-357 -780 6216 0
232 -6217 0
422 -6217 0
-232 -422 6217 0
-137 -6218 0
989 -6218 0
137 -989 6218 0
-754 -6219 0
988 -6219 0
754 -988 6219 0
-146 -6220 0
833 -6220 0
146 -833 6220 0
670 -6221 0
701 -6221 0
-670 -701 6221 0
530 -6222 0
-687 -6222 0
-530 687 6222 0
-514 -6223 0
99 -6223 0
514 -99 6223 0
624 -6224 0
615 -6224 0
-624 -615 6224 0
-512 -6225 0
21 -6225 0
512 -21 6225 0
-321 -6226 0
139 -6226 0
321 -139 6226 0
-488 -6227 0
586 -6227 0
488 -586 6227 0
130 -6228 0
440 -6229 0
-773 -6229 0
-440 773 6229 0
79 -6230 0
-420 -6230 0
-79 420 6230 0
192 -6231 0
-359 -6231 0
-192 359 6231 0
919 -6232 0
527 -6232 0
-919 -527 6232 0
639 -6233 0
-462 -6233 0
-639 462 6233 0
583 -6234 0
874 -6234 0
-583 -874 6234 0
-304 -6235 0
52 -6235 0
304 -52 6235 0
94 -6236 0
-109 -6236 0
-94 109 6236 0
724 -6237 0
-604 -6237 0
-724 604 6237 0
332 -6238 0
-676 -6238 0
-332 676 6238 0
599 -6239 0
677 -6239 0
-599 -677 6239 0
-386 -6240 0
717 -6240 0
386 -717 6240 0
868 -6241 0
539 -6241 0
-868 -539 6241 0
-408 -6242 0
6 -6242 0
408 -6 6242 0
-784 -6243 0
136 -6243 0
784 -136 6243 0
943 -6244 0
99 -6244 0
-943 -99 6244 0
750 -6245 0
82 -6245 0
-750 -82 6245 0
430 -6246 0
267 -6246 0
-430 -267 6246 0
695 -6247 0
-635 -6247 0
-695 635 6247 0
-482 -6248 0
253 -6248 0
482 -253 6248 0
93 -6249 0
-972 -6249 0
-93 972 6249 0
-411 -6250 0
650 -6250 0
411 -650 6250 0
635 -6251 0
-846 -6251 0
-635 846 6251 0
418 -6252 0
-974 -6252 0
-418 974 6252 0
-188 -6253 0
196 -6253 0
188 -196 6253 0
498 -6254 0
794 -6254 0
-498 -794 6254 0
-162 -6255 0
971 -6255 0
162 -971 6255 0
214 -6256 0
587 -6256 0
-214 -587 6256 0
862 -6257 0
745 -6257 0
-862 -745 6257 0
-446 -6258 0
617 -6258 0
446 -617 6258 0
-800 -6259 0
983 -6259 0
800 -983 6259 0
549 -6260 0
-54 -6260 0
-549 54 6260 0
983 -6261 0
634 -6261 0
-983 -634 6261 0
-41 -6262 0
107 -6262 0
41 -107 6262 0
-506 -6263 0
981 -6263 0
506 -981 6263 0
-384 -6264 0
258 -6264 0
384 -258 6264 0
700 -6265 0
772 -6265 0
-700 -772 6265 0
912 -6266 0
578 -6266 0
-912 -578 6266 0
-220 -6267 0
73 -6267 0
220 -73 6267 0
293 -6268 0
204 -6268 0
-293 -204 6268 0
-284 -6269 0
458 -6269 0
284 -458 6269 0
319 -6270 0
-397 -6270 0
-319 397 6270 0
365 -6271 0
131 -6271 0
-365 -131 6271 0
526 -6272 0
-495 -6272 0
-526 495 6272 0
717 -6273 0
-685 -6273 0
-717 685 6273 0
-692 -6274 0
241 -6274 0
692 -241 6274 0
597 -6275 0
-711 -6275 0
-597 711 6275 0
-320 -6276 0
7 -6276 0
320 -7 6276 0
261 -6277 0
-822 -6277 0
-261 822 6277 0
216 -6278 0
118 -6278 0
-216 -118 6278 0
254 -6279 0
845 -6279 0
-254 -845 6279 0
477 -6280 0
-147 -6280 0
-477 147 6280 0
-177 -6281 0
300 -6281 0
177 -300 6281 0
-149 -6282 0
449 -6282 0
149 -449 6282 0
-82 -6283 0
899 -6283 0
82 -899 6283 0
814 -6284 0
258 -6284 0
-814 -258 6284 0
292 -6285 0
267 -6285 0
-292 -267 6285 0
520 -6286 0
89 -6286 0
-520 -89 6286 0
704 -6287 0
56 -6287 0
-704 -56 6287 0
159 -6288 0
-164 -6288 0
-159 164 6288 0
-915 -6289 0
921 -6289 0
915 -921 6289 0
352 -6290 0
-563 -6290 0
-352 563 6290 0
159 -6291 0
-533 -6291 0
-159 533 6291 0
661 -6292 0
-77 -6292 0
-661 77 6292 0
622 -6293 0
-662 -6293 0
-622 662 6293 0
170 -6294 0
265 -6294 0
-170 -265 6294 0
400 -6295 0
540 -6295 0
-400 -540 6295 0
567 -6296 0
-780 -6296 0
-567 780 6296 0
670 -6297 0
122 -6297 0
-670 -122 6297 0
-924 -6298 0
90 -6298 0
924 -90 6298 0
192 -6299 0
-585 -6299 0
-192 585 6299 0
535 -6300 0
-189 -6300 0
-535 189 6300 0
-602 -6301 0
202 -6301 0
602 -202 6301 0
175 -6302 0
636 -6302 0
-175 -636 6302 0
759 -6303 0
511 -6303 0
-759 -511 6303 0
395 -6304 0
627 -6304 0
-395 -627 6304 0
743 -6305 0
327 -6305 0
-743 -327 6305 0
-264 -6306 0
589 -6306 0
264 -589 6306 0
936 -6307 0
-642 -6307 0
-936 642 6307 0
656 -6308 0
193 -6308 0
-656 -193 6308 0
936 -6309 0
-87 -6309 0
-936 87 6309 0
991 -6310 0
860 -6310 0
-991 -860 6310 0
595 -6311 0
-310 -6311 0
-595 310 6311 0
104 -6312 0
-207 -6312 0
-104 207 6312 0
301 -6313 0
-997 -6313 0
-301 997 6313 0
112 -6314 0
636 -6314 0
-112 -636 6314 0
960 -6315 0
428 -6315 0
-960 -428 6315 0
-13 -6316 0
434 -6316 0
13 -434 6316 0
730 -6317 0
-735 -6317 0
-730 735 6317 0
-152 -6318 0
893 -6318 0
152 -893 6318 0
263 -6319 0
-972 -6319 0
-263 972 6319 0
982 -6320 0
644 -6320 0
-982 -644 6320 0
586 -6321 0
-367 -6321 0
-586 367 6321 0
-731 -6322 0
475 -6322 0
731 -475 6322 0
850 -6323 0
642 -6323 0
-850 -642 6323 0
797 -6324 0
852 -6324 0
-797 -852 6324 0
984 -6325 0
180 -6325 0
-984 -180 6325 0
847 -6326 0
-173 -6326 0
-847 173 6326 0
80 -6327 0
-961 -6327 0
-80 961 6327 0
951 -6328 0
309 -6328 0
-951 -309 6328 0
-396 -6329 0
393 -6329 0
396 -393 6329 0
239 -6330 0
-343 -6330 0
-239 343 6330 0
534 -6331 0
-717 -6331 0
-534 717 6331 0
-552 -6332 0
890 -6332 0
552 -890 6332 0
471 -6333 0
74 -6333 0
-471 -74 6333 0
-296 -6334 0
164 -6334 0
296 -164 6334 0
-381 -6335 0
665 -6335 0
381 -665 6335 0
589 -6336 0
-591 -6336 0
-589 591 6336 0
55 -6337 0
217 -6337 0
-55 -217 6337 0
854 -6338 0
-107 -6338 0
-854 107 6338 0
415 -6339 0
-907 -6339 0
-415 907 6339 0
528 -6340 0
-308 -6340 0
-528 308 6340 0
-61 -6341 0
922 -6341 0
61 -922 6341 0
974 -6342 0
961 -6342 0
-974 -961 6342 0
476 -6343 0
-703 -6343 0
-476 703 6343 0
709 -6344 0
-156 -6344 0
-709 156 6344 0
-685 -6345 0
513 -6345 0
685 -513 6345 0
415 -6346 0
300 -6346 0
-415 -300 6346 0
-69 -6347 0
274 -6347 0
69 -274 6347 0
-978 -6348 0
876 -6348 0
978 -876 6348 0
839 -6349 0
-837 -6349 0
-839 837 6349 0
536 -6350 0
772 -6350 0
-536 -772 6350 0
454 -6351 0
11 -6351 0
-454 -11 6351 0
-744 -6352 0
527 -6352 0
744 -527 6352 0
784 -6353 0
-668 -6353 0
-784 668 6353 0
368 -6354 0
381 -6354 0
-368 -381 6354 0
-772 -6355 0
994 -6355 0
772 -994 6355 0
308 -6356 0
684 -6356 0
-308 -684 6356 0
673 -6357 0
313 -6357 0
-673 -313 6357 0
-806 -6358 0
273 -6358 0
806 -273 6358 0
648 -6359 0
874 -6359 0
-648 -874 6359 0
624 -6360 0
-653 -6360 0
-624 653 6360 0
40 -6361 0
411 -6361 0
-40 -411 6361 0
-355 -6362 0
587 -6362 0
355 -587 6362 0
166 -6363 0
-923 -6363 0
-166 923 6363 0
-347 -6364 0
722 -6364 0
347 -722 6364 0
64 -6365 0
-853 -6365 0
-64 853 6365 0
944 -6366 0
-905 -6366 0
-944 905 6366 0
883 -6367 0
178 -6367 0
-883 -178 6367 0
839 -6368 0
-895 -6368 0
-839 895 6368 0
808 -6369 0
-943 -6369 0
-808 943 6369 0
68 -6370 0
676 -6370 0
-68 -676 6370 0
992 -6371 0
34 -6371 0
-992 -34 6371 0
-768 -6372 0
688 -6372 0
768 -688 6372 0
-785 -6373 0
737 -6373 0
785 -737 6373 0
807 -6374 0
586 -6374 0
-807 -586 6374 0
-738 -6375 0
666 -6375 0
738 -666 6375 0
196 -6376 0
386 -6376 0
-196 -386 6376 0
531 -6377 0
-143 -6377 0
-531 143 6377 0
-388 -6378 0
569 -6378 0
388 -569 6378 0
872 -6379 0
-43 -6379 0
-872 43 6379 0
760 -6380 0
387 -6380 0
-760 -387 6380 0
949 -6381 0
442 -6381 0
-949 -442 6381 0
-378 -6382 0
505 -6382 0
378 -505 6382 0
696 -6383 0
-243 -6383 0
-696 243 6383 0
551 -6384 0
-42 -6384 0
-551 42 6384 0
766 -6385 0
-268 -6385 0
-766 268 6385 0
-11 -6386 0
697 -6386 0
11 -697 6386 0
-406 -6387 0
794 -6387 0
406 -794 6387 0
-633 -6388 0
162 -6388 0
633 -162 6388 0
-242 -6389 0
954 -6389 0
242 -954 6389 0
873 -6390 0
361 -6390 0
-873 -361 6390 0
180 -6391 0
676 -6391 0
-180 -676 6391 0
-10 -6392 0
52 -6392 0
10 -52 6392 0
399 -6393 0
-154 -6393 0
-399 154 6393 0
374 -6394 0
290 -6394 0
-374 -290 6394 0
463 -6395 0
-955 -6395 0
-463 955 6395 0
124 -6396 0
154 -6396 0
-124 -154 6396 0
157 -6397 0
537 -6397 0
-157 -537 6397 0
600 -6398 0
-473 -6398 0
-600 473 6398 0
760 -6399 0
625 -6399 0
-760 -625 6399 0
-368 -6400 0
38 -6400 0
368 -38 6400 0
527 -6401 0
-671 -6401 0
-527 671 6401 0
760 -6402 0
-879 -6402 0
-760 879 6402 0
102 -6403 0
75 -6403 0
-102 -75 6403 0
-299 -6404 0
333 -6404 0
299 -333 6404 0
-657 -6405 0
475 -6405 0
657 -475 6405 0
-219 -6406 0
531 -6406 0
219 -531 6406 0
423 -6407 0
491 -6407 0
-423 -491 6407 0
-136 -6408 0
318 -6408 0
136 -318 6408 0
776 -6409 0
141 -6409 0
-776 -141 6409 0
272 -6410 0
-491 -6410 0
-272 491 6410 0
-84 -6411 0
233 -6411 0
84 -233 6411 0
260 -6412 0
971 -6412 0
-260 -971 6412 0
-584 -6413 0
432 -6413 0
584 -432 6413 0
-400 -6414 0
297 -6414 0
400 -297 6414 0
387 -6415 0
-118 -6415 0
-387 118 6415 0
135 -6416 0
-540 -6416 0
-135 540 6416 0
-137 -6417 0
413 -6417 0
137 -413 6417 0
506 -6418 0
-223 -6418 0
-506 223 6418 0
688 -6419 0
947 -6419 0
-688 -947 6419 0
-97 -6420 0
349 -6420 0
97 -349 6420 0
283 -6421 0
642 -6421 0
-283 -642 6421 0
-109 -6422 0
961 -6422 0
109 -961 6422 0
-169 -6423 0
292 -6423 0
169 -292 6423 0
-348 -6424 0
772 -6424 0
348 -772 6424 0
-394 -6425 0
611 -6425 0
394 -611 6425 0
-928 -6426 0
983 -6426 0
928 -983 6426 0
454 -6427 0
745 -6427 0
-454 -745 6427 0
-393 -6428 0
969 -6428 0
393 -969 6428 0
647 -6429 0
-469 -6429 0
-647 469 6429 0
-713 -6430 0
258 -6430 0
713 -258 6430 0
-473 -6431 0
185 -6431 0
473 -185 6431 0
512 -6432 0
163 -6432 0
-512 -163 6432 0
-610 -6433 0
115 -6433 0
610 -115 6433 0
136 -6434 0
-606 -6434 0
-136 606 6434 0
-513 -6435 0
347 -6435 0
513 -347 6435 0
963 -6436 0
-373 -6436 0
-963 373 6436 0
496 -6437 0
-315 -6437 0
-496 315 6437 0
-386 -6438 0
531 -6438 0
386 -531 6438 0
198 -6439 0
-371 -6439 0
-198 371 6439 0
261 -6440 0
-303 -6440 0
-261 303 6440 0
235 -6441 0
715 -6441 0
-235 -715 6441 0
897 -6442 0
281 -6442 0
-897 -281 6442 0
-283 -6443 0
763 -6443 0
283 -763 6443 0
-634 -6444 0
549 -6444 0
634 -549 6444 0
-19 -6445 0
292 -6445 0
19 -292 6445 0
595 -6446 0
817 -6446 0
-595 -817 6446 0
-23 -6447 0
977 -6447 0
23 -977 6447 0
-44 -6448 0
747 -6448 0
44 -747 6448 0
-441 -6449 0
290 -6449 0
441 -290 6449 0
23 -6450 0
86 -6450 0
-23 -86 6450 0
352 -6451 0
-244 -6451 0
-352 244 6451 0
-271 -6452 0
913 -6452 0
271 -913 6452 0
414 -6453 0
-715 -6453 0
-414 715 6453 0
-738 -6454 0
996 -6454 0
738 -996 6454 0
491 -6455 0
121 -6455 0
-491 -121 6455 0
-283 -6456 0
131 -6456 0
283 -131 6456 0
533 -6457 0
601 -6457 0
-533 -601 6457 0
-426 -6458 0
258 -6458 0
426 -258 6458 0
479 -6459 0
477 -6459 0
-479 -477 6459 0
-596 -6460 0
234 -6460 0
596 -234 6460 0
-739 -6461 0
659 -6461 0
739 -659 6461 0
444 -6462 0
-5 -6462 0
-444 5 6462 0
608 -6463 0
486 -6463 0
-608 -486 6463 0
898 -6464 0
-799 -6464 0
-898 799 6464 0
-58 -6465 0
985 -6465 0
58 -985 6465 0
48 -6466 0
-644 -6466 0
-48 644 6466 0
588 -6467 0
82 -6467 0
-588 -82 6467 0
-113 -6468 0
938 -6468 0
113 -938 6468 0
240 -6469 0
-653 -6469 0
-240 653 6469 0
360 -6470 0
-51 -6470 0
-360 51 6470 0
735 -6471 0
-791 -6471 0
-735 791 6471 0
78 -6472 0
889 -6472 0
-78 -889 6472 0
131 -6473 0
-318 -6473 0
-131 318 6473 0
821 -6474 0
163 -6474 0
-821 -163 6474 0
-612 -6475 0
810 -6475 0
612 -810 6475 0
-99 -6476 0
371 -6476 0
99 -371 6476 0
535 -6477 0
449 -6477 0
-535 -449 6477 0
18 -6478 0
-311 -6478 0
-18 311 6478 0
-483 -6479 0
330 -6479 0
483 -330 6479 0
199 -6480 0
-306 -6480 0
-199 306 6480 0
144 -6481 0
-929 -6481 0
-144 929 6481 0
668 -6482 0
699 -6482 0
-668 -699 6482 0
-600 -6483 0
765 -6483 0
600 -765 6483 0
808 -6484 0
-111 -6484 0
-808 111 6484 0
126 -6485 0
-255 -6485 0
-126 255 6485 0
35 -6486 0
338 -6486 0
-35 -338 6486 0
-648 -6487 0
559 -6487 0
648 -559 6487 0
311 -6488 0
474 -6488 0
-311 -474 6488 0
286 -6489 0
602 -6489 0
-286 -602 6489 0
222 -6490 0
490 -6490 0
-222 -490 6490 0
396 -6491 0
-719 -6491 0
-396 719 6491 0
148 -6492 0
-572 -6492 0
-148 572 6492 0
8 -6493 0
-705 -6493 0
-8 705 6493 0
-353 -6494 0
607 -6494 0
353 -607 6494 0
734 -6495 0
169 -6495 0
-734 -169 6495 0
120 -6496 0
-958 -6496 0
-120 958 6496 0
645 -6497 0
540 -6497 0
-645 -540 6497 0
-552 -6498 0
950 -6498 0
552 -950 6498 0
808 -6499 0
883 -6499 0
-808 -883 6499 0
620 -6500 0
-135 -6500 0
-620 135 6500 0
630 -6501 0
-259 -6501 0
-630 259 6501 0
771 -6502 0
-879 -6502 0
-771 879 6502 0
42 -6503 0
713 -6503 0
-42 -713 6503 0
-176 -6504 0
794 -6504 0
176 -794 6504 0
-437 -6505 0
178 -6505 0
437 -178 6505 0
977 -6506 0
841 -6506 0
-977 -841 6506 0
-276 -6507 0
113 -6507 0
276 -113 6507 0
429 -6508 0
-343 -6508 0
-429 343 6508 0
540 -6509 0
530 -6509 0
-540 -530 6509 0
301 -6510 0
-31 -6510 0
-301 31 6510 0
-720 -6511 0
575 -6511 0
720 -575 6511 0
102 -6512 0
-78 -6512 0
-102 78 6512 0
376 -6513 0
615 -6513 0
-376 -615 6513 0
-938 -6514 0
609 -6514 0
938 -609 6514 0
984 -6515 0
587 -6515 0
-984 -587 6515 0
340 -6516 0
-669 -6516 0
-340 669 6516 0
-104 -6517 0
900 -6517 0
104 -900 6517 0
741 -6518 0
317 -6518 0
-741 -317 6518 0
-19 -6519 0
241 -6519 0
19 -241 6519 0
-122 -6520 0
469 -6520 0
122 -469 6520 0
-589 -6521 0
778 -6521 0
589 -778 6521 0
549 -6522 0
-863 -6522 0
-549 863 6522 0
786 -6523 0
865 -6523 0
-786 -865 6523 0
960 -6524 0
-85 -6524 0
-960 85 6524 0
125 -6525 0
-798 -6525 0
-125 798 6525 0
816 -6526 0
210 -6526 0
-816 -210 6526 0
320 -6527 0
-587 -6527 0
-320 587 6527 0
692 -6528 0
-359 -6528 0
-692 359 6528 0
938 -6529 0
562 -6529 0
-938 -562 6529 0
568 -6530 0
447 -6530 0
-568 -447 6530 0
655 -6531 0
-619 -6531 0
-655 619 6531 0
-854 -6532 0
241 -6532 0
854 -241 6532 0
957 -6533 0
409 -6533 0
-957 -409 6533 0
597 -6534 0
573 -6534 0
-597 -573 6534 0
301 -6535 0
-572 -6535 0
-301 572 6535 0
-283 -6536 0
905 -6536 0
283 -905 6536 0
-525 -6537 0
91 -6537 0
525 -91 6537 0
784 -6538 0
-316 -6538 0
-784 316 6538 0
568 -6539 0
-490 -6539 0
-568 490 6539 0
110 -6540 0
203 -6540 0
-110 -203 6540 0
644 -6541 0
-415 -6541 0
-644 415 6541 0
130 -6542 0
746 -6542 0
-130 -746 6542 0
703 -6543 0
-722 -6543 0
-703 722 6543 0
870 -6544 0
826 -6544 0
-870 -826 6544 0
-401 -6545 0
570 -6545 0
401 -570 6545 0
711 -6546 0
813 -6546 0
-711 -813 6546 0
640 -6547 0
410 -6547 0
-640 -410 6547 0
1000 -6548 0
-64 -6548 0
-1000 64 6548 0
-936 -6549 0
18 -6549 0
936 -18 6549 0
541 -6550 0
-317 -6550 0
-541 317 6550 0
335 -6551 0
788 -6551 0
-335 -788 6551 0
728 -6552 0
-692 -6552 0
-728 692 6552 0
-256 -6553 0
960 -6553 0
256 -960 6553 0
376 -6554 0
453 -6554 0
-376 -453 6554 0
925 -6555 0
18 -6555 0
-925 -18 6555 0
92 -6556 0
-135 -6556 0
-92 135 6556 0
-24 -6557 0
668 -6557 0
24 -668 6557 0
398 -6558 0
-997 -6558 0
-398 997 6558 0
-451 -6559 0
156 -6559 0
451 -156 6559 0
30 -6560 0
-646 -6560 0
-30 646 6560 0
322 -6561 0
-790 -6561 0
-322 790 6561 0
35 -6562 0
962 -6562 0
-35 -962 6562 0
998 -6563 0
-70 -6563 0
-998 70 6563 0
447 -6564 0
-925 -6564 0
-447 925 6564 0
859 -6565 0
657 -6565 0
-859 -657 6565 0
592 -6566 0
241 -6566 0
-592 -241 6566 0
237 -6567 0
986 -6567 0
-237 -986 6567 0
-42 -6568 0
210 -6568 0
42 -210 6568 0
183 -6569 0
926 -6569 0
-183 -926 6569 0
-298 -6570 0
1 -6570 0
298 -1 6570 0
64 -6571 0
793 -6571 0
-64 -793 6571 0
445 -6572 0
189 -6572 0
-445 -189 6572 0
949 -6573 0
805 -6573 0
-949 -805 6573 0
-485 -6574 0
249 -6574 0
485 -249 6574 0
-890 -6575 0
654 -6575 0
890 -654 6575 0
492 -6576 0
842 -6576 0
-492 -842 6576 0
650 -6577 0
-671 -6577 0
-650 671 6577 0
-240 -6578 0
428 -6578 0
240 -428 6578 0
878 -6579 0
410 -6579 0
-878 -410 6579 0
69 -6580 0
898 -6580 0
-69 -898 6580 0
76 -6581 0
-957 -6581 0
-76 957 6581 0
198 -6582 0
-901 -6582 0
-198 901 6582 0
-164 -6583 0
842 -6583 0
164 -842 6583 0
55 -6584 0
34 -6584 0
-55 -34 6584 0
464 -6585 0
-804 -6585 0
-464 804 6585 0
-483 -6586 0
315 -6586 0
483 -315 6586 0
880 -6587 0
340 -6587 0
-880 -340 6587 0
-170 -6588 0
507 -6588 0
170 -507 6588 0
464 -6589 0
692 -6589 0
-464 -692 6589 0
352 -6590 0
43 -6590 0
-352 -43 6590 0
-937 -6591 0
393 -6591 0
937 -393 6591 0
477 -6592 0
-28 -6592 0
-477 28 6592 0
453 -6593 0
925 -6593 0
-453 -925 6593 0
269 -6594 0
-494 -6594 0
-269 494 6594 0
310 -6595 0
829 -6595 0
-310 -829 6595 0
402 -6596 0
817 -6596 0
-402 -817 6596 0
-112 -6597 0
874 -6597 0
112 -874 6597 0
702 -6598 0
-235 -6598 0
-702 235 6598 0
214 -6599 0
380 -6599 0
-214 -380 6599 0
-641 -6600 0
994 -6600 0
641 -994 6600 0
-274 -6601 0
261 -6601 0
274 -261 6601 0
710 -6602 0
772 -6602 0
-710 -772 6602 0
808 -6603 0
-628 -6603 0
-808 628 6603 0
550 -6604 0
597 -6604 0
-550 -597 6604 0
687 -6605 0
187 -6605 0
-687 -187 6605 0
760 -6606 0
-933 -6606 0
-760 933 6606 0
605 -6607 0
92 -6607 0
-605 -92 6607 0
875 -6608 0
-270 -6608 0
-875 270 6608 0
874 -6609 0
-719 -6609 0
-874 719 6609 0
-344 -6610 0
491 -6610 0
344 -491 6610 0
182 -6611 0
382 -6611 0
-182 -382 6611 0
-202 -6612 0
37 -6612 0
202 -37 6612 0
341 -6613 0
466 -6613 0
-341 -466 6613 0
-277 -6614 0
49 -6614 0
277 -49 6614 0
-211 -6615 0
754 -6615 0
211 -754 6615 0
815 -6616 0
930 -6616 0
-815 -930 6616 0
797 -6617 0
530 -6617 0
-797 -530 6617 0
-520 -6618 0
572 -6618 0
520 -572 6618 0
25 -6619 0
-951 -6619 0
-25 951 6619 0
-377 -6620 0
593 -6620 0
377 -593 6620 0
318 -6621 0
665 -6621 0
-318 -665 6621 0
258 -6622 0
-495 -6622 0
-258 495 6622 0
-536 -6623 0
90 -6623 0
536 -90 6623 0
-345 -6624 0
473 -6624 0
345 -473 6624 0
789 -6625 0
-276 -6625 0
-789 276 6625 0
-882 -6626 0
980 -6626 0
882 -980 6626 0
174 -6627 0
-525 -6627 0
-174 525 6627 0
115 -6628 0
-319 -6628 0
-115 319 6628 0
901 -6629 0
-990 -6629 0
-901 990 6629 0
-909 -6630 0
658 -6630 0
909 -658 6630 0
901 -6631 0
-839 -6631 0
-901 839 6631 0
-1 -6632 0
147 -6632 0
1 -147 6632 0
-209 -6633 0
691 -6633 0
209 -691 6633 0
968 -6634 0
763 -6634 0
-968 -763 6634 0
125 -6635 0
578 -6635 0
-125 -578 6635 0
51 -6636 0
-454 -6636 0
-51 454 6636 0
-154 -6637 0
939 -6637 0
154 -939 6637 0
692 -6638 0
299 -6638 0
-692 -299 6638 0
-721 -6639 0
597 -6639 0
721 -597 6639 0
-264 -6640 0
697 -6640 0
264 -697 6640 0
707 -6641 0
-294 -6641 0
-707 294 6641 0
349 -6642 0
-973 -6642 0
-349 973 6642 0
-113 -6643 0
495 -6643 0
113 -495 6643 0
672 -6644 0
427 -6644 0
-672 -427 6644 0
-547 -6645 0
410 -6645 0
547 -410 6645 0
789 -6646 0
-381 -6646 0
-789 381 6646 0
-82 -6647 0
115 -6647 0
82 -115 6647 0
-553 -6648 0
709 -6648 0
553 -709 6648 0
499 -6649 0
513 -6649 0
-499 -513 6649 0
621 -6650 0
530 -6650 0
-621 -530 6650 0
411 -6651 0
297 -6651 0
-411 -297 6651 0
-450 -6652 0
619 -6652 0
450 -619 6652 0
783 -6653 0
-431 -6653 0
-783 431 6653 0
694 -6654 0
805 -6654 0
-694 -805 6654 0
831 -6655 0
-645 -6655 0
-831 645 6655 0
571 -6656 0
106 -6656 0
-571 -106 6656 0
-32 -6657 0
242 -6657 0
32 -242 6657 0
614 -6658 0
-564 -6658 0
-614 564 6658 0
984 -6659 0
-455 -6659 0
-984 455 6659 0
606 -6660 0
501 -6660 0
-606 -501 6660 0
-947 -6661 0
442 -6661 0
947 -442 6661 0
951 -6662 0
-290 -6662 0
-951 290 6662 0
328 -6663 0
-919 -6663 0
-328 919 6663 0
29 -6664 0
74 -6664 0
-29 -74 6664 0
325 -6665 0
-629 -6665 0
-325 629 6665 0
-849 -6666 0
972 -6666 0
849 -972 6666 0
-562 -6667 0
557 -6667 0
562 -557 6667 0
-168 -6668 0
402 -6668 0
168 -402 6668 0
357 -6669 0
-118 -6669 0
-357 118 6669 0
781 -6670 0
-596 -6670 0
-781 596 6670 0
760 -6671 0
507 -6671 0
-760 -507 6671 0
-574 -6672 0
777 -6672 0
574 -777 6672 0
-571 -6673 0
109 -6673 0
571 -109 6673 0
299 -6674 0
-519 -6674 0
-299 519 6674 0
391 -6675 0
899 -6675 0
-391 -899 6675 0
-300 -6676 0
121 -6676 0
300 -121 6676 0
139 -6677 0
-887 -6677 0
-139 887 6677 0
751 -6678 0
-93 -6678 0
-751 93 6678 0
360 -6679 0
475 -6679 0
-360 -475 6679 0
248 -6680 0
-910 -6680 0
-248 910 6680 0
664 -6681 0
374 -6681 0
-664 -374 6681 0
331 -6682 0
513 -6682 0
-331 -513 6682 0
364 -6683 0
595 -6683 0
-364 -595 6683 0
451 -6684 0
875 -6684 0
-451 -875 6684 0
-889 -6685 0
365 -6685 0
889 -365 6685 0
-760 -6686 0
599 -6686 0
760 -599 6686 0
-18 -6687 0
891 -6687 0
18 -891 6687 0
62 -6688 0
982 -6688 0
-62 -982 6688 0
-536 -6689 0
557 -6689 0
536 -557 6689 0
168 -6690 0
639 -6690 0
-168 -639 6690 0
245 -6691 0
365 -6691 0
-245 -365 6691 0
920 -6692 0
-97 -6692 0
-920 97 6692 0
-764 -6693 0
219 -6693 0
764 -219 6693 0
639 -6694 0
-815 -6694 0
-639 815 6694 0
458 -6695 0
-998 -6695 0
-458 998 6695 0
688 -6696 0
425 -6696 0
-688 -425 6696 0
816 -6697 0
181 -6697 0
-816 -181 6697 0
287 -6698 0
-213 -6698 0
-287 213 6698 0
439 -6699 0
-281 -6699 0
-439 281 6699 0
463 -6700 0
-507 -6700 0
-463 507 6700 0
-673 -6701 0
753 -6701 0
673 -753 6701 0
551 -6702 0
-830 -6702 0
-551 830 6702 0
376 -6703 0
-442 -6703 0
-376 442 6703 0
120 -6704 0
-73 -6704 0
-120 73 6704 0
487 -6705 0
-660 -6705 0
-487 660 6705 0
263 -6706 0
964 -6706 0
-263 -964 6706 0
326 -6707 0
230 -6707 0
-326 -230 6707 0
333 -6708 0
-375 -6708 0
-333 375 6708 0
200 -6709 0
377 -6709 0
-200 -377 6709 0
-626 -6710 0
892 -6710 0
626 -892 6710 0
579 -6711 0
-959 -6711 0
-579 959 6711 0
-49 -6712 0
683 -6712 0
49 -683 6712 0
-394 -6713 0
605 -6713 0
394 -605 6713 0
-388 -6714 0
595 -6714 0
388 -595 6714 0
-904 -6715 0
705 -6715 0
904 -705 6715 0
-715 -6716 0
233 -6716 0
715 -233 6716 0
-556 -6717 0
891 -6717 0
556 -891 6717 0
952 -6718 0
565 -6718 0
-952 -565 6718 0
-65 -6719 0
665 -6719 0
65 -665 6719 0
829 -6720 0
515 -6720 0
-829 -515 6720 0
789 -6721 0
-300 -6721 0
-789 300 6721 0
375 -6722 0
855 -6722 0
-375 -855 6722 0
84 -6723 0
-270 -6723 0
-84 270 6723 0
678 -6724 0
252 -6724 0
-678 -252 6724 0
-848 -6725 0
196 -6725 0
848 -196 6725 0
-250 -6726 0
915 -6726 0
250 -915 6726 0
920 -6727 0
446 -6727 0
-920 -446 6727 0
-616 -6728 0
419 -6728 0
616 -419 6728 0
-889 -6729 0
902 -6729 0
889 -902 6729 0
368 -6730 0
-836 -6730 0
-368 836 6730 0
421 -6731 0
-303 -6731 0
-421 303 6731 0
461 -6732 0
505 -6732 0
-461 -505 6732 0
792 -6733 0
-830 -6733 0
-792 830 6733 0
-304 -6734 0
699 -6734 0
304 -699 6734 0
-781 -6735 0
186 -6735 0
781 -186 6735 0
-896 -6736 0
923 -6736 0
896 -923 6736 0
-157 -6737 0
593 -6737 0
157 -593 6737 0
24 -6738 0
-879 -6738 0
-24 879 6738 0
963 -6739 0
761 -6739 0
-963 -761 6739 0
32 -6740 0
-260 -6740 0
-32 260 6740 0
102 -6741 0
259 -6741 0
-102 -259 6741 0
-570 -6742 0
45 -6742 0
570 -45 6742 0
-250 -6743 0
358 -6743 0
250 -358 6743 0
-368 -6744 0
197 -6744 0
368 -197 6744 0
932 -6745 0
179 -6745 0
-932 -179 6745 0
878 -6746 0
69 -6746 0
-878 -69 6746 0
437 -6747 0
851 -6747 0
-437 -851 6747 0
717 -6748 0
810 -6748 0
-717 -810 6748 0
168 -6749 0
-386 -6749 0
-168 386 6749 0
842 -6750 0
-279 -6750 0
-842 279 6750 0
6 -6751 0
53 -6751 0
-6 -53 6751 0
886 -6752 0
142 -6752 0
-886 -142 6752 0
842 -6753 0
249 -6753 0
-842 -249 6753 0
189 -6754 0
-621 -6754 0
-189 621 6754 0
-667 -6755 0
628 -6755 0
667 -628 6755 0
-299 -6756 0
417 -6756 0
299 -417 6756 0
960 -6757 0
-268 -6757 0
-960 268 6757 0
495 -6758 0
-52 -6758 0
-495 52 6758 0
822 -6759 0
-812 -6759 0
-822 812 6759 0
-660 -6760 0
530 -6760 0
660 -530 6760 0
-297 -6761 0
724 -6761 0
297 -724 6761 0
-410 -6762 0
228 -6762 0
410 -228 6762 0
-769 -6763 0
228 -6763 0
769 -228 6763 0
590 -6764 0
-902 -6764 0
-590 902 6764 0
536 -6765 0
-468 -6765 0
-536 468 6765 0
13 -6766 0
-957 -6766 0
-13 957 6766 0
-625 -6767 0
4 -6767 0
625 -4 6767 0
872 -6768 0
882 -6768 0
-872 -882 6768 0
-737 -6769 0
467 -6769 0
737 -467 6769 0
735 -6770 0
777 -6770 0
-735 -777 6770 0
627 -6771 0
946 -6771 0
-627 -946 6771 0
-557 -6772 0
619 -6772 0
557 -619 6772 0
920 -6773 0
-501 -6773 0
-920 501 6773 0
-305 -6774 0
538 -6774 0
305 -538 6774 0
749 -6775 0
123 -6775 0
-749 -123 6775 0
608 -6776 0
778 -6776 0
-608 -778 6776 0
423 -6777 0
497 -6777 0
-423 -497 6777 0
728 -6778 0
227 -6778 0
-728 -227 6778 0
-914 -6779 0
369 -6779 0
914 -369 6779 0
-532 -6780 0
746 -6780 0
532 -746 6780 0
156 -6781 0
-422 -6781 0
-156 422 6781 0
-204 -6782 0
691 -6782 0
204 -691 6782 0
-442 -6783 0
51 -6783 0
442 -51 6783 0
-731 -6784 0
740 -6784 0
731 -740 6784 0
-906 -6785 0
873 -6785 0
906 -873 6785 0
264 -6786 0
949 -6786 0
-264 -949 6786 0
-987 -6787 0
196 -6787 0
987 -196 6787 0
778 -6788 0
-223 -6788 0
-778 223 6788 0
240 -6789 0
981 -6789 0
-240 -981 6789 0
360 -6790 0
397 -6790 0
-360 -397 6790 0
-488 -6791 0
780 -6791 0
488 -780 6791 0
827 -6792 0
-470 -6792 0
-827 470 6792 0
-645 -6793 0
234 -6793 0
645 -234 6793 0
988 -6794 0
169 -6794 0
-988 -169 6794 0
-532 -6795 0
962 -6795 0
532 -962 6795 0
-933 -6796 0
329 -6796 0
933 -329 6796 0
95 -6797 0
-799 -6797 0
-95 799 6797 0
768 -6798 0
956 -6798 0
-768 -956 6798 0
66 -6799 0
-231 -6799 0
-66 231 6799 0
71 -6800 0
2 -6800 0
-71 -2 6800 0
-685 -6801 0
538 -6801 0
685 -538 6801 0
599 -6802 0
185 -6802 0
-599 -185 6802 0
-618 -6803 0
482 -6803 0
618 -482 6803 0
459 -6804 0
131 -6804 0
-459 -131 6804 0
446 -6805 0
-717 -6805 0
-446 717 6805 0
110 -6806 0
-676 -6806 0
-110 676 6806 0
-328 -6807 0
57 -6807 0
328 -57 6807 0
-176 -6808 0
724 -6808 0
176 -724 6808 0
-209 -6809 0
838 -6809 0
209 -838 6809 0
887 -6810 0
-707 -6810 0
-887 707 6810 0
485 -6811 0
-955 -6811 0
-485 955 6811 0
800 -6812 0
670 -6812 0
-800 -670 6812 0
350 -6813 0
-802 -6813 0
-350 802 6813 0
159 -6814 0
-286 -6814 0
-159 286 6814 0
228 -6815 0
-486 -6815 0
-228 486 6815 0
810 -6816 0
-262 -6816 0
-810 262 6816 0
60 -6817 0
474 -6817 0
-60 -474 6817 0
-617 -6818 0
683 -6818 0
617 -683 6818 0
159 -6819 0
907 -6819 0
-159 -907 6819 0
484 -6820 0
827 -6820 0
-484 -827 6820 0
-969 -6821 0
150 -6821 0
969 -150 6821 0
447 -6822 0
-581 -6822 0
-447 581 6822 0
543 -6823 0
-885 -6823 0
-543 885 6823 0
900 -6824 0
-646 -6824 0
-900 646 6824 0
396 -6825 0
387 -6825 0
-396 -387 6825 0
-817 -6826 0
990 -6826 0
817 -990 6826 0
956 -6827 0
-757 -6827 0
-956 757 6827 0
-276 -6828 0
907 -6828 0
276 -907 6828 0
407 -6829 0
914 -6829 0
-407 -914 6829 0
-731 -6830 0
371 -6830 0
731 -371 6830 0
800 -6831 0
-872 -6831 0
-800 872 6831 0
-836 -6832 0
35 -6832 0
836 -35 6832 0
712 -6833 0
321 -6833 0
-712 -321 6833 0
911 -6834 0
-658 -6834 0
-911 658 6834 0
467 -6835 0
345 -6835 0
-467 -345 6835 0
-544 -6836 0
869 -6836 0
544 -869 6836 0
830 -6837 0
876 -6837 0
-830 -876 6837 0
903 -6838 0
-402 -6838 0
-903 402 6838 0
40 -6839 0
837 -6839 0
-40 -837 6839 0
163 -6840 0
-942 -6840 0
-163 942 6840 0
-226 -6841 0
510 -6841 0
226 -510 6841 0
380 -6842 0
979 -6842 0
-380 -979 6842 0
991 -6843 0
-713 -6843 0
-991 713 6843 0
-662 -6844 0
233 -6844 0
662 -233 6844 0
-424 -6845 0
432 -6845 0
424 -432 6845 0
-962 -6846 0
906 -6846 0
962 -906 6846 0
207 -6847 0
836 -6847 0
-207 -836 6847 0
334 -6848 0
217 -6848 0
-334 -217 6848 0
569 -6849 0
337 -6849 0
-569 -337 6849 0
949 -6850 0
-534 -6850 0
-949 534 6850 0
-146 -6851 0
605 -6851 0
146 -605 6851 0
373 -6852 0
75 -6852 0
-373 -75 6852 0
-672 -6853 0
310 -6853 0
672 -310 6853 0
516 -6854 0
-759 -6854 0
-516 759 6854 0
287 -6855 0
775 -6855 0
-287 -775 6855 0
544 -6856 0
-235 -6856 0
-544 235 6856 0
543 -6857 0
690 -6857 0
-543 -690 6857 0
111 -6858 0
-354 -6858 0
-111 354 6858 0
647 -6859 0
854 -6859 0
-647 -854 6859 0
366 -6860 0
620 -6860 0
-366 -620 6860 0
819 -6861 0
-781 -6861 0
-819 781 6861 0
736 -6862 0
-723 -6862 0
-736 723 6862 0
-296 -6863 0
662 -6863 0
296 -662 6863 0
455 -6864 0
901 -6864 0
-455 -901 6864 0
125 -6865 0
-677 -6865 0
-125 677 6865 0
470 -6866 0
739 -6866 0
-470 -739 6866 0
-905 -6867 0
809 -6867 0
905 -809 6867 0
640 -6868 0
922 -6868 0
-640 -922 6868 0
935 -6869 0
734 -6869 0
-935 -734 6869 0
53 -6870 0
-884 -6870 0
-53 884 6870 0
366 -6871 0
545 -6871 0
-366 -545 6871 0
405 -6872 0
-206 -6872 0
-405 206 6872 0
-40 -6873 0
50 -6873 0
40 -50 6873 0
775 -6874 0
-564 -6874 0
-775 564 6874 0
566 -6875 0
698 -6875 0
-566 -698 6875 0
-122 -6876 0
499 -6876 0
122 -499 6876 0
442 -6877 0
-959 -6877 0
-442 959 6877 0
229 -6878 0
-934 -6878 0
-229 934 6878 0
454 -6879 0
-636 -6879 0
-454 636 6879 0
563 -6880 0
98 -6880 0
-563 -98 6880 0
-221 -6881 0
778 -6881 0
221 -778 6881 0
-243 -6882 0
76 -6882 0
243 -76 6882 0
535 -6883 0
71 -6883 0
-535 -71 6883 0
296 -6884 0
-519 -6884 0
-296 519 6884 0
355 -6885 0
449 -6885 0
-355 -449 6885 0
-114 -6886 0
836 -6886 0
114 -836 6886 0
504 -6887 0
458 -6887 0
-504 -458 6887 0
979 -6888 0
-574 -6888 0
-979 574 6888 0
-664 -6889 0
499 -6889 0
664 -499 6889 0
7 -6890 0
151 -6890 0
-7 -151 6890 0
998 -6891 0
931 -6891 0
-998 -931 6891 0
574 -6892 0
650 -6892 0
-574 -650 6892 0
543 -6893 0
-58 -6893 0
-543 58 6893 0
239 -6894 0
894 -6894 0
-239 -894 6894 0
491 -6895 0
810 -6895 0
-491 -810 6895 0
1000 -6896 0
-295 -6896 0
-1000 295 6896 0
-702 -6897 0
401 -6897 0
702 -401 6897 0
-802 -6898 0
242 -6898 0
802 -242 6898 0
-505 -6899 0
199 -6899 0
505 -199 6899 0
384 -6900 0
261 -6900 0
-384 -261 6900 0
29 -6901 0
196 -6901 0
-29 -196 6901 0
438 -6902 0
-180 -6902 0
-438 180 6902 0
379 -6903 0
619 -6903 0
-379 -619 6903 0
-849 -6904 0
796 -6904 0
849 -796 6904 0
523 -6905 0
361 -6905 0
-523 -361 6905 0
-804 -6906 0
953 -6906 0
804 -953 6906 0
999 -6907 0
-889 -6907 0
-999 889 6907 0
124 -6908 0
-654 -6908 0
-124 654 6908 0
64 -6909 0
-786 -6909 0
-64 786 6909 0
184 -6910 0
-936 -6910 0
-184 936 6910 0
596 -6911 0
587 -6911 0
-596 -587 6911 0
431 -6912 0
73 -6912 0
-431 -73 6912 0
573 -6913 0
-254 -6913 0
-573 254 6913 0
704 -6914 0
-748 -6914 0
-704 748 6914 0
838 -6915 0
514 -6915 0
-838 -514 6915 0
808 -6916 0
269 -6916 0
-808 -269 6916 0
32 -6917 0
396 -6917 0
-32 -396 6917 0
392 -6918 0
15 -6918 0
-392 -15 6918 0
-842 -6919 0
99 -6919 0
842 -99 6919 0
88 -6920 0
423 -6920 0
-88 -423 6920 0
375 -6921 0
79 -6921 0
-375 -79 6921 0
261 -6922 0
124 -6922 0
-261 -124 6922 0
389 -6923 0
723 -6923 0
-389 -723 6923 0
196 -6924 0
948 -6924 0
-196 -948 6924 0
991 -6925 0
818 -6925 0
-991 -818 6925 0
-673 -6926 0
821 -6926 0
673 -821 6926 0
752 -6927 0
241 -6927 0
-752 -241 6927 0
562 -6928 0
770 -6928 0
-562 -770 6928 0
375 -6929 0
-174 -6929 0
-375 174 6929 0
-904 -6930 0
1000 -6930 0
904 -1000 6930 0
856 -6931 0
765 -6931 0
-856 -765 6931 0
518 -6932 0
-387 -6932 0
-518 387 6932 0
124 -6933 0
993 -6933 0
-124 -993 6933 0
173 -6934 0
-454 -6934 0
-173 454 6934 0
-613 -6935 0
145 -6935 0
613 -145 6935 0
-342 -6936 0
177 -6936 0
342 -177 6936 0
-788 -6937 0
43 -6937 0
788 -43 6937 0
-161 -6938 0
483 -6938 0
161 -483 6938 0
6 -6939 0
259 -6939 0
-6 -259 6939 0
-58 -6940 0
476 -6940 0
58 -476 6940 0
-210 -6941 0
974 -6941 0
210 -974 6941 0
-11 -6942 0
181 -6942 0
11 -181 6942 0
596 -6943 0
-926 -6943 0
-596 926 6943 0
912 -6944 0
-582 -6944 0
-912 582 6944 0
934 -6945 0
-798 -6945 0
-934 798 6945 0
-340 -6946 0
297 -6946 0
340 -297 6946 0
-354 -6947 0
821 -6947 0
354 -821 6947 0
456 -6948 0
-718 -6948 0
-456 718 6948 0
642 -6949 0
-662 -6949 0
-642 662 6949 0
-513 -6950 0
478 -6950 0
513 -478 6950 0
658 -6951 0
-198 -6951 0
-658 198 6951 0
200 -6952 0
409 -6952 0
-200 -409 6952 0
-873 -6953 0
123 -6953 0
873 -123 6953 0
79 -6954 0
-99 -6954 0
-79 99 6954 0
96 -6955 0
-836 -6955 0
-96 836 6955 0
-25 -6956 0
404 -6956 0
25 -404 6956 0
256 -6957 0
-326 -6957 0
-256 326 6957 0
692 -6958 0
58 -6958 0
-692 -58 6958 0
875 -6959 0
-591 -6959 0
-875 591 6959 0
968 -6960 0
-978 -6960 0
-968 978 6960 0
734 -6961 0
395 -6961 0
-734 -395 6961 0
782 -6962 0
-678 -6962 0
-782 678 6962 0
856 -6963 0
-233 -6963 0
-856 233 6963 0
6 -6964 0
65 -6964 0
-6 -65 6964 0
639 -6965 0
332 -6965 0
-639 -332 6965 0
-748 -6966 0
268 -6966 0
748 -268 6966 0
923 -6967 0
778 -6967 0
-923 -778 6967 0
102 -6968 0
740 -6968 0
-102 -740 6968 0
146 -6969 0
-751 -6969 0
-146 751 6969 0
80 -6970 0
806 -6970 0
-80 -806 6970 0
821 -6971 0
-116 -6971 0
-821 116 6971 0
672 -6972 0
-51 -6972 0
-672 51 6972 0
-884 -6973 0
98 -6973 0
884 -98 6973 0
872 -6974 0
-581 -6974 0
-872 581 6974 0
-528 -6975 0
35 -6975 0
528 -35 6975 0
420 -6976 0
59 -6976 0
-420 -59 6976 0
616 -6977 0
-607 -6977 0
-616 607 6977 0
596 -6978 0
313 -6978 0
-596 -313 6978 0
348 -6979 0
-877 -6979 0
-348 877 6979 0
846 -6980 0
-951 -6980 0
-846 951 6980 0
903 -6981 0
-70 -6981 0
-903 70 6981 0
199 -6982 0
713 -6982 0
-199 -713 6982 0
548 -6983 0
891 -6983 0
-548 -891 6983 0
144 -6984 0
-732 -6984 0
-144 732 6984 0
-836 -6985 0
626 -6985 0
836 -626 6985 0
907 -6986 0
-45 -6986 0
-907 45 6986 0
-970 -6987 0
470 -6987 0
970 -470 6987 0
704 -6988 0
-509 -6988 0
-704 509 6988 0
717 -6989 0
-925 -6989 0
-717 925 6989 0
856 -6990 0
558 -6990 0
-856 -558 6990 0
236 -6991 0
-846 -6991 0
-236 846 6991 0
91 -6992 0
113 -6992 0
-91 -113 6992 0
740 -6993 0
419 -6993 0
-740 -419 6993 0
626 -6994 0
-591 -6994 0
-626 591 6994 0
621 -6995 0
-996 -6995 0
-621 996 6995 0
-155 -6996 0
956 -6996 0
155 -956 6996 0
-848 -6997 0
252 -6997 0
848 -252 6997 0
-994 -6998 0
436 -6998 0
994 -436 6998 0
-409 -6999 0
673 -6999 0
409 -673 6999 0
555 -7000 0
-997 -7000 0
-555 997 7000 0
584 -7001 0
-376 -7001 0
-584 376 7001 0
240 -7002 0
-304 -7002 0
-240 304 7002 0
367 -7003 0
-731 -7003 0
-367 731 7003 0
678 -7004 0
747 -7004 0
-678 -747 7004 0
-368 -7005 0
156 -7005 0
368 -156 7005 0
294 -7006 0
-631 -7006 0
-294 631 7006 0
315 -7007 0
-909 -7007 0
-315 909 7007 0
51 -7008 0
290 -7008 0
-51 -290 7008 0
871 -7009 0
-395 -7009 0
-871 395 7009 0
60 -7010 0
-518 -7010 0
-60 518 7010 0
112 -7011 0
-925 -7011 0
-112 925 7011 0
639 -7012 0
-835 -7012 0
-639 835 7012 0
853 -7013 0
635 -7013 0
-853 -635 7013 0
966 -7014 0
-980 -7014 0
-966 980 7014 0
592 -7015 0
243 -7015 0
-592 -243 7015 0
142 -7016 0
-199 -7016 0
-142 199 7016 0
384 -7017 0
610 -7017 0
-384 -610 7017 0
174 -7018 0
-917 -7018 0
-174 917 7018 0
313 -7019 0
89 -7019 0
-313 -89 7019 0
166 -7020 0
-150 -7020 0
-166 150 7020 0
6 -7021 0
-645 -7021 0
-6 645 7021 0
867 -7022 0
-23 -7022 0
-867 23 7022 0
550 -7023 0
874 -7023 0
-550 -874 7023 0
-849 -7024 0
332 -7024 0
849 -332 7024 0
260 -7025 0
-461 -7025 0
-260 461 7025 0
735 -7026 0
35 -7026 0
-735 -35 7026 0
822 -7027 0
-575 -7027 0
-822 575 7027 0
640 -7028 0
739 -7028 0
-640 -739 7028 0
951 -7029 0
-61 -7029 0
-951 61 7029 0
870 -7030 0
372 -7030 0
-870 -372 7030 0
-133 -7031 0
489 -7031 0
133 -489 7031 0
485 -7032 0
-835 -7032 0
-485 835 7032 0
118 -7033 0
-111 -7033 0
-118 111 7033 0
655 -7034 0
-732 -7034 0
-655 732 7034 0
38 -7035 0
685 -7035 0
-38 -685 7035 0
-681 -7036 0
119 -7036 0
681 -119 7036 0
-452 -7037 0
403 -7037 0
452 -403 7037 0
-769 -7038 0
591 -7038 0
769 -591 7038 0
586 -7039 0
961 -7039 0
-586 -961 7039 0
376 -7040 0
868 -7040 0
-376 -868 7040 0
-384 -7041 0
330 -7041 0
384 -330 7041 0
-930 -7042 0
643 -7042 0
930 -643 7042 0
741 -7043 0
777 -7043 0
-741 -777 7043 0
822 -7044 0
-447 -7044 0
-822 447 7044 0
240 -7045 0
-629 -7045 0
-240 629 7045 0
128 -7046 0
-943 -7046 0
-128 943 7046 0
126 -7047 0
258 -7047 0
-126 -258 7047 0
116 -7048 0
850 -7048 0
-116 -850 7048 0
-798 -7049 0
921 -7049 0
798 -921 7049 0
676 -7050 0
-694 -7050 0
-676 694 7050 0
464 -7051 0
603 -7051 0
-464 -603 7051 0
572 -7052 0
211 -7052 0
-572 -211 7052 0
-522 -7053 0
868 -7053 0
522 -868 7053 0
-419 -7054 0
537 -7054 0
419 -537 7054 0
813 -7055 0
-87 -7055 0
-813 87 7055 0
-976 -7056 0
30 -7056 0
976 -30 7056 0
-954 -7057 0
554 -7057 0
954 -554 7057 0
-728 -7058 0
844 -7058 0
728 -844 7058 0
-138 -7059 0
809 -7059 0
138 -809 7059 0
872 -7060 0
87 -7060 0
-872 -87 7060 0
-598 -7061 0
553 -7061 0
598 -553 7061 0
57 -7062 0
-335 -7062 0
-57 335 7062 0
10 -7063 0
57 -7063 0
-10 -57 7063 0
757 -7064 0
138 -7064 0
-757 -138 7064 0
333 -7065 0
908 -7065 0
-333 -908 7065 0
-978 -7066 0
89 -7066 0
978 -89 7066 0
398 -7067 0
277 -7067 0
-398 -277 7067 0
722 -7068 0
778 -7068 0
-722 -778 7068 0
-69 -7069 0
202 -7069 0
69 -202 7069 0
693 -7070 0
-652 -7070 0
-693 652 7070 0
606 -7071 0
741 -7071 0
-606 -741 7071 0
-538 -7072 0
171 -7072 0
538 -171 7072 0
982 -7073 0
523 -7073 0
-982 -523 7073 0
999 -7074 0
297 -7074 0
-999 -297 7074 0
470 -7075 0
427 -7075 0
-470 -427 7075 0
56 -7076 0
-361 -7076 0
-56 361 7076 0
852 -7077 0
795 -7077 0
-852 -795 7077 0
4 -7078 0
-253 -7078 0
-4 253 7078 0
-242 -7079 0
579 -7079 0
242 -579 7079 0
-9 -7080 0
310 -7080 0
9 -310 7080 0
80 -7081 0
-663 -7081 0
-80 663 7081 0
792 -7082 0
929 -7082 0
-792 -929 7082 0
712 -7083 0
-526 -7083 0
-712 526 7083 0
16 -7084 0
463 -7084 0
-16 -463 7084 0
-702 -7085 0
441 -7085 0
702 -441 7085 0
989 -7086 0
700 -7086 0
-989 -700 7086 0
600 -7087 0
291 -7087 0
-600 -291 7087 0
367 -7088 0
654 -7088 0
-367 -654 7088 0
314 -7089 0
810 -7089 0
-314 -810 7089 0
548 -7090 0
442 -7090 0
-548 -442 7090 0
879 -7091 0
663 -7091 0
-879 -663 7091 0
-34 -7092 0
229 -7092 0
34 -229 7092 0
-576 -7093 0
475 -7093 0
576 -475 7093 0
319 -7094 0
378 -7094 0
-319 -378 7094 0
863 -7095 0
998 -7095 0
-863 -998 7095 0
15 -7096 0
-300 -7096 0
-15 300 7096 0
-808 -7097 0
851 -7097 0
808 -851 7097 0
638 -7098 0
-870 -7098 0
-638 870 7098 0
-40 -7099 0
28 -7099 0
40 -28 7099 0
415 -7100 0
-309 -7100 0
-415 309 7100 0
213 -7101 0
369 -7101 0
-213 -369 7101 0
316 -7102 0
626 -7102 0
-316 -626 7102 0
997 -7103 0
-350 -7103 0
-997 350 7103 0
-228 -7104 0
274 -7104 0
228 -274 7104 0
840 -7105 0
-954 -7105 0
-840 954 7105 0
-973 -7106 0
97 -7106 0
973 -97 7106 0
611 -7107 0
-175 -7107 0
-611 175 7107 0
79 -7108 0
-660 -7108 0
-79 660 7108 0
-832 -7109 0
469 -7109 0
832 -469 7109 0
-475 -7110 0
76 -7110 0
475 -76 7110 0
702 -7111 0
-447 -7111 0
-702 447 7111 0
930 -7112 0
498 -7112 0
-930 -498 7112 0
-283 -7113 0
363 -7113 0
283 -363 7113 0
663 -7114 0
-868 -7114 0
-663 868 7114 0
318 -7115 0
-374 -7115 0
-318 374 7115 0
-709 -7116 0
89 -7116 0
709 -89 7116 0
576 -7117 0
601 -7117 0
-576 -601 7117 0
924 -7118 0
-756 -7118 0
-924 756 7118 0
576 -7119 0
882 -7119 0
-576 -882 7119 0
190 -7120 0
-148 -7120 0
-190 148 7120 0
752 -7121 0
-201 -7121 0
-752 201 7121 0
-505 -7122 0
151 -7122 0
505 -151 7122 0
541 -7123 0
57 -7123 0
-541 -57 7123 0
-145 -7124 0
430 -7124 0
145 -430 7124 0
812 -7125 0
-484 -7125 0
-812 484 7125 0
976 -7126 0
839 -7126 0
-976 -839 7126 0
735 -7127 0
819 -7127 0
-735 -819 7127 0
342 -7128 0
-783 -7128 0
-342 783 7128 0
-761 -7129 0
773 -7129 0
761 -773 7129 0
-898 -7130 0
180 -7130 0
898 -180 7130 0
237 -7131 0
906 -7131 0
-237 -906 7131 0
809 -7132 0
449 -7132 0
-809 -449 7132 0
32 -7133 0
-946 -7133 0
-32 946 7133 0
576 -7134 0
-342 -7134 0
-576 342 7134 0
210 -7135 0
-487 -7135 0
-210 487 7135 0
-439 -7136 0
105 -7136 0
439 -105 7136 0
-339 -7137 0
923 -7137 0
339 -923 7137 0
-713 -7138 0
557 -7138 0
713 -557 7138 0
432 -7139 0
987 -7139 0
-432 -987 7139 0
430 -7140 0
-174 -7140 0
-430 174 7140 0
38 -7141 0
466 -7141 0
-38 -466 7141 0
-330 -7142 0
122 -7142 0
330 -122 7142 0
893 -7143 0
42 -7143 0
-893 -42 7143 0
663 -7144 0
-179 -7144 0
-663 179 7144 0
915 -7145 0
-815 -7145 0
-915 815 7145 0
223 -7146 0
-290 -7146 0
-223 290 7146 0
-539 -7147 0
77 -7147 0
539 -77 7147 0
-956 -7148 0
579 -7148 0
956 -579 7148 0
-549 -7149 0
10 -7149 0
549 -10 7149 0
-949 -7150 0
538 -7150 0
949 -538 7150 0
767 -7151 0
505 -7151 0
-767 -505 7151 0
248 -7152 0
62 -7152 0
-248 -62 7152 0
875 -7153 0
-998 -7153 0
-875 998 7153 0
455 -7154 0
-36 -7154 0
-455 36 7154 0
363 -7155 0
-703 -7155 0
-363 703 7155 0
190 -7156 0
43 -7156 0
-190 -43 7156 0
404 -7157 0
-741 -7157 0
-404 741 7157 0
847 -7158 0
990 -7158 0
-847 -990 7158 0
698 -7159 0
-334 -7159 0
-698 334 7159 0
-781 -7160 0
114 -7160 0
781 -114 7160 0
967 -7161 0
293 -7161 0
-967 -293 7161 0
45 -7162 0
300 -7162 0
-45 -300 7162 0
-808 -7163 0
922 -7163 0
808 -922 7163 0
-845 -7164 0
906 -7164 0
845 -906 7164 0
810 -7165 0
-527 -7165 0
-810 527 7165 0
-268 -7166 0
993 -7166 0
268 -993 7166 0
495 -7167 0
857 -7167 0
-495 -857 7167 0
-706 -7168 0
4 -7168 0
706 -4 7168 0
471 -7169 0
7 -7169 0
-471 -7 7169 0
-816 -7170 0
761 -7170 0
816 -761 7170 0
63 -7171 0
-851 -7171 0
-63 851 7171 0
748 -7172 0
-718 -7172 0
-748 718 7172 0
143 -7173 0
550 -7173 0
-143 -550 7173 0
-138 -7174 0
916 -7174 0
138 -916 7174 0
942 -7175 0
-183 -7175 0
-942 183 7175 0
708 -7176 0
67 -7176 0
-708 -67 7176 0
528 -7177 0
-29 -7177 0
-528 29 7177 0
831 -7178 0
-644 -7178 0
-831 644 7178 0
685 -7179 0
393 -7179 0
-685 -393 7179 0
503 -7180 0
705 -7180 0
-503 -705 7180 0
984 -7181 0
-799 -7181 0
-984 799 7181 0
-987 -7182 0
210 -7182 0
987 -210 7182 0
-259 -7183 0
963 -7183 0
259 -963 7183 0
726 -7184 0
236 -7184 0
-726 -236 7184 0
623 -7185 0
338 -7185 0
-623 -338 7185 0
904 -7186 0
236 -7186 0
-904 -236 7186 0
-20 -7187 0
740 -7187 0
20 -740 7187 0
182 -7188 0
150 -7188 0
-182 -150 7188 0
189 -7189 0
185 -7189 0
-189 -185 7189 0
-53 -7190 0
833 -7190 0
53 -833 7190 0
381 -7191 0
-5 -7191 0
-381 5 7191 0
-115 -7192 0
57 -7192 0
115 -57 7192 0
23 -7193 0
437 -7193 0
-23 -437 7193 0
280 -7194 0
-340 -7194 0
-280 340 7194 0
-552 -7195 0
46 -7195 0
552 -46 7195 0
-80 -7196 0
476 -7196 0
80 -476 7196 0
327 -7197 0
-998 -7197 0
-327 998 7197 0
828 -7198 0
-406 -7198 0
-828 406 7198 0
374 -7199 0
-469 -7199 0
-374 469 7199 0
-88 -7200 0
284 -7200 0
88 -284 7200 0
-833 -7201 0
89 -7201 0
833 -89 7201 0
496 -7202 0
-874 -7202 0
-496 874 7202 0
-972 -7203 0
979 -7203 0
972 -979 7203 0
104 -7204 0
225 -7204 0
-104 -225 7204 0
627 -7205 0
601 -7205 0
-627 -601 7205 0
-928 -7206 0
204 -7206 0
928 -204 7206 0
-777 -7207 0
841 -7207 0
777 -841 7207 0
-219 -7208 0
577 -7208 0
219 -577 7208 0
244 -7209 0
-973 -7209 0
-244 973 7209 0
-468 -7210 0
508 -7210 0
468 -508 7210 0
-617 -7211 0
282 -7211 0
617 -282 7211 0
415 -7212 0
958 -7212 0
-415 -958 7212 0
-761 -7213 0
747 -7213 0
761 -747 7213 0
-757 -7214 0
17 -7214 0
757 -17 7214 0
-37 -7215 0
657 -7215 0
37 -657 7215 0
608 -7216 0
460 -7216 0
-608 -460 7216 0
583 -7217 0
-207 -7217 0
-583 207 7217 0
432 -7218 0
412 -7218 0
-432 -412 7218 0
-525 -7219 0
385 -7219 0
525 -385 7219 0
332 -7220 0
602 -7220 0
-332 -602 7220 0
-286 -7221 0
49 -7221 0
286 -49 7221 0
786 -7222 0
-271 -7222 0
-786 271 7222 0
-712 -7223 0
138 -7223 0
712 -138 7223 0
679 -7224 0
-548 -7224 0
-679 548 7224 0
686 -7225 0
-724 -7225 0
-686 724 7225 0
-48 -7226 0
158 -7226 0
48 -158 7226 0
-236 -7227 0
875 -7227 0
236 -875 7227 0
532 -7228 0
131 -7228 0
-532 -131 7228 0
355 -7229 0
-414 -7229 0
-355 414 7229 0
784 -7230 0
591 -7230 0
-784 -591 7230 0
-494 -7231 0
73 -7231 0
494 -73 7231 0
639 -7232 0
323 -7232 0
-639 -323 7232 0
-685 -7233 0
753 -7233 0
685 -753 7233 0
848 -7234 0
3 -7234 0
-848 -3 7234 0
-869 -7235 0
849 -7235 0
869 -849 7235 0
85 -7236 0
157 -7236 0
-85 -157 7236 0
359 -7237 0
-710 -7237 0
-359 710 7237 0
812 -7238 0
659 -7238 0
-812 -659 7238 0
-225 -7239 0
418 -7239 0
225 -418 7239 0
692 -7240 0
-701 -7240 0
-692 701 7240 0
726 -7241 0
883 -7241 0
-726 -883 7241 0
551 -7242 0
91 -7242 0
-551 -91 7242 0
520 -7243 0
900 -7243 0
-520 -900 7243 0
-260 -7244 0
236 -7244 0
260 -236 7244 0
437 -7245 0
909 -7245 0
-437 -909 7245 0
742 -7246 0
-863 -7246 0
-742 863 7246 0
352 -7247 0
-426 -7247 0
-352 426 7247 0
878 -7248 0
-220 -7248 0
-878 220 7248 0
-256 -7249 0
613 -7249 0
256 -613 7249 0
-266 -7250 0
218 -7250 0
266 -218 7250 0
8 -7251 0
-197 -7251 0
-8 197 7251 0
-20 -7252 0
450 -7252 0
20 -450 7252 0
-944 -7253 0
38 -7253 0
944 -38 7253 0
-616 -7254 0
94 -7254 0
616 -94 7254 0
75 -7255 0
-503 -7255 0
-75 503 7255 0
843 -7256 0
-703 -7256 0
-843 703 7256 0
747 -7257 0
-806 -7257 0
-747 806 7257 0
5 -7258 0
876 -7258 0
-5 -876 7258 0
625 -7259 0
-23 -7259 0
-625 23 7259 0
-650 -7260 0
292 -7260 0
650 -292 7260 0
123 -7261 0
-735 -7261 0
-123 735 7261 0
701 -7262 0
-692 -7262 0
-701 692 7262 0
-203 -7263 0
492 -7263 0
203 -492 7263 0
710 -7264 0
500 -7264 0
-710 -500 7264 0
208 -7265 0
-556 -7265 0
-208 556 7265 0
-33 -7266 0
841 -7266 0
33 -841 7266 0
-968 -7267 0
59 -7267 0
968 -59 7267 0
752 -7268 0
-793 -7268 0
-752 793 7268 0
-148 -7269 0
890 -7269 0
148 -890 7269 0
-758 -7270 0
497 -7270 0
758 -497 7270 0
786 -7271 0
-567 -7271 0
-786 567 7271 0
-632 -7272 0
857 -7272 0
632 -857 7272 0
271 -7273 0
-23 -7273 0
-271 23 7273 0
-749 -7274 0
890 -7274 0
749 -890 7274 0
-186 -7275 0
849 -7275 0
186 -849 7275 0
414 -7276 0
356 -7276 0
-414 -356 7276 0
-491 -7277 0
283 -7277 0
491 -283 7277 0
695 -7278 0
436 -7278 0
-695 -436 7278 0
583 -7279 0
918 -7279 0
-583 -918 7279 0
975 -7280 0
579 -7280 0
-975 -579 7280 0
407 -7281 0
-471 -7281 0
-407 471 7281 0
-88 -7282 0
180 -7282 0
88 -180 7282 0
-871 -7283 0
729 -7283 0
871 -729 7283 0
-528 -7284 0
274 -7284 0
528 -274 7284 0
120 -7285 0
577 -7285 0
-120 -577 7285 0
632 -7286 0
-617 -7286 0
-632 617 7286 0
632 -7287 0
-524 -7287 0
-632 524 7287 0
77 -7288 0
18 -7288 0
-77 -18 7288 0
350 -7289 0
189 -7289 0
-350 -189 7289 0
472 -7290 0
647 -7290 0
-472 -647 7290 0
-364 -7291 0
305 -7291 0
364 -305 7291 0
-260 -7292 0
257 -7292 0
260 -257 7292 0
755 -7293 0
-838 -7293 0
-755 838 7293 0
-568 -7294 0
388 -7294 0
568 -388 7294 0
894 -7295 0
65 -7295 0
-894 -65 7295 0
-410 -7296 0
386 -7296 0
410 -386 7296 0
-812 -7297 0
658 -7297 0
812 -658 7297 0
286 -7298 0
-93 -7298 0
-286 93 7298 0
496 -7299 0
-119 -7299 0
-496 119 7299 0
760 -7300 0
428 -7300 0
-760 -428 7300 0
-265 -7301 0
938 -7301 0
265 -938 7301 0
-873 -7302 0
45 -7302 0
873 -45 7302 0
861 -7303 0
451 -7303 0
-861 -451 7303 0
568 -7304 0
225 -7304 0
-568 -225 7304 0
848 -7305 0
-301 -7305 0
-848 301 7305 0
952 -7306 0
-346 -7306 0
-952 346 7306 0
885 -7307 0
-341 -7307 0
-885 341 7307 0
-985 -7308 0
554 -7308 0
985 -554 7308 0
626 -7309 0
250 -7309 0
-626 -250 7309 0
972 -7310 0
305 -7310 0
-972 -305 7310 0
91 -7311 0
633 -7311 0
-91 -633 7311 0
123 -7312 0
-382 -7312 0
-123 382 7312 0
448 -7313 0
366 -7313 0
-448 -366 7313 0
967 -7314 0
-694 -7314 0
-967 694 7314 0
-59 -7315 0
51 -7315 0
59 -51 7315 0
-87 -7316 0
313 -7316 0
87 -313 7316 0
311 -7317 0
-761 -7317 0
-311 761 7317 0
-658 -7318 0
116 -7318 0
658 -116 7318 0
16 -7319 0
315 -7319 0
-16 -315 7319 0
-513 -7320 0
743 -7320 0
513 -743 7320 0
359 -7321 0
918 -7321 0
-359 -918 7321 0
679 -7322 0
-188 -7322 0
-679 188 7322 0
396 -7323 0
-325 -7323 0
-396 325 7323 0
-993 -7324 0
554 -7324 0
993 -554 7324 0
-49 -7325 0
821 -7325 0
49 -821 7325 0
-40 -7326 0
586 -7326 0
40 -586 7326 0
152 -7327 0
-874 -7327 0
-152 874 7327 0
558 -7328 0
19 -7328 0
-558 -19 7328 0
272 -7329 0
-797 -7329 0
-272 797 7329 0
454 -7330 0
769 -7330 0
-454 -769 7330 0
-530 -7331 0
835 -7331 0
530 -835 7331 0
-962 -7332 0
765 -7332 0
962 -765 7332 0
125 -7333 0
449 -7333 0
-125 -449 7333 0
933 -7334 0
57 -7334 0
-933 -57 7334 0
357 -7335 0
818 -7335 0
-357 -818 7335 0
-835 -7336 0
402 -7336 0
835 -402 7336 0
765 -7337 0
-845 -7337 0
-765 845 7337 0
13 -7338 0
-893 -7338 0
-13 893 7338 0
303 -7339 0
-565 -7339 0
-303 565 7339 0
736 -7340 0
653 -7340 0
-736 -653 7340 0
366 -7341 0
-284 -7341 0
-366 284 7341 0
-401 -7342 0
689 -7342 0
401 -689 7342 0
423 -7343 0
-61 -7343 0
-423 61 7343 0
-440 -7344 0
625 -7344 0
440 -625 7344 0
678 -7345 0
939 -7345 0
-678 -939 7345 0
622 -7346 0
138 -7346 0
-622 -138 7346 0
472 -7347 0
645 -7347 0
-472 -645 7347 0
308 -7348 0
-654 -7348 0
-308 654 7348 0
335 -7349 0
-947 -7349 0
-335 947 7349 0
-746 -7350 0
106 -7350 0
746 -106 7350 0
894 -7351 0
-467 -7351 0
-894 467 7351 0
768 -7352 0
-123 -7352 0
-768 123 7352 0
518 -7353 0
897 -7353 0
-518 -897 7353 0
-179 -7354 0
1 -7354 0
179 -1 7354 0
648 -7355 0
-411 -7355 0
-648 411 7355 0
-884 -7356 0
468 -7356 0
884 -468 7356 0
-489 -7357 0
93 -7357 0
489 -93 7357 0
432 -7358 0
-570 -7358 0
-432 570 7358 0
596 -7359 0
132 -7359 0
-596 -132 7359 0
957 -7360 0
653 -7360 0
-957 -653 7360 0
359 -7361 0
210 -7361 0
-359 -210 7361 0
848 -7362 0
846 -7362 0
-848 -846 7362 0
750 -7363 0
253 -7363 0
-750 -253 7363 0
839 -7364 0
300 -7364 0
-839 -300 7364 0
86 -7365 0
51 -7365 0
-86 -51 7365 0
770 -7366 0
-535 -7366 0
-770 535 7366 0
40 -7367 0
-994 -7367 0
-40 994 7367 0
830 -7368 0
627 -7368 0
-830 -627 7368 0
15 -7369 0
-575 -7369 0
-15 575 7369 0
47 -7370 0
-203 -7370 0
-47 203 7370 0
-576 -7371 0
249 -7371 0
576 -249 7371 0
845 -7372 0
634 -7372 0
-845 -634 7372 0
63 -7373 0
-157 -7373 0
-63 157 7373 0
-435 -7374 0
692 -7374 0
435 -692 7374 0
-449 -7375 0
477 -7375 0
449 -477 7375 0
132 -7376 0
-935 -7376 0
-132 935 7376 0
493 -7377 0
666 -7377 0
-493 -666 7377 0
688 -7378 0
722 -7378 0
-688 -722 7378 0
927 -7379 0
537 -7379 0
-927 -537 7379 0
-314 -7380 0
787 -7380 0
314 -787 7380 0
980 -7381 0
595 -7381 0
-980 -595 7381 0
651 -7382 0
394 -7382 0
-651 -394 7382 0
295 -7383 0
394 -7383 0
-295 -394 7383 0
488 -7384 0
978 -7384 0
-488 -978 7384 0
-153 -7385 0
953 -7385 0
153 -953 7385 0
237 -7386 0
309 -7386 0
-237 -309 7386 0
-292 -7387 0
163 -7387 0
292 -163 7387 0
-202 -7388 0
613 -7388 0
202 -613 7388 0
20 -7389 0
-223 -7389 0
-20 223 7389 0
77 -7390 0
269 -7390 0
-77 -269 7390 0
461 -7391 0
-852 -7391 0
-461 852 7391 0
374 -7392 0
-109 -7392 0
-374 109 7392 0
-385 -7393 0
295 -7393 0
385 -295 7393 0
127 -7394 0
-404 -7394 0
-127 404 7394 0
82 -7395 0
345 -7395 0
-82 -345 7395 0
509 -7396 0
370 -7396 0
-509 -370 7396 0
-308 -7397 0
969 -7397 0
308 -969 7397 0
555 -7398 0
553 -7398 0
-555 -553 7398 0
-865 -7399 0
621 -7399 0
865 -621 7399 0
-787 -7400 0
210 -7400 0
787 -210 7400 0
190 -7401 0
443 -7401 0
-190 -443 7401 0
158 -7402 0
349 -7402 0
-158 -349 7402 0
799 -7403 0
-718 -7403 0
-799 718 7403 0
-366 -7404 0
658 -7404 0
366 -658 7404 0
623 -7405 0
-683 -7405 0
-623 683 7405 0
126 -7406 0
-748 -7406 0
-126 748 7406 0
148 -7407 0
-655 -7407 0
-148 655 7407 0
52 -7408 0
610 -7408 0
-52 -610 7408 0
173 -7409 0
171 -7409 0
-173 -171 7409 0
72 -7410 0
-479 -7410 0
-72 479 7410 0
72 -7411 0
602 -7411 0
-72 -602 7411 0
-53 -7412 0
833 -7412 0
53 -833 7412 0
374 -7413 0
-726 -7413 0
-374 726 7413 0
494 -7414 0
-142 -7414 0
-494 142 7414 0
-600 -7415 0
896 -7415 0
600 -896 7415 0
320 -7416 0
338 -7416 0
-320 -338 7416 0
817 -7417 0
-503 -7417 0
-817 503 7417 0
872 -7418 0
-499 -7418 0
-872 499 7418 0
-248 -7419 0
71 -7419 0
248 -71 7419 0
-435 -7420 0
626 -7420 0
435 -626 7420 0
142 -7421 0
662 -7421 0
-142 -662 7421 0
183 -7422 0
-325 -7422 0
-183 325 7422 0
-384 -7423 0
252 -7423 0
384 -252 7423 0
-793 -7424 0
94 -7424 0
793 -94 7424 0
994 -7425 0
233 -7425 0
-994 -233 7425 0
-803 -7426 0
234 -7426 0
803 -234 7426 0
280 -7427 0
-664 -7427 0
-280 664 7427 0
556 -7428 0
538 -7428 0
-556 -538 7428 0
344 -7429 0
27 -7429 0
-344 -27 7429 0
208 -7430 0
-529 -7430 0
-208 529 7430 0
515 -7431 0
691 -7431 0
-515 -691 7431 0
-98 -7432 0
219 -7432 0
98 -219 7432 0
280 -7433 0
-658 -7433 0
-280 658 7433 0
280 -7434 0
724 -7434 0
-280 -724 7434 0
-384 -7435 0
343 -7435 0
384 -343 7435 0
-105 -7436 0
159 -7436 0
105 -159 7436 0
627 -7437 0
921 -7437 0
-627 -921 7437 0
-577 -7438 0
540 -7438 0
577 -540 7438 0
673 -7439 0
-135 -7439 0
-673 135 7439 0
384 -7440 0
714 -7440 0
-384 -714 7440 0
-899 -7441 0
220 -7441 0
899 -220 7441 0
602 -7442 0
-590 -7442 0
-602 590 7442 0
191 -7443 0
-725 -7443 0
-191 725 7443 0
740 -7444 0
571 -7444 0
-740 -571 7444 0
-105 -7445 0
713 -7445 0
105 -713 7445 0
781 -7446 0
-149 -7446 0
-781 149 7446 0
-833 -7447 0
348 -7447 0
833 -348 7447 0
594 -7448 0
-535 -7448 0
-594 535 7448 0
-968 -7449 0
974 -7449 0
968 -974 7449 0
-466 -7450 0
281 -7450 0
466 -281 7450 0
-16 -7451 0
123 -7451 0
16 -123 7451 0
24 -7452 0
638 -7452 0
-24 -638 7452 0
331 -7453 0
-262 -7453 0
-331 262 7453 0
295 -7454 0
859 -7454 0
-295 -859 7454 0
-952 -7455 0
82 -7455 0
952 -82 7455 0
510 -7456 0
729 -7456 0
-510 -729 7456 0
446 -7457 0
-406 -7457 0
-446 406 7457 0
727 -7458 0
-830 -7458 0
-727 830 7458 0
-425 -7459 0
829 -7459 0
425 -829 7459 0
138 -7460 0
369 -7460 0
-138 -369 7460 0
444 -7461 0
-950 -7461 0
-444 950 7461 0
-421 -7462 0
90 -7462 0
421 -90 7462 0
15 -7463 0
406 -7463 0
-15 -406 7463 0
517 -7464 0
-444 -7464 0
-517 444 7464 0
-917 -7465 0
90 -7465 0
917 -90 7465 0
638 -7466 0
-723 -7466 0
-638 723 7466 0
238 -7467 0
-988 -7467 0
-238 988 7467 0
876 -7468 0
-421 -7468 0
-876 421 7468 0
-329 -7469 0
805 -7469 0
329 -805 7469 0
80 -7470 0
452 -7470 0
-80 -452 7470 0
-958 -7471 0
994 -7471 0
958 -994 7471 0
-394 -7472 0
634 -7472 0
394 -634 7472 0
-364 -7473 0
9 -7473 0
364 -9 7473 0
939 -7474 0
315 -7474 0
-939 -315 7474 0
463 -7475 0
-102 -7475 0
-463 102 7475 0
-97 -7476 0
902 -7476 0
97 -902 7476 0
-889 -7477 0
389 -7477 0
889 -389 7477 0
470 -7478 0
-423 -7478 0
-470 423 7478 0
-909 -7479 0
818 -7479 0
909 -818 7479 0
-321 -7480 0
86 -7480 0
321 -86 7480 0
742 -7481 0
-661 -7481 0
-742 661 7481 0
-744 -7482 0
697 -7482 0
744 -697 7482 0
870 -7483 0
82 -7483 0
-870 -82 7483 0
86 -7484 0
-548 -7484 0
-86 548 7484 0
447 -7485 0
69 -7485 0
-447 -69 7485 0
752 -7486 0
368 -7486 0
-752 -368 7486 0
232 -7487 0
-932 -7487 0
-232 932 7487 0
-612 -7488 0
812 -7488 0
612 -812 7488 0
-341 -7489 0
394 -7489 0
341 -394 7489 0
93 -7490 0
-759 -7490 0
-93 759 7490 0
240 -7491 0
147 -7491 0
-240 -147 7491 0
334 -7492 0
203 -7492 0
-334 -203 7492 0
-311 -7493 0
281 -7493 0
311 -281 7493 0
724 -7494 0
450 -7494 0
-724 -450 7494 0
-138 -7495 0
597 -7495 0
138 -597 7495 0
320 -7496 0
57 -7496 0
-320 -57 7496 0
-605 -7497 0
842 -7497 0
605 -842 7497 0
-13 -7498 0
690 -7498 0
13 -690 7498 0
608 -7499 0
369 -7499 0
-608 -369 7499 0
198 -7500 0
118 -7501 0
669 -7501 0
-118 -669 7501 0
114 -7502 0
930 -7502 0
-114 -930 7502 0
894 -7503 0
-130 -7503 0
-894 130 7503 0
367 -7504 0
865 -7504 0
-367 -865 7504 0
979 -7505 0
-918 -7505 0
-979 918 7505 0
-146 -7506 0
372 -7506 0
146 -372 7506 0
675 -7507 0
-477 -7507 0
-675 477 7507 0
-745 -7508 0
874 -7508 0
745 -874 7508 0
37 -7509 0
-679 -7509 0
-37 679 7509 0
510 -7510 0
476 -7510 0
-510 -476 7510 0
387 -7511 0
403 -7511 0
-387 -403 7511 0
253 -7512 0
-494 -7512 0
-253 494 7512 0
837 -7513 0
850 -7513 0
-837 -850 7513 0
687 -7514 0
441 -7514 0
-687 -441 7514 0
274 -7515 0
377 -7515 0
-274 -377 7515 0
-610 -7516 0
3 -7516 0
610 -3 7516 0
863 -7517 0
-347 -7517 0
-863 347 7517 0
431 -7518 0
-828 -7518 0
-431 828 7518 0
-424 -7519 0
525 -7519 0
424 -525 7519 0
-600 -7520 0
943 -7520 0
600 -943 7520 0
-56 -7521 0
810 -7521 0
56 -810 7521 0
-104 -7522 0
515 -7522 0
104 -515 7522 0
358 -7523 0
-29 -7523 0
-358 29 7523 0
519 -7524 0
274 -7524 0
-519 -274 7524 0
255 -7525 0
610 -7525 0
-255 -610 7525 0
-307 -7526 0
569 -7526 0
307 -569 7526 0
-593 -7527 0
843 -7527 0
593 -843 7527 0
289 -7528 0
73 -7528 0
-289 -73 7528 0
919 -7529 0
-629 -7529 0
-919 629 7529 0
-361 -7530 0
76 -7530 0
361 -76 7530 0
-730 -7531 0
249 -7531 0
730 -249 7531 0
-522 -7532 0
708 -7532 0
522 -708 7532 0
448 -7533 0
-936 -7533 0
-448 936 7533 0
-507 -7534 0
788 -7534 0
507 -788 7534 0
944 -7535 0
459 -7535 0
-944 -459 7535 0
104 -7536 0
156 -7536 0
-104 -156 7536 0
-385 -7537 0
26 -7537 0
385 -26 7537 0
893 -7538 0
309 -7538 0
-893 -309 7538 0
-969 -7539 0
287 -7539 0
969 -287 7539 0
605 -7540 0
444 -7540 0
-605 -444 7540 0
272 -7541 0
585 -7541 0
-272 -585 7541 0
52 -7542 0
601 -7542 0
-52 -601 7542 0
-627 -7543 0
397 -7543 0
627 -397 7543 0
911 -7544 0
996 -7544 0
-911 -996 7544 0
-281 -7545 0
279 -7545 0
281 -279 7545 0
-40 -7546 0
934 -7546 0
40 -934 7546 0
764 -7547 0
-415 -7547 0
-764 415 7547 0
372 -7548 0
-38 -7548 0
-372 38 7548 0
-74 -7549 0
739 -7549 0
74 -739 7549 0
-408 -7550 0
488 -7550 0
408 -488 7550 0
-258 -7551 0
377 -7551 0
258 -377 7551 0
-328 -7552 0
826 -7552 0
328 -826 7552 0
477 -7553 0
-574 -7553 0
-477 574 7553 0
-314 -7554 0
945 -7554 0
314 -945 7554 0
-770 -7555 0
773 -7555 0
770 -773 7555 0
157 -7556 0
-454 -7556 0
-157 454 7556 0
919 -7557 0
733 -7557 0
-919 -733 7557 0
727 -7558 0
-482 -7558 0
-727 482 7558 0
254 -7559 0
211 -7559 0
-254 -211 7559 0
-456 -7560 0
139 -7560 0
456 -139 7560 0
-880 -7561 0
814 -7561 0
880 -814 7561 0
388 -7562 0
-172 -7562 0
-388 172 7562 0
936 -7563 0
518 -7563 0
-936 -518 7563 0
-128 -7564 0
873 -7564 0
128 -873 7564 0
94 -7565 0
-443 -7565 0
-94 443 7565 0
-698 -7566 0
458 -7566 0
698 -458 7566 0
952 -7567 0
88 -7567 0
-952 -88 7567 0
-352 -7568 0
540 -7568 0
352 -540 7568 0
-338 -7569 0
206 -7569 0
338 -206 7569 0
-232 -7570 0
676 -7570 0
232 -676 7570 0
324 -7571 0
898 -7571 0
-324 -898 7571 0
352 -7572 0
-39 -7572 0
-352 39 7572 0
434 -7573 0
594 -7573 0
-434 -594 7573 0
-550 -7574 0
297 -7574 0
550 -297 7574 0
-193 -7575 0
123 -7575 0
193 -123 7575 0
-512 -7576 0
719 -7576 0
512 -719 7576 0
32 -7577 0
351 -7577 0
-32 -351 7577 0
872 -7578 0
189 -7578 0
-872 -189 7578 0
996 -7579 0
154 -7579 0
-996 -154 7579 0
-752 -7580 0
841 -7580 0
752 -841 7580 0
807 -7581 0
707 -7581 0
-807 -707 7581 0
-609 -7582 0
571 -7582 0
609 -571 7582 0
44 -7583 0
-671 -7583 0
-44 671 7583 0
564 -7584 0
51 -7584 0
-564 -51 7584 0
767 -7585 0
-218 -7585 0
-767 218 7585 0
120 -7586 0
897 -7586 0
-120 -897 7586 0
559 -7587 0
-806 -7587 0
-559 806 7587 0
703 -7588 0
-532 -7588 0
-703 532 7588 0
342 -7589 0
-828 -7589 0
-342 828 7589 0
107 -7590 0
2 -7590 0
-107 -2 7590 0
-772 -7591 0
764 -7591 0
772 -764 7591 0
998 -7592 0
-634 -7592 0
-998 634 7592 0
280 -7593 0
611 -7593 0
-280 -611 7593 0
-785 -7594 0
298 -7594 0
785 -298 7594 0
531 -7595 0
-229 -7595 0
-531 229 7595 0
510 -7596 0
-298 -7596 0
-510 298 7596 0
-637 -7597 0
74 -7597 0
637 -74 7597 0
-754 -7598 0
724 -7598 0
754 -724 7598 0
231 -7599 0
727 -7599 0
-231 -727 7599 0
463 -7600 0
898 -7600 0
-463 -898 7600 0
157 -7601 0
812 -7601 0
-157 -812 7601 0
240 -7602 0
703 -7602 0
-240 -703 7602 0
478 -7603 0
-983 -7603 0
-478 983 7603 0
894 -7604 0
-82 -7604 0
-894 82 7604 0
694 -7605 0
-638 -7605 0
-694 638 7605 0
4 -7606 0
-820 -7606 0
-4 820 7606 0
918 -7607 0
525 -7607 0
-918 -525 7607 0
933 -7608 0
549 -7608 0
-933 -549 7608 0
813 -7609 0
667 -7609 0
-813 -667 7609 0
645 -7610 0
554 -7610 0
-645 -554 7610 0
757 -7611 0
196 -7611 0
-757 -196 7611 0
-632 -7612 0
926 -7612 0
632 -926 7612 0
598 -7613 0
963 -7613 0
-598 -963 7613 0
510 -7614 0
-988 -7614 0
-510 988 7614 0
-775 -7615 0
97 -7615 0
775 -97 7615 0
164 -7616 0
-710 -7616 0
-164 710 7616 0
324 -7617 0
859 -7617 0
-324 -859 7617 0
-441 -7618 0
308 -7618 0
441 -308 7618 0
103 -7619 0
180 -7619 0
-103 -180 7619 0
659 -7620 0
785 -7620 0
-659 -785 7620 0
664 -7621 0
-626 -7621 0
-664 626 7621 0
567 -7622 0
-77 -7622 0
-567 77 7622 0
-994 -7623 0
724 -7623 0
994 -724 7623 0
886 -7624 0
-798 -7624 0
-886 798 7624 0
-152 -7625 0
826 -7625 0
152 -826 7625 0
951 -7626 0
20 -7626 0
-951 -20 7626 0
570 -7627 0
-678 -7627 0
-570 678 7627 0
-67 -7628 0
125 -7628 0
67 -125 7628 0
790 -7629 0
-850 -7629 0
-790 850 7629 0
-818 -7630 0
565 -7630 0
818 -565 7630 0
-74 -7631 0
531 -7631 0
74 -531 7631 0
-274 -7632 0
665 -7632 0
274 -665 7632 0
863 -7633 0
-699 -7633 0
-863 699 7633 0
846 -7634 0
67 -7634 0
-846 -67 7634 0
280 -7635 0
-582 -7635 0
-280 582 7635 0
340 -7636 0
-92 -7636 0
-340 92 7636 0
-112 -7637 0
846 -7637 0
112 -846 7637 0
423 -7638 0
-95 -7638 0
-423 95 7638 0
-784 -7639 0
430 -7639 0
784 -430 7639 0
-258 -7640 0
49 -7640 0
258 -49 7640 0
814 -7641 0
-623 -7641 0
-814 623 7641 0
189 -7642 0
-863 -7642 0
-189 863 7642 0
-555 -7643 0
212 -7643 0
555 -212 7643 0
770 -7644 0
593 -7644 0
-770 -593 7644 0
-553 -7645 0
309 -7645 0
553 -309 7645 0
957 -7646 0
-837 -7646 0
-957 837 7646 0
591 -7647 0
533 -7647 0
-591 -533 7647 0
367 -7648 0
-572 -7648 0
-367 572 7648 0
691 -7649 0
274 -7649 0
-691 -274 7649 0
622 -7650 0
398 -7650 0
-622 -398 7650 0
422 -7651 0
932 -7651 0
-422 -932 7651 0
-712 -7652 0
314 -7652 0
712 -314 7652 0
537 -7653 0
-655 -7653 0
-537 655 7653 0
239 -7654 0
-198 -7654 0
-239 198 7654 0
120 -7655 0
-751 -7655 0
-120 751 7655 0
-301 -7656 0
434 -7656 0
301 -434 7656 0
-801 -7657 0
115 -7657 0
801 -115 7657 0
-994 -7658 0
876 -7658 0
994 -876 7658 0
-720 -7659 0
212 -7659 0
720 -212 7659 0
366 -7660 0
233 -7660 0
-366 -233 7660 0
307 -7661 0
313 -7661 0
-307 -313 7661 0
-952 -7662 0
773 -7662 0
952 -773 7662 0
661 -7663 0
226 -7663 0
-661 -226 7663 0
133 -7664 0
635 -7664 0
-133 -635 7664 0
165 -7665 0
90 -7665 0
-165 -90 7665 0
-289 -7666 0
605 -7666 0
289 -605 7666 0
24 -7667 0
998 -7667 0
-24 -998 7667 0
-643 -7668 0
985 -7668 0
643 -985 7668 0
680 -7669 0
634 -7669 0
-680 -634 7669 0
-194 -7670 0
877 -7670 0
194 -877 7670 0
398 -7671 0
910 -7671 0
-398 -910 7671 0
-585 -7672 0
607 -7672 0
585 -607 7672 0
566 -7673 0
550 -7673 0
-566 -550 7673 0
45 -7674 0
61 -7674 0
-45 -61 7674 0
540 -7675 0
-902 -7675 0
-540 902 7675 0
820 -7676 0
-621 -7676 0
-820 621 7676 0
-421 -7677 0
953 -7677 0
421 -953 7677 0
-473 -7678 0
835 -7678 0
473 -835 7678 0
-724 -7679 0
531 -7679 0
724 -531 7679 0
878 -7680 0
546 -7680 0
-878 -546 7680 0
797 -7681 0
124 -7681 0
-797 -124 7681 0
455 -7682 0
-851 -7682 0
-455 851 7682 0
606 -7683 0
418 -7683 0
-606 -418 7683 0
744 -7684 0
933 -7684 0
-744 -933 7684 0
656 -7685 0
253 -7685 0
-656 -253 7685 0
31 -7686 0
-124 -7686 0
-31 124 7686 0
40 -7687 0
111 -7687 0
-40 -111 7687 0
991 -7688 0
-158 -7688 0
-991 158 7688 0
264 -7689 0
-165 -7689 0
-264 165 7689 0
831 -7690 0
-879 -7690 0
-831 879 7690 0
493 -7691 0
-419 -7691 0
-493 419 7691 0
-923 -7692 0
730 -7692 0
923 -730 7692 0
970 -7693 0
-15 -7693 0
-970 15 7693 0
-531 -7694 0
777 -7694 0
531 -777 7694 0
396 -7695 0
25 -7695 0
-396 -25 7695 0
-361 -7696 0
203 -7696 0
361 -203 7696 0
207 -7697 0
-930 -7697 0
-207 930 7697 0
355 -7698 0
202 -7698 0
-355 -202 7698 0
-353 -7699 0
190 -7699 0
353 -190 7699 0
-88 -7700 0
4 -7700 0
88 -4 7700 0
271 -7701 0
-292 -7701 0
-271 292 7701 0
-336 -7702 0
760 -7702 0
336 -760 7702 0
799 -7703 0
-994 -7703 0
-799 994 7703 0
131 -7704 0
-622 -7704 0
-131 622 7704 0
471 -7705 0
892 -7705 0
-471 -892 7705 0
-676 -7706 0
651 -7706 0
676 -651 7706 0
349 -7707 0
-775 -7707 0
-349 775 7707 0
806 -7708 0
-479 -7708 0
-806 479 7708 0
575 -7709 0
116 -7709 0
-575 -116 7709 0
312 -7710 0
260 -7710 0
-312 -260 7710 0
-898 -7711 0
633 -7711 0
898 -633 7711 0
696 -7712 0
-756 -7712 0
-696 756 7712 0
-161 -7713 0
309 -7713 0
161 -309 7713 0
662 -7714 0
549 -7714 0
-662 -549 7714 0
624 -7715 0
446 -7715 0
-624 -446 7715 0
285 -7716 0
780 -7716 0
-285 -780 7716 0
-75 -7717 0
682 -7717 0
75 -682 7717 0
785 -7718 0
897 -7718 0
-785 -897 7718 0
8 -7719 0
-125 -7719 0
-8 125 7719 0
685 -7720 0
-509 -7720 0
-685 509 7720 0
440 -7721 0
887 -7721 0
-440 -887 7721 0
-67 -7722 0
825 -7722 0
67 -825 7722 0
151 -7723 0
-637 -7723 0
-151 637 7723 0
-716 -7724 0
115 -7724 0
716 -115 7724 0
684 -7725 0
-580 -7725 0
-684 580 7725 0
-97 -7726 0
911 -7726 0
97 -911 7726 0
40 -7727 0
728 -7727 0
-40 -728 7727 0
-912 -7728 0
543 -7728 0
912 -543 7728 0
962 -7729 0
841 -7729 0
-962 -841 7729 0
-906 -7730 0
81 -7730 0
906 -81 7730 0
732 -7731 0
306 -7731 0
-732 -306 7731 0
-925 -7732 0
522 -7732 0
925 -522 7732 0
-601 -7733 0
851 -7733 0
601 -851 7733 0
739 -7734 0
98 -7734 0
-739 -98 7734 0
-373 -7735 0
419 -7735 0
373 -419 7735 0
795 -7736 0
882 -7736 0
-795 -882 7736 0
717 -7737 0
-203 -7737 0
-717 203 7737 0
-400 -7738 0
600 -7738 0
400 -600 7738 0
923 -7739 0
-445 -7739 0
-923 445 7739 0
933 -7740 0
-700 -7740 0
-933 700 7740 0
-484 -7741 0
569 -7741 0
484 -569 7741 0
976 -7742 0
855 -7742 0
-976 -855 7742 0
-647 -7743 0
545 -7743 0
647 -545 7743 0
148 -7744 0
867 -7744 0
-148 -867 7744 0
943 -7745 0
-893 -7745 0
-943 893 7745 0
846 -7746 0
-738 -7746 0
-846 738 7746 0
848 -7747 0
-685 -7747 0
-848 685 7747 0
280 -7748 0
-582 -7748 0
-280 582 7748 0
984 -7749 0
657 -7749 0
-984 -657 7749 0
448 -7750 0
65 -7750 0
-448 -65 7750 0
655 -7751 0
94 -7751 0
-655 -94 7751 0
818 -7752 0
-478 -7752 0
-818 478 7752 0
429 -7753 0
533 -7753 0
-429 -533 7753 0
-121 -7754 0
334 -7754 0
121 -334 7754 0
944 -7755 0
-827 -7755 0
-944 827 7755 0
77 -7756 0
233 -7756 0
-77 -233 7756 0
837 -7757 0
10 -7757 0
-837 -10 7757 0
-705 -7758 0
166 -7758 0
705 -166 7758 0
458 -7759 0
729 -7759 0
-458 -729 7759 0
144 -7760 0
74 -7760 0
-144 -74 7760 0
917 -7761 0
12 -7761 0
-917 -12 7761 0
511 -7762 0
-615 -7762 0
-511 615 7762 0
940 -7763 0
-94 -7763 0
-940 94 7763 0
893 -7764 0
396 -7764 0
-893 -396 7764 0
670 -7765 0
-573 -7765 0
-670 573 7765 0
-888 -7766 0
904 -7766 0
888 -904 7766 0
371 -7767 0
897 -7767 0
-371 -897 7767 0
1000 -7768 0
585 -7768 0
-1000 -585 7768 0
-45 -7769 0
577 -7769 0
45 -577 7769 0
926 -7770 0
-61 -7770 0
-926 61 7770 0
864 -7771 0
961 -7771 0
-864 -961 7771 0
629 -7772 0
-351 -7772 0
-629 351 7772 0
-445 -7773 0
322 -7773 0
445 -322 7773 0
-659 -7774 0
211 -7774 0
659 -211 7774 0
759 -7775 0
791 -7775 0
-759 -791 7775 0
354 -7776 0
490 -7776 0
-354 -490 7776 0
198 -7777 0
-815 -7777 0
-198 815 7777 0
607 -7778 0
282 -7778 0
-607 -282 7778 0
-557 -7779 0
233 -7779 0
557 -233 7779 0
-531 -7780 0
705 -7780 0
531 -705 7780 0
-339 -7781 0
684 -7781 0
339 -684 7781 0
46 -7782 0
385 -7782 0
-46 -385 7782 0
-384 -7783 0
47 -7783 0
384 -47 7783 0
-897 -7784 0
845 -7784 0
897 -845 7784 0
-985 -7785 0
821 -7785 0
985 -821 7785 0
-222 -7786 0
498 -7786 0
222 -498 7786 0
574 -7787 0
921 -7787 0
-574 -921 7787 0
998 -7788 0
-654 -7788 0
-998 654 7788 0
455 -7789 0
335 -7789 0
-455 -335 7789 0
242 -7790 0
785 -7790 0
-242 -785 7790 0
-834 -7791 0
214 -7791 0
834 -214 7791 0
64 -7792 0
10 -7792 0
-64 -10 7792 0
-355 -7793 0
163 -7793 0
355 -163 7793 0
-582 -7794 0
826 -7794 0
582 -826 7794 0
-724 -7795 0
674 -7795 0
724 -674 7795 0
757 -7796 0
19 -7796 0
-757 -19 7796 0
792 -7797 0
884 -7797 0
-792 -884 7797 0
-408 -7798 0
192 -7798 0
408 -192 7798 0
7 -7799 0
898 -7799 0
-7 -898 7799 0
300 -7800 0
771 -7800 0
-300 -771 7800 0
408 -7801 0
-90 -7801 0
-408 90 7801 0
419 -7802 0
1 -7802 0
-419 -1 7802 0
208 -7803 0
-947 -7803 0
-208 947 7803 0
535 -7804 0
619 -7804 0
-535 -619 7804 0
750 -7805 0
-588 -7805 0
-750 588 7805 0
-739 -7806 0
777 -7806 0
739 -777 7806 0
743 -7807 0
-354 -7807 0
-743 354 7807 0
-465 -7808 0
607 -7808 0
465 -607 7808 0
-610 -7809 0
133 -7809 0
610 -133 7809 0
5 -7810 0
-247 -7810 0
-5 247 7810 0
500 -7811 0
994 -7811 0
-500 -994 7811 0
-675 -7812 0
219 -7812 0
675 -219 7812 0
-372 -7813 0
746 -7813 0
372 -746 7813 0
992 -7814 0
131 -7814 0
-992 -131 7814 0
884 -7815 0
-14 -7815 0
-884 14 7815 0
927 -7816 0
915 -7816 0
-927 -915 7816 0
-888 -7817 0
605 -7817 0
888 -605 7817 0
-858 -7818 0
963 -7818 0
858 -963 7818 0
784 -7819 0
287 -7819 0
-784 -287 7819 0
526 -7820 0
-91 -7820 0
-526 91 7820 0
134 -7821 0
-917 -7821 0
-134 917 7821 0
894 -7822 0
-716 -7822 0
-894 716 7822 0
693 -7823 0
545 -7823 0
-693 -545 7823 0
592 -7824 0
-49 -7824 0
-592 49 7824 0
888 -7825 0
-799 -7825 0
-888 799 7825 0
542 -7826 0
228 -7826 0
-542 -228 7826 0
182 -7827 0
364 -7827 0
-182 -364 7827 0
342 -7828 0
958 -7828 0
-342 -958 7828 0
-320 -7829 0
894 -7829 0
320 -894 7829 0
-52 -7830 0
707 -7830 0
52 -707 7830 0
728 -7831 0
-825 -7831 0
-728 825 7831 0
277 -7832 0
-395 -7832 0
-277 395 7832 0
239 -7833 0
1 -7833 0
-239 -1 7833 0
952 -7834 0
381 -7834 0
-952 -381 7834 0
151 -7835 0
-225 -7835 0
-151 225 7835 0
-267 -7836 0
362 -7836 0
267 -362 7836 0
798 -7837 0
-301 -7837 0
-798 301 7837 0
901 -7838 0
970 -7838 0
-901 -970 7838 0
435 -7839 0
114 -7839 0
-435 -114 7839 0
504 -7840 0
943 -7840 0
-504 -943 7840 0
861 -7841 0
42 -7841 0
-861 -42 7841 0
8 -7842 0
748 -7842 0
-8 -748 7842 0
-395 -7843 0
348 -7843 0
395 -348 7843 0
-223 -7844 0
17 -7844 0
223 -17 7844 0
-248 -7845 0
814 -7845 0
248 -814 7845 0
812 -7846 0
123 -7846 0
-812 -123 7846 0
-880 -7847 0
663 -7847 0
880 -663 7847 0
-170 -7848 0
722 -7848 0
170 -722 7848 0
40 -7849 0
334 -7849 0
-40 -334 7849 0
456 -7850 0
156 -7850 0
-456 -156 7850 0
-284 -7851 0
138 -7851 0
284 -138 7851 0
-856 -7852 0
884 -7852 0
856 -884 7852 0
670 -7853 0
-150 -7853 0
-670 150 7853 0
558 -7854 0
-20 -7854 0
-558 20 7854 0
936 -7855 0
617 -7855 0
-936 -617 7855 0
437 -7856 0
-629 -7856 0
-437 629 7856 0
-816 -7857 0
781 -7857 0
816 -781 7857 0
592 -7858 0
85 -7858 0
-592 -85 7858 0
-661 -7859 0
313 -7859 0
661 -313 7859 0
387 -7860 0
546 -7860 0
-387 -546 7860 0
760 -7861 0
773 -7861 0
-760 -773 7861 0
432 -7862 0
-875 -7862 0
-432 875 7862 0
320 -7863 0
505 -7863 0
-320 -505 7863 0
484 -7864 0
-614 -7864 0
-484 614 7864 0
-849 -7865 0
385 -7865 0
849 -385 7865 0
-12 -7866 0
627 -7866 0
12 -627 7866 0
224 -7867 0
373 -7867 0
-224 -373 7867 0
624 -7868 0
-813 -7868 0
-624 813 7868 0
37 -7869 0
533 -7869 0
-37 -533 7869 0
890 -7870 0
129 -7870 0
-890 -129 7870 0
895 -7871 0
969 -7871 0
-895 -969 7871 0
613 -7872 0
-823 -7872 0
-613 823 7872 0
135 -7873 0
-517 -7873 0
-135 517 7873 0
-563 -7874 0
849 -7874 0
563 -849 7874 0
916 -7875 0
-934 -7875 0
-916 934 7875 0
992 -7876 0
-647 -7876 0
-992 647 7876 0
725 -7877 0
-503 -7877 0
-725 503 7877 0
-937 -7878 0
450 -7878 0
937 -450 7878 0
-938 -7879 0
812 -7879 0
938 -812 7879 0
296 -7880 0
-787 -7880 0
-296 787 7880 0
80 -7881 0
151 -7881 0
-80 -151 7881 0
-114 -7882 0
865 -7882 0
114 -865 7882 0
-411 -7883 0
817 -7883 0
411 -817 7883 0
112 -7884 0
634 -7884 0
-112 -634 7884 0
-344 -7885 0
199 -7885 0
344 -199 7885 0
-49 -7886 0
842 -7886 0
49 -842 7886 0
688 -7887 0
609 -7887 0
-688 -609 7887 0
-72 -7888 0
961 -7888 0
72 -961 7888 0
-395 -7889 0
506 -7889 0
395 -506 7889 0
-134 -7890 0
362 -7890 0
134 -362 7890 0
-834 -7891 0
667 -7891 0
834 -667 7891 0
-227 -7892 0
356 -7892 0
227 -356 7892 0
559 -7893 0
-622 -7893 0
-559 622 7893 0
838 -7894 0
-578 -7894 0
-838 578 7894 0
591 -7895 0
-395 -7895 0
-591 395 7895 0
195 -7896 0
475 -7896 0
-195 -475 7896 0
-3 -7897 0
882 -7897 0
3 -882 7897 0
-489 -7898 0
163 -7898 0
489 -163 7898 0
630 -7899 0
35 -7899 0
-630 -35 7899 0
498 -7900 0
665 -7900 0
-498 -665 7900 0
135 -7901 0
892 -7901 0
-135 -892 7901 0
-778 -7902 0
139 -7902 0
778 -139 7902 0
120 -7903 0
906 -7903 0
-120 -906 7903 0
475 -7904 0
498 -7904 0
-475 -498 7904 0
-729 -7905 0
763 -7905 0
729 -763 7905 0
-500 -7906 0
523 -7906 0
500 -523 7906 0
742 -7907 0
-662 -7907 0
-742 662 7907 0
584 -7908 0
-377 -7908 0
-584 377 7908 0
314 -7909 0
514 -7909 0
-314 -514 7909 0
-328 -7910 0
649 -7910 0
328 -649 7910 0
-456 -7911 0
551 -7911 0
456 -551 7911 0
701 -7912 0
121 -7912 0
-701 -121 7912 0
5 -7913 0
-991 -7913 0
-5 991 7913 0
240 -7914 0
387 -7914 0
-240 -387 7914 0
-520 -7915 0
475 -7915 0
520 -475 7915 0
757 -7916 0
755 -7916 0
-757 -755 7916 0
351 -7917 0
-541 -7917 0
-351 541 7917 0
200 -7918 0
-993 -7918 0
-200 993 7918 0
-737 -7919 0
579 -7919 0
737 -579 7919 0
407 -7920 0
830 -7920 0
-407 -830 7920 0
880 -7921 0
371 -7921 0
-880 -371 7921 0
78 -7922 0
-332 -7922 0
-78 332 7922 0
736 -7923 0
-483 -7923 0
-736 483 7923 0
-915 -7924 0
281 -7924 0
915 -281 7924 0
397 -7925 0
-902 -7925 0
-397 902 7925 0
944 -7926 0
42 -7926 0
-944 -42 7926 0
222 -7927 0
137 -7927 0
-222 -137 7927 0
711 -7928 0
743 -7928 0
-711 -743 7928 0
619 -7929 0
498 -7929 0
-619 -498 7929 0
-56 -7930 0
671 -7930 0
56 -671 7930 0
-662 -7931 0
690 -7931 0
662 -690 7931 0
-307 -7932 0
393 -7932 0
307 -393 7932 0
-680 -7933 0
261 -7933 0
680 -261 7933 0
496 -7934 0
786 -7934 0
-496 -786 7934 0
40 -7935 0
-836 -7935 0
-40 836 7935 0
145 -7936 0
-887 -7936 0
-145 887 7936 0
-60 -7937 0
170 -7937 0
60 -170 7937 0
796 -7938 0
-998 -7938 0
-796 998 7938 0
654 -7939 0
-781 -7939 0
-654 781 7939 0
944 -7940 0
-657 -7940 0
-944 657 7940 0
829 -7941 0
-470 -7941 0
-829 470 7941 0
256 -7942 0
-351 -7942 0
-256 351 7942 0
-136 -7943 0
544 -7943 0
136 -544 7943 0
-920 -7944 0
738 -7944 0
920 -738 7944 0
938 -7945 0
-6 -7945 0
-938 6 7945 0
616 -7946 0
698 -7946 0
-616 -698 7946 0
517 -7947 0
-476 -7947 0
-517 476 7947 0
284 -7948 0
-670 -7948 0
-284 670 7948 0
212 -7949 0
913 -7949 0
-212 -913 7949 0
-556 -7950 0
507 -7950 0
556 -507 7950 0
-880 -7951 0
884 -7951 0
880 -884 7951 0
-824 -7952 0
492 -7952 0
824 -492 7952 0
878 -7953 0
430 -7953 0
-878 -430 7953 0
-179 -7954 0
385 -7954 0
179 -385 7954 0
-604 -7955 0
913 -7955 0
604 -913 7955 0
543 -7956 0
-436 -7956 0
-543 436 7956 0
-75 -7957 0
563 -7957 0
75 -563 7957 0
408 -7958 0
-421 -7958 0
-408 421 7958 0
207 -7959 0
-417 -7959 0
-207 417 7959 0
-757 -7960 0
730 -7960 0
757 -730 7960 0
-392 -7961 0
18 -7961 0
392 -18 7961 0
69 -7962 0
874 -7962 0
-69 -874 7962 0
736 -7963 0
-274 -7963 0
-736 274 7963 0
576 -7964 0
-29 -7964 0
-576 29 7964 0
208 -7965 0
855 -7965 0
-208 -855 7965 0
567 -7966 0
388 -7966 0
-567 -388 7966 0
-954 -7967 0
274 -7967 0
954 -274 7967 0
-571 -7968 0
876 -7968 0
571 -876 7968 0
439 -7969 0
18 -7969 0
-439 -18 7969 0
357 -7970 0
867 -7970 0
-357 -867 7970 0
287 -7971 0
749 -7971 0
-287 -749 7971 0
-214 -7972 0
273 -7972 0
214 -273 7972 0
238 -7973 0
-852 -7973 0
-238 852 7973 0
182 -7974 0
-535 -7974 0
-182 535 7974 0
189 -7975 0
-724 -7975 0
-189 724 7975 0
-531 -7976 0
242 -7976 0
531 -242 7976 0
643 -7977 0
657 -7977 0
-643 -657 7977 0
743 -7978 0
-67 -7978 0
-743 67 7978 0
-456 -7979 0
750 -7979 0
456 -750 7979 0
28 -7980 0
-239 -7980 0
-28 239 7980 0
166 -7981 0
-510 -7981 0
-166 510 7981 0
-874 -7982 0
546 -7982 0
874 -546 7982 0
328 -7983 0
315 -7983 0
-328 -315 7983 0
-256 -7984 0
17 -7984 0
256 -17 7984 0
496 -7985 0
635 -7985 0
-496 -635 7985 0
-96 -7986 0
296 -7986 0
96 -296 7986 0
824 -7987 0
326 -7987 0
-824 -326 7987 0
-100 -7988 0
34 -7988 0
100 -34 7988 0
787 -7989 0
211 -7989 0
-787 -211 7989 0
-889 -7990 0
238 -7990 0
889 -238 7990 0
856 -7991 0
-680 -7991 0
-856 680 7991 0
240 -7992 0
470 -7992 0
-240 -470 7992 0
550 -7993 0
-620 -7993 0
-550 620 7993 0
161 -7994 0
785 -7994 0
-161 -785 7994 0
550 -7995 0
766 -7995 0
-550 -766 7995 0
229 -7996 0
761 -7996 0
-229 -761 7996 0
455 -7997 0
-707 -7997 0
-455 707 7997 0
806 -7998 0
118 -7998 0
-806 -118 7998 0
-592 -7999 0
681 -7999 0
592 -681 7999 0
296 -8000 0
-899 -8000 0
-296 899 8000 0
379 -8001 0
-439 -8001 0
-379 439 8001 0
-712 -8002 0
633 -8002 0
712 -633 8002 0
318 -8003 0
214 -8003 0
-318 -214 8003 0
-339 -8004 0
451 -8004 0
339 -451 8004 0
860 -8005 0
-911 -8005 0
-860 911 8005 0
-412 -8006 0
793 -8006 0
412 -793 8006 0
13 -8007 0
-229 -8007 0
-13 229 8007 0
-256 -8008 0
583 -8008 0
256 -583 8008 0
591 -8009 0
-721 -8009 0
-591 721 8009 0
360 -8010 0
116 -8010 0
-360 -116 8010 0
-498 -8011 0
748 -8011 0
498 -748 8011 0
527 -8012 0
158 -8012 0
-527 -158 8012 0
834 -8013 0
-335 -8013 0
-834 335 8013 0
557 -8014 0
-631 -8014 0
-557 631 8014 0
310 -8015 0
-886 -8015 0
-310 886 8015 0
-186 -8016 0
556 -8016 0
186 -556 8016 0
-4 -8017 0
724 -8017 0
4 -724 8017 0
155 -8018 0
35 -8018 0
-155 -35 8018 0
-801 -8019 0
68 -8019 0
801 -68 8019 0
-344 -8020 0
337 -8020 0
344 -337 8020 0
438 -8021 0
-260 -8021 0
-438 260 8021 0
716 -8022 0
395 -8022 0
-716 -395 8022 0
415 -8023 0
668 -8023 0
-415 -668 8023 0
70 -8024 0
673 -8024 0
-70 -673 8024 0
304 -8025 0
126 -8025 0
-304 -126 8025 0
864 -8026 0
837 -8026 0
-864 -837 8026 0
159 -8027 0
517 -8027 0
-159 -517 8027 0
271 -8028 0
766 -8028 0
-271 -766 8028 0
983 -8029 0
-886 -8029 0
-983 886 8029 0
-172 -8030 0
609 -8030 0
172 -609 8030 0
-440 -8031 0
688 -8031 0
440 -688 8031 0
428 -8032 0
-21 -8032 0
-428 21 8032 0
703 -8033 0
-539 -8033 0
-703 539 8033 0
-342 -8034 0
193 -8034 0
342 -193 8034 0
764 -8035 0
2 -8035 0
-764 -2 8035 0
469 -8036 0
932 -8036 0
-469 -932 8036 0
493 -8037 0
853 -8037 0
-493 -853 8037 0
-330 -8038 0
716 -8038 0
330 -716 8038 0
77 -8039 0
145 -8039 0
-77 -145 8039 0
31 -8040 0
790 -8040 0
-31 -790 8040 0
74 -8041 0
-639 -8041 0
-74 639 8041 0
477 -8042 0
-230 -8042 0
-477 230 8042 0
765 -8043 0
-660 -8043 0
-765 660 8043 0
933 -8044 0
801 -8044 0
-933 -801 8044 0
555 -8045 0
-157 -8045 0
-555 157 8045 0
-680 -8046 0
714 -8046 0
680 -714 8046 0
528 -8047 0
-898 -8047 0
-528 898 8047 0
-97 -8048 0
379 -8048 0
97 -379 8048 0
296 -8049 0
-823 -8049 0
-296 823 8049 0
840 -8050 0
595 -8050 0
-840 -595 8050 0
557 -8051 0
-141 -8051 0
-557 141 8051 0
-571 -8052 0
580 -8052 0
571 -580 8052 0
475 -8053 0
883 -8053 0
-475 -883 8053 0
-920 -8054 0
770 -8054 0
920 -770 8054 0
-120 -8055 0
25 -8055 0
120 -25 8055 0
455 -8056 0
-678 -8056 0
-455 678 8056 0
-234 -8057 0
651 -8057 0
234 -651 8057 0
104 -8058 0
450 -8058 0
-104 -450 8058 0
-473 -8059 0
69 -8059 0
473 -69 8059 0
-714 -8060 0
426 -8060 0
714 -426 8060 0
362 -8061 0
305 -8061 0
-362 -305 8061 0
535 -8062 0
-679 -8062 0
-535 679 8062 0
-881 -8063 0
916 -8063 0
881 -916 8063 0
207 -8064 0
-18 -8064 0
-207 18 8064 0
320 -8065 0
-178 -8065 0
-320 178 8065 0
422 -8066 0
-613 -8066 0
-422 613 8066 0
-948 -8067 0
35 -8067 0
948 -35 8067 0
-344 -8068 0
52 -8068 0
344 -52 8068 0
133 -8069 0
476 -8069 0
-133 -476 8069 0
-175 -8070 0
825 -8070 0
175 -825 8070 0
-288 -8071 0
380 -8071 0
288 -380 8071 0
-298 -8072 0
203 -8072 0
298 -203 8072 0
459 -8073 0
-349 -8073 0
-459 349 8073 0
330 -8074 0
-526 -8074 0
-330 526 8074 0
536 -8075 0
529 -8075 0
-536 -529 8075 0
96 -8076 0
-735 -8076 0
-96 735 8076 0
128 -8077 0
-352 -8077 0
-128 352 8077 0
972 -8078 0
522 -8078 0
-972 -522 8078 0
-709 -8079 0
481 -8079 0
709 -481 8079 0
3 -8080 0
929 -8080 0
-3 -929 8080 0
152 -8081 0
-530 -8081 0
-152 530 8081 0
-370 -8082 0
251 -8082 0
370 -251 8082 0
244 -8083 0
467 -8083 0
-244 -467 8083 0
759 -8084 0
-140 -8084 0
-759 140 8084 0
594 -8085 0
-294 -8085 0
-594 294 8085 0
688 -8086 0
-836 -8086 0
-688 836 8086 0
798 -8087 0
-55 -8087 0
-798 55 8087 0
24 -8088 0
532 -8088 0
-24 -532 8088 0
-529 -8089 0
670 -8089 0
529 -670 8089 0
373 -8090 0
651 -8090 0
-373 -651 8090 0
-720 -8091 0
841 -8091 0
720 -841 8091 0
-640 -8092 0
237 -8092 0
640 -237 8092 0
103 -8093 0
665 -8093 0
-103 -665 8093 0
755 -8094 0
401 -8094 0
-755 -401 8094 0
606 -8095 0
954 -8095 0
-606 -954 8095 0
-898 -8096 0
470 -8096 0
898 -470 8096 0
-211 -8097 0
945 -8097 0
211 -945 8097 0
550 -8098 0
226 -8098 0
-550 -226 8098 0
40 -8099 0
-89 -8099 0
-40 89 8099 0
407 -8100 0
-932 -8100 0
-407 932 8100 0
804 -8101 0
689 -8101 0
-804 -689 8101 0
748 -8102 0
683 -8102 0
-748 -683 8102 0
515 -8103 0
930 -8103 0
-515 -930 8103 0
500 -8104 0
-311 -8104 0
-500 311 8104 0
715 -8105 0
665 -8105 0
-715 -665 8105 0
846 -8106 0
-981 -8106 0
-846 981 8106 0
798 -8107 0
-950 -8107 0
-798 950 8107 0
-276 -8108 0
386 -8108 0
276 -386 8108 0
372 -8109 0
-343 -8109 0
-372 343 8109 0
-114 -8110 0
281 -8110 0
114 -281 8110 0
236 -8111 0
-574 -8111 0
-236 574 8111 0
813 -8112 0
-566 -8112 0
-813 566 8112 0
479 -8113 0
-499 -8113 0
-479 499 8113 0
677 -8114 0
-319 -8114 0
-677 319 8114 0
333 -8115 0
349 -8115 0
-333 -349 8115 0
-25 -8116 0
197 -8116 0
25 -197 8116 0
-122 -8117 0
161 -8117 0
122 -161 8117 0
536 -8118 0
-524 -8118 0
-536 524 8118 0
343 -8119 0
468 -8119 0
-343 -468 8119 0
-878 -8120 0
18 -8120 0
878 -18 8120 0
520 -8121 0
97 -8121 0
-520 -97 8121 0
370 -8122 0
841 -8122 0
-370 -841 8122 0
832 -8123 0
165 -8123 0
-832 -165 8123 0
477 -8124 0
569 -8124 0
-477 -569 8124 0
-386 -8125 0
85 -8125 0
386 -85 8125 0
-450 -8126 0
234 -8126 0
450 -234 8126 0
-282 -8127 0
49 -8127 0
282 -49 8127 0
445 -8128 0
-227 -8128 0
-445 227 8128 0
887 -8129 0
-740 -8129 0
-887 740 8129 0
-791 -8130 0
105 -8130 0
791 -105 8130 0
568 -8131 0
-872 -8131 0
-568 872 8131 0
54 -8132 0
-693 -8132 0
-54 693 8132 0
712 -8133 0
877 -8133 0
-712 -877 8133 0
-89 -8134 0
982 -8134 0
89 -982 8134 0
839 -8135 0
-758 -8135 0
-839 758 8135 0
312 -8136 0
663 -8136 0
-312 -663 8136 0
655 -8137 0
-116 -8137 0
-655 116 8137 0
-817 -8138 0
437 -8138 0
817 -437 8138 0
652 -8139 0
-549 -8139 0
-652 549 8139 0
95 -8140 0
-190 -8140 0
-95 190 8140 0
380 -8141 0
-7 -8141 0
-380 7 8141 0
476 -8142 0
665 -8142 0
-476 -665 8142 0
-827 -8143 0
2 -8143 0
827 -2 8143 0
391 -8144 0
-254 -8144 0
-391 254 8144 0
-409 -8145 0
577 -8145 0
409 -577 8145 0
774 -8146 0
-391 -8146 0
-774 391 8146 0
608 -8147 0
635 -8147 0
-608 -635 8147 0
629 -8148 0
-236 -8148 0
-629 236 8148 0
853 -8149 0
-149 -8149 0
-853 149 8149 0
-733 -8150 0
513 -8150 0
733 -513 8150 0
-733 -8151 0
810 -8151 0
733 -810 8151 0
766 -8152 0
972 -8152 0
-766 -972 8152 0
15 -8153 0
636 -8153 0
-15 -636 8153 0
302 -8154 0
465 -8154 0
-302 -465 8154 0
168 -8155 0
-65 -8155 0
-168 65 8155 0
616 -8156 0
-864 -8156 0
-616 864 8156 0
304 -8157 0
-258 -8157 0
-304 258 8157 0
656 -8158 0
-884 -8158 0
-656 884 8158 0
-401 -8159 0
526 -8159 0
401 -526 8159 0
498 -8160 0
-207 -8160 0
-498 207 8160 0
189 -8161 0
34 -8161 0
-189 -34 8161 0
-32 -8162 0
714 -8162 0
32 -714 8162 0
245 -8163 0
-663 -8163 0
-245 663 8163 0
-348 -8164 0
555 -8164 0
348 -555 8164 0
-272 -8165 0
693 -8165 0
272 -693 8165 0
-812 -8166 0
411 -8166 0
812 -411 8166 0
199 -8167 0
-439 -8167 0
-199 439 8167 0
709 -8168 0
-878 -8168 0
-709 878 8168 0
-77 -8169 0
970 -8169 0
77 -970 8169 0
608 -8170 0
-132 -8170 0
-608 132 8170 0
456 -8171 0
-703 -8171 0
-456 703 8171 0
349 -8172 0
-750 -8172 0
-349 750 8172 0
-417 -8173 0
395 -8173 0
417 -395 8173 0
551 -8174 0
862 -8174 0
-551 -862 8174 0
775 -8175 0
-164 -8175 0
-775 164 8175 0
691 -8176 0
746 -8176 0
-691 -746 8176 0
-527 -8177 0
337 -8177 0
527 -337 8177 0
192 -8178 0
738 -8178 0
-192 -738 8178 0
854 -8179 0
-102 -8179 0
-854 102 8179 0
55 -8180 0
142 -8180 0
-55 -142 8180 0
-872 -8181 0
527 -8181 0
872 -527 8181 0
808 -8182 0
-607 -8182 0
-808 607 8182 0
342 -8183 0
196 -8183 0
-342 -196 8183 0
-251 -8184 0
500 -8184 0
251 -500 8184 0
-712 -8185 0
769 -8185 0
712 -769 8185 0
134 -8186 0
209 -8186 0
-134 -209 8186 0
606 -8187 0
-238 -8187 0
-606 238 8187 0
811 -8188 0
890 -8188 0
-811 -890 8188 0
418 -8189 0
-551 -8189 0
-418 551 8189 0
-458 -8190 0
235 -8190 0
458 -235 8190 0
-225 -8191 0
899 -8191 0
225 -899 8191 0
-699 -8192 0
980 -8192 0
699 -980 8192 0
-573 -8193 0
954 -8193 0
573 -954 8193 0
583 -8194 0
-180 -8194 0
-583 180 8194 0
895 -8195 0
-164 -8195 0
-895 164 8195 0
800 -8196 0
832 -8196 0
-800 -832 8196 0
-161 -8197 0
978 -8197 0
161 -978 8197 0
319 -8198 0
-180 -8198 0
-319 180 8198 0
494 -8199 0
-958 -8199 0
-494 958 8199 0
-978 -8200 0
130 -8200 0
978 -130 8200 0
24 -8201 0
-564 -8201 0
-24 564 8201 0
-890 -8202 0
652 -8202 0
890 -652 8202 0
190 -8203 0
-68 -8203 0
-190 68 8203 0
852 -8204 0
-415 -8204 0
-852 415 8204 0
125 -8205 0
-527 -8205 0
-125 527 8205 0
-611 -8206 0
651 -8206 0
611 -651 8206 0
841 -8207 0
785 -8207 0
-841 -785 8207 0
-196 -8208 0
251 -8208 0
196 -251 8208 0
886 -8209 0
209 -8209 0
-886 -209 8209 0
744 -8210 0
-998 -8210 0
-744 998 8210 0
-976 -8211 0
796 -8211 0
976 -796 8211 0
183 -8212 0
60 -8212 0
-183 -60 8212 0
-897 -8213 0
934 -8213 0
897 -934 8213 0
-344 -8214 0
911 -8214 0
344 -911 8214 0
-666 -8215 0
742 -8215 0
666 -742 8215 0
440 -8216 0
-247 -8216 0
-440 247 8216 0
844 -8217 0
-855 -8217 0
-844 855 8217 0
-330 -8218 0
298 -8218 0
330 -298 8218 0
803 -8219 0
-847 -8219 0
-803 847 8219 0
888 -8220 0
626 -8220 0
-888 -626 8220 0
58 -8221 0
506 -8221 0
-58 -506 8221 0
776 -8222 0
-358 -8222 0
-776 358 8222 0
-400 -8223 0
620 -8223 0
400 -620 8223 0
256 -8224 0
-953 -8224 0
-256 953 8224 0
-370 -8225 0
242 -8225 0
370 -242 8225 0
-69 -8226 0
442 -8226 0
69 -442 8226 0
326 -8227 0
-47 -8227 0
-326 47 8227 0
511 -8228 0
41 -8228 0
-511 -41 8228 0
-461 -8229 0
35 -8229 0
461 -35 8229 0
286 -8230 0
754 -8230 0
-286 -754 8230 0
-392 -8231 0
255 -8231 0
392 -255 8231 0
415 -8232 0
265 -8232 0
-415 -265 8232 0
-318 -8233 0
257 -8233 0
318 -257 8233 0
704 -8234 0
-216 -8234 0
-704 216 8234 0
550 -8235 0
-908 -8235 0
-550 908 8235 0
232 -8236 0
226 -8236 0
-232 -226 8236 0
-221 -8237 0
930 -8237 0
221 -930 8237 0
708 -8238 0
986 -8238 0
-708 -986 8238 0
-733 -8239 0
219 -8239 0
733 -219 8239 0
32 -8240 0
502 -8240 0
-32 -502 8240 0
631 -8241 0
229 -8241 0
-631 -229 8241 0
888 -8242 0
-662 -8242 0
-888 662 8242 0
387 -8243 0
-47 -8243 0
-387 47 8243 0
-107 -8244 0
75 -8244 0
107 -75 8244 0
893 -8245 0
313 -8245 0
-893 -313 8245 0
830 -8246 0
-428 -8246 0
-830 428 8246 0
76 -8247 0
498 -8247 0
-76 -498 8247 0
-889 -8248 0
195 -8248 0
889 -195 8248 0
152 -8249 0
501 -8249 0
-152 -501 8249 0
938 -8250 0
681 -8250 0
-938 -681 8250 0
549 -8251 0
289 -8251 0
-549 -289 8251 0
-898 -8252 0
414 -8252 0
898 -414 8252 0
-666 -8253 0
434 -8253 0
666 -434 8253 0
823 -8254 0
894 -8254 0
-823 -894 8254 0
647 -8255 0
269 -8255 0
-647 -269 8255 0
972 -8256 0
754 -8256 0
-972 -754 8256 0
149 -8257 0
756 -8257 0
-149 -756 8257 0
-537 -8258 0
318 -8258 0
537 -318 8258 0
-9 -8259 0
684 -8259 0
9 -684 8259 0
559 -8260 0
978 -8260 0
-559 -978 8260 0
652 -8261 0
-572 -8261 0
-652 572 8261 0
783 -8262 0
-287 -8262 0
-783 287 8262 0
340 -8263 0
49 -8263 0
-340 -49 8263 0
424 -8264 0
913 -8264 0
-424 -913 8264 0
-917 -8265 0
154 -8265 0
917 -154 8265 0
413 -8266 0
-180 -8266 0
-413 180 8266 0
61 -8267 0
426 -8267 0
-61 -426 8267 0
-955 -8268 0
316 -8268 0
955 -316 8268 0
-522 -8269 0
947 -8269 0
522 -947 8269 0
863 -8270 0
-998 -8270 0
-863 998 8270 0
144 -8271 0
-998 -8271 0
-144 998 8271 0
290 -8272 0
-286 -8272 0
-290 286 8272 0
-474 -8273 0
36 -8273 0
474 -36 8273 0
336 -8274 0
506 -8274 0
-336 -506 8274 0
179 -8275 0
883 -8275 0
-179 -883 8275 0
-916 -8276 0
498 -8276 0
916 -498 8276 0
589 -8277 0
481 -8277 0
-589 -481 8277 0
334 -8278 0
14 -8278 0
-334 -14 8278 0
316 -8279 0
411 -8279 0
-316 -411 8279 0
-301 -8280 0
578 -8280 0
301 -578 8280 0
675 -8281 0
-6 -8281 0
-675 6 8281 0
45 -8282 0
682 -8282 0
-45 -682 8282 0
216 -8283 0
-756 -8283 0
-216 756 8283 0
591 -8284 0
-469 -8284 0
-591 469 8284 0
965 -8285 0
265 -8285 0
-965 -265 8285 0
101 -8286 0
643 -8286 0
-101 -643 8286 0
-75 -8287 0
506 -8287 0
75 -506 8287 0
-529 -8288 0
636 -8288 0
529 -636 8288 0
694 -8289 0
-364 -8289 0
-694 364 8289 0
606 -8290 0
649 -8290 0
-606 -649 8290 0
623 -8291 0
-379 -8291 0
-623 379 8291 0
-354 -8292 0
105 -8292 0
354 -105 8292 0
-310 -8293 0
657 -8293 0
310 -657 8293 0
152 -8294 0
469 -8294 0
-152 -469 8294 0
-251 -8295 0
652 -8295 0
251 -652 8295 0
-99 -8296 0
931 -8296 0
99 -931 8296 0
452 -8297 0
-622 -8297 0
-452 622 8297 0
-457 -8298 0
997 -8298 0
457 -997 8298 0
566 -8299 0
-30 -8299 0
-566 30 8299 0
-785 -8300 0
516 -8300 0
785 -516 8300 0
-968 -8301 0
457 -8301 0
968 -457 8301 0
-34 -8302 0
225 -8302 0
34 -225 8302 0
798 -8303 0
42 -8303 0
-798 -42 8303 0
967 -8304 0
-910 -8304 0
-967 910 8304 0
954 -8305 0
162 -8305 0
-954 -162 8305 0
-529 -8306 0
206 -8306 0
529 -206 8306 0
799 -8307 0
117 -8307 0
-799 -117 8307 0
101 -8308 0
747 -8308 0
-101 -747 8308 0
78 -8309 0
459 -8309 0
-78 -459 8309 0
259 -8310 0
194 -8310 0
-259 -194 8310 0
-250 -8311 0
405 -8311 0
250 -405 8311 0
462 -8312 0
260 -8312 0
-462 -260 8312 0
588 -8313 0
-773 -8313 0
-588 773 8313 0
279 -8314 0
147 -8314 0
-279 -147 8314 0
18 -8315 0
-895 -8315 0
-18 895 8315 0
214 -8316 0
-74 -8316 0
-214 74 8316 0
915 -8317 0
178 -8317 0
-915 -178 8317 0
591 -8318 0
634 -8318 0
-591 -634 8318 0
37 -8319 0
-663 -8319 0
-37 663 8319 0
-482 -8320 0
381 -8320 0
482 -381 8320 0
382 -8321 0
-677 -8321 0
-382 677 8321 0
569 -8322 0
849 -8322 0
-569 -849 8322 0
838 -8323 0
626 -8323 0
-838 -626 8323 0
527 -8324 0
-209 -8324 0
-527 209 8324 0
-544 -8325 0
50 -8325 0
544 -50 8325 0
976 -8326 0
441 -8326 0
-976 -441 8326 0
319 -8327 0
678 -8327 0
-319 -678 8327 0
92 -8328 0
-156 -8328 0
-92 156 8328 0
871 -8329 0
173 -8329 0
-871 -173 8329 0
884 -8330 0
-421 -8330 0
-884 421 8330 0
399 -8331 0
99 -8331 0
-399 -99 8331 0
-316 -8332 0
985 -8332 0
316 -985 8332 0
247 -8333 0
622 -8333 0
-247 -622 8333 0
92 -8334 0
753 -8334 0
-92 -753 8334 0
952 -8335 0
-282 -8335 0
-952 282 8335 0
215 -8336 0
-890 -8336 0
-215 890 8336 0
842 -8337 0
-190 -8337 0
-842 190 8337 0
157 -8338 0
874 -8338 0
-157 -874 8338 0
744 -8339 0
825 -8339 0
-744 -825 8339 0
742 -8340 0
309 -8340 0
-742 -309 8340 0
726 -8341 0
-195 -8341 0
-726 195 8341 0
-746 -8342 0
405 -8342 0
746 -405 8342 0
-64 -8343 0
586 -8343 0
64 -586 8343 0
181 -8344 0
642 -8344 0
-181 -642 8344 0
800 -8345 0
560 -8345 0
-800 -560 8345 0
-168 -8346 0
620 -8346 0
168 -620 8346 0
-346 -8347 0
97 -8347 0
346 -97 8347 0
340 -8348 0
-772 -8348 0
-340 772 8348 0
-441 -8349 0
212 -8349 0
441 -212 8349 0
-186 -8350 0
787 -8350 0
186 -787 8350 0
971 -8351 0
281 -8351 0
-971 -281 8351 0
127 -8352 0
763 -8352 0
-127 -763 8352 0
136 -8353 0
-433 -8353 0
-136 433 8353 0
803 -8354 0
-901 -8354 0
-803 901 8354 0
287 -8355 0
889 -8355 0
-287 -889 8355 0
175 -8356 0
-907 -8356 0
-175 907 8356 0
624 -8357 0
-204 -8357 0
-624 204 8357 0
-840 -8358 0
150 -8358 0
840 -150 8358 0
-16 -8359 0
642 -8359 0
16 -642 8359 0
-2 -8360 0
345 -8360 0
2 -345 8360 0
736 -8361 0
-168 -8361 0
-736 168 8361 0
966 -8362 0
785 -8362 0
-966 -785 8362 0
463 -8363 0
-667 -8363 0
-463 667 8363 0
-458 -8364 0
92 -8364 0
458 -92 8364 0
-961 -8365 0
954 -8365 0
961 -954 8365 0
-953 -8366 0
291 -8366 0
953 -291 8366 0
672 -8367 0
259 -8367 0
-672 -259 8367 0
824 -8368 0
787 -8368 0
-824 -787 8368 0
-586 -8369 0
787 -8369 0
586 -787 8369 0
-913 -8370 0
251 -8370 0
913 -251 8370 0
604 -8371 0
-910 -8371 0
-604 910 8371 0
672 -8372 0
-848 -8372 0
-672 848 8372 0
-582 -8373 0
865 -8373 0
582 -865 8373 0
422 -8374 0
587 -8374 0
-422 -587 8374 0
519 -8375 0
141 -8375 0
-519 -141 8375 0
354 -8376 0
-71 -8376 0
-354 71 8376 0
270 -8377 0
557 -8377 0
-270 -557 8377 0
-120 -8378 0
591 -8378 0
120 -591 8378 0
686 -8379 0
307 -8379 0
-686 -307 8379 0
181 -8380 0
-123 -8380 0
-181 123 8380 0
680 -8381 0
301 -8381 0
-680 -301 8381 0
743 -8382 0
-667 -8382 0
-743 667 8382 0
-890 -8383 0
765 -8383 0
890 -765 8383 0
736 -8384 0
297 -8384 0
-736 -297 8384 0
228 -8385 0
-462 -8385 0
-228 462 8385 0
-449 -8386 0
793 -8386 0
449 -793 8386 0
62 -8387 0
325 -8387 0
-62 -325 8387 0
511 -8388 0
37 -8388 0
-511 -37 8388 0
-350 -8389 0
682 -8389 0
350 -682 8389 0
638 -8390 0
50 -8390 0
-638 -50 8390 0
-282 -8391 0
949 -8391 0
282 -949 8391 0
839 -8392 0
-854 -8392 0
-839 854 8392 0
288 -8393 0
64 -8393 0
-288 -64 8393 0
-808 -8394 0
68 -8394 0
808 -68 8394 0
95 -8395 0
-813 -8395 0
-95 813 8395 0
272 -8396 0
-469 -8396 0
-272 469 8396 0
171 -8397 0
34 -8397 0
-171 -34 8397 0
-360 -8398 0
228 -8398 0
360 -228 8398 0
704 -8399 0
69 -8399 0
-704 -69 8399 0
-90 -8400 0
89 -8400 0
90 -89 8400 0
-776 -8401 0
61 -8401 0
776 -61 8401 0
-896 -8402 0
354 -8402 0
896 -354 8402 0
910 -8403 0
-468 -8403 0
-910 468 8403 0
974 -8404 0
-877 -8404 0
-974 877 8404 0
-953 -8405 0
767 -8405 0
953 -767 8405 0
791 -8406 0
839 -8406 0
-791 -839 8406 0
31 -8407 0
561 -8407 0
-31 -561 8407 0
64 -8408 0
13 -8408 0
-64 -13 8408 0
398 -8409 0
341 -8409 0
-398 -341 8409 0
919 -8410 0
522 -8410 0
-919 -522 8410 0
541 -8411 0
45 -8411 0
-541 -45 8411 0
982 -8412 0
482 -8412 0
-982 -482 8412 0
604 -8413 0
-718 -8413 0
-604 718 8413 0
414 -8414 0
-531 -8414 0
-414 531 8414 0
-513 -8415 0
723 -8415 0
513 -723 8415 0
611 -8416 0
-439 -8416 0
-611 439 8416 0
-563 -8417 0
657 -8417 0
563 -657 8417 0
148 -8418 0
91 -8418 0
-148 -91 8418 0
22 -8419 0
513 -8419 0
-22 -513 8419 0
432 -8420 0
-649 -8420 0
-432 649 8420 0
-843 -8421 0
545 -8421 0
843 -545 8421 0
182 -8422 0
-100 -8422 0
-182 100 8422 0
352 -8423 0
-503 -8423 0
-352 503 8423 0
-545 -8424 0
141 -8424 0
545 -141 8424 0
-90 -8425 0
493 -8425 0
90 -493 8425 0
677 -8426 0
-751 -8426 0
-677 751 8426 0
384 -8427 0
372 -8427 0
-384 -372 8427 0
-842 -8428 0
938 -8428 0
842 -938 8428 0
990 -8429 0
-382 -8429 0
-990 382 8429 0
-682 -8430 0
484 -8430 0
682 -484 8430 0
973 -8431 0
-260 -8431 0
-973 260 8431 0
-632 -8432 0
-997 -8433 0
539 -8433 0
997 -539 8433 0
740 -8434 0
627 -8434 0
-740 -627 8434 0
951 -8435 0
-972 -8435 0
-951 972 8435 0
344 -8436 0
567 -8436 0
-344 -567 8436 0
592 -8437 0
29 -8437 0
-592 -29 8437 0
296 -8438 0
-514 -8438 0
-296 514 8438 0
976 -8439 0
-138 -8439 0
-976 138 8439 0
949 -8440 0
-247 -8440 0
-949 247 8440 0
814 -8441 0
836 -8441 0
-814 -836 8441 0
419 -8442 0
393 -8442 0
-419 -393 8442 0
527 -8443 0
-819 -8443 0
-527 819 8443 0
-344 -8444 0
131 -8444 0
344 -131 8444 0
342 -8445 0
28 -8445 0
-342 -28 8445 0
-361 -8446 0
877 -8446 0
361 -877 8446 0
668 -8447 0
489 -8447 0
-668 -489 8447 0
104 -8448 0
169 -8448 0
-104 -169 8448 0
392 -8449 0
700 -8449 0
-392 -700 8449 0
-953 -8450 0
819 -8450 0
953 -819 8450 0
503 -8451 0
-75 -8451 0
-503 75 8451 0
390 -8452 0
-500 -8452 0
-390 500 8452 0
739 -8453 0
474 -8453 0
-739 -474 8453 0
-337 -8454 0
465 -8454 0
337 -465 8454 0
-37 -8455 0
426 -8455 0
37 -426 8455 0
168 -8456 0
875 -8456 0
-168 -875 8456 0
-216 -8457 0
291 -8457 0
216 -291 8457 0
455 -8458 0
862 -8458 0
-455 -862 8458 0
-288 -8459 0
868 -8459 0
288 -868 8459 0
104 -8460 0
-599 -8460 0
-104 599 8460 0
-948 -8461 0
795 -8461 0
948 -795 8461 0
535 -8462 0
173 -8462 0
-535 -173 8462 0
509 -8463 0
-468 -8463 0
-509 468 8463 0
-636 -8464 0
764 -8464 0
636 -764 8464 0
459 -8465 0
-511 -8465 0
-459 511 8465 0
187 -8466 0
395 -8466 0
-187 -395 8466 0
-105 -8467 0
590 -8467 0
105 -590 8467 0
537 -8468 0
17 -8468 0
-537 -17 8468 0
-408 -8469 0
71 -8469 0
408 -71 8469 0
754 -8470 0
-191 -8470 0
-754 191 8470 0
853 -8471 0
188 -8471 0
-853 -188 8471 0
431 -8472 0
364 -8472 0
-431 -364 8472 0
77 -8473 0
-814 -8473 0
-77 814 8473 0
-904 -8474 0
471 -8474 0
904 -471 8474 0
884 -8475 0
-599 -8475 0
-884 599 8475 0
56 -8476 0
105 -8476 0
-56 -105 8476 0
976 -8477 0
-687 -8477 0
-976 687 8477 0
151 -8478 0
387 -8478 0
-151 -387 8478 0
171 -8479 0
-325 -8479 0
-171 325 8479 0
918 -8480 0
-676 -8480 0
-918 676 8480 0
-289 -8481 0
710 -8481 0
289 -710 8481 0
-957 -8482 0
379 -8482 0
957 -379 8482 0
-171 -8483 0
866 -8483 0
171 -866 8483 0
879 -8484 0
237 -8484 0
-879 -237 8484 0
991 -8485 0
3 -8485 0
-991 -3 8485 0
294 -8486 0
209 -8486 0
-294 -209 8486 0
774 -8487 0
205 -8487 0
-774 -205 8487 0
93 -8488 0
369 -8488 0
-93 -369 8488 0
47 -8489 0
-454 -8489 0
-47 454 8489 0
-964 -8490 0
187 -8490 0
964 -187 8490 0
-741 -8491 0
617 -8491 0
741 -617 8491 0
451 -8492 0
-415 -8492 0
-451 415 8492 0
696 -8493 0
741 -8493 0
-696 -741 8493 0
-842 -8494 0
810 -8494 0
842 -810 8494 0
190 -8495 0
-82 -8495 0
-190 82 8495 0
-834 -8496 0
700 -8496 0
834 -700 8496 0
-749 -8497 0
595 -8497 0
749 -595 8497 0
389 -8498 0
484 -8498 0
-389 -484 8498 0
-385 -8499 0
973 -8499 0
385 -973 8499 0
664 -8500 0
305 -8500 0
-664 -305 8500 0
800 -8501 0
-987 -8501 0
-800 987 8501 0
975 -8502 0
605 -8502 0
-975 -605 8502 0
119 -8503 0
487 -8503 0
-119 -487 8503 0
191 -8504 0
60 -8504 0
-191 -60 8504 0
750 -8505 0
-477 -8505 0
-750 477 8505 0
10 -8506 0
25 -8506 0
-10 -25 8506 0
-33 -8507 0
82 -8507 0
33 -82 8507 0
48 -8508 0
-780 -8508 0
-48 780 8508 0
-228 -8509 0
930 -8509 0
228 -930 8509 0
513 -8510 0
257 -8510 0
-513 -257 8510 0
765 -8511 0
-628 -8511 0
-765 628 8511 0
-228 -8512 0
409 -8512 0
228 -409 8512 0
-904 -8513 0
643 -8513 0
904 -643 8513 0
-896 -8514 0
476 -8514 0
896 -476 8514 0
-10 -8515 0
500 -8515 0
10 -500 8515 0
406 -8516 0
-276 -8516 0
-406 276 8516 0
789 -8517 0
-614 -8517 0
-789 614 8517 0
80 -8518 0
115 -8518 0
-80 -115 8518 0
-631 -8519 0
57 -8519 0
631 -57 8519 0
184 -8520 0
-595 -8520 0
-184 595 8520 0
-241 -8521 0
813 -8521 0
241 -813 8521 0
782 -8522 0
-331 -8522 0
-782 331 8522 0
-530 -8523 0
645 -8523 0
530 -645 8523 0
792 -8524 0
-651 -8524 0
-792 651 8524 0
-552 -8525 0
668 -8525 0
552 -668 8525 0
680 -8526 0
-462 -8526 0
-680 462 8526 0
344 -8527 0
499 -8527 0
-344 -499 8527 0
134 -8528 0
-786 -8528 0
-134 786 8528 0
632 -8529 0
-752 -8529 0
-632 752 8529 0
-821 -8530 0
963 -8530 0
821 -963 8530 0
487 -8531 0
525 -8531 0
-487 -525 8531 0
592 -8532 0
-687 -8532 0
-592 687 8532 0
-400 -8533 0
870 -8533 0
400 -870 8533 0
-288 -8534 0
363 -8534 0
288 -363 8534 0
-486 -8535 0
441 -8535 0
486 -441 8535 0
-8 -8536 0
859 -8536 0
8 -859 8536 0
671 -8537 0
190 -8537 0
-671 -190 8537 0
494 -8538 0
453 -8538 0
-494 -453 8538 0
668 -8539 0
-886 -8539 0
-668 886 8539 0
-489 -8540 0
409 -8540 0
489 -409 8540 0
383 -8541 0
-47 -8541 0
-383 47 8541 0
359 -8542 0
981 -8542 0
-359 -981 8542 0
-977 -8543 0
684 -8543 0
977 -684 8543 0
288 -8544 0
291 -8544 0
-288 -291 8544 0
117 -8545 0
601 -8545 0
-117 -601 8545 0
6 -8546 0
-548 -8546 0
-6 548 8546 0
819 -8547 0
-111 -8547 0
-819 111 8547 0
-33 -8548 0
618 -8548 0
33 -618 8548 0
-89 -8549 0
49 -8549 0
89 -49 8549 0
725 -8550 0
-646 -8550 0
-725 646 8550 0
-384 -8551 0
394 -8551 0
384 -394 8551 0
-996 -8552 0
337 -8552 0
996 -337 8552 0
-521 -8553 0
595 -8553 0
521 -595 8553 0
574 -8554 0
-356 -8554 0
-574 356 8554 0
114 -8555 0
418 -8555 0
-114 -418 8555 0
368 -8556 0
889 -8556 0
-368 -889 8556 0
645 -8557 0
603 -8557 0
-645 -603 8557 0
560 -8558 0
892 -8558 0
-560 -892 8558 0
568 -8559 0
158 -8559 0
-568 -158 8559 0
971 -8560 0
906 -8560 0
-971 -906 8560 0
-145 -8561 0
356 -8561 0
145 -356 8561 0
-665 -8562 0
957 -8562 0
665 -957 8562 0
595 -8563 0
-510 -8563 0
-595 510 8563 0
739 -8564 0
641 -8564 0
-739 -641 8564 0
65 -8565 0
-607 -8565 0
-65 607 8565 0
168 -8566 0
393 -8566 0
-168 -393 8566 0
613 -8567 0
-718 -8567 0
-613 718 8567 0
-742 -8568 0
881 -8568 0
742 -881 8568 0
814 -8569 0
-98 -8569 0
-814 98 8569 0
588 -8570 0
761 -8570 0
-588 -761 8570 0
176 -8571 0
-812 -8571 0
-176 812 8571 0
135 -8572 0
-820 -8572 0
-135 820 8572 0
-232 -8573 0
715 -8573 0
232 -715 8573 0
-17 -8574 0
214 -8574 0
17 -214 8574 0
262 -8575 0
-102 -8575 0
-262 102 8575 0
-476 -8576 0
435 -8576 0
476 -435 8576 0
660 -8577 0
522 -8577 0
-660 -522 8577 0
-272 -8578 0
168 -8578 0
272 -168 8578 0
564 -8579 0
-223 -8579 0
-564 223 8579 0
-245 -8580 0
970 -8580 0
245 -970 8580 0
175 -8581 0
450 -8581 0
-175 -450 8581 0
40 -8582 0
-667 -8582 0
-40 667 8582 0
672 -8583 0
-635 -8583 0
-672 635 8583 0
118 -8584 0
638 -8584 0
-118 -638 8584 0
310 -8585 0
60 -8585 0
-310 -60 8585 0
231 -8586 0
-213 -8586 0
-231 213 8586 0
903 -8587 0
-132 -8587 0
-903 132 8587 0
638 -8588 0
-591 -8588 0
-638 591 8588 0
-732 -8589 0
162 -8589 0
732 -162 8589 0
600 -8590 0
123 -8590 0
-600 -123 8590 0
207 -8591 0
-931 -8591 0
-207 931 8591 0
-737 -8592 0
854 -8592 0
737 -854 8592 0
-354 -8593 0
797 -8593 0
354 -797 8593 0
752 -8594 0
-858 -8594 0
-752 858 8594 0
254 -8595 0
132 -8595 0
-254 -132 8595 0
610 -8596 0
930 -8596 0
-610 -930 8596 0
-992 -8597 0
757 -8597 0
992 -757 8597 0
223 -8598 0
234 -8598 0
-223 -234 8598 0
543 -8599 0
17 -8599 0
-543 -17 8599 0
563 -8600 0
995 -8600 0
-563 -995 8600 0
853 -8601 0
881 -8601 0
-853 -881 8601 0
160 -8602 0
565 -8602 0
-160 -565 8602 0
-113 -8603 0
265 -8603 0
113 -265 8603 0
616 -8604 0
-590 -8604 0
-616 590 8604 0
351 -8605 0
610 -8605 0
-351 -610 8605 0
198 -8606 0
-668 -8606 0
-198 668 8606 0
-200 -8607 0
911 -8607 0
200 -911 8607 0
23 -8608 0
-82 -8608 0
-23 82 8608 0
557 -8609 0
57 -8609 0
-557 -57 8609 0
558 -8610 0
-190 -8610 0
-558 190 8610 0
694 -8611 0
-639 -8611 0
-694 639 8611 0
493 -8612 0
909 -8612 0
-493 -909 8612 0
742 -8613 0
-278 -8613 0
-742 278 8613 0
774 -8614 0
374 -8614 0
-774 -374 8614 0
361 -8615 0
-303 -8615 0
-361 303 8615 0
-57 -8616 0
828 -8616 0
57 -828 8616 0
-357 -8617 0
547 -8617 0
357 -547 8617 0
999 -8618 0
-853 -8618 0
-999 853 8618 0
622 -8619 0
902 -8619 0
-622 -902 8619 0
-844 -8620 0
314 -8620 0
844 -314 8620 0
44 -8621 0
178 -8621 0
-44 -178 8621 0
-325 -8622 0
914 -8622 0
325 -914 8622 0
103 -8623 0
-203 -8623 0
-103 203 8623 0
-320 -8624 0
563 -8624 0
320 -563 8624 0
-65 -8625 0
187 -8625 0
65 -187 8625 0
758 -8626 0
-291 -8626 0
-758 291 8626 0
-515 -8627 0
129 -8627 0
515 -129 8627 0
30 -8628 0
-54 -8628 0
-30 54 8628 0
128 -8629 0
-149 -8629 0
-128 149 8629 0
911 -8630 0
388 -8630 0
-911 -388 8630 0
-852 -8631 0
850 -8631 0
852 -850 8631 0
-961 -8632 0
363 -8632 0
961 -363 8632 0
-303 -8633 0
41 -8633 0
303 -41 8633 0
-440 -8634 0
253 -8634 0
440 -253 8634 0
956 -8635 0
401 -8635 0
-956 -401 8635 0
256 -8636 0
938 -8636 0
-256 -938 8636 0
-881 -8637 0
405 -8637 0
881 -405 8637 0
877 -8638 0
317 -8638 0
-877 -317 8638 0
-148 -8639 0
796 -8639 0
148 -796 8639 0
-179 -8640 0
764 -8640 0
179 -764 8640 0
-904 -8641 0
956 -8641 0
904 -956 8641 0
-729 -8642 0
340 -8642 0
729 -340 8642 0
-627 -8643 0
165 -8643 0
627 -165 8643 0
484 -8644 0
771 -8644 0
-484 -771 8644 0
415 -8645 0
973 -8645 0
-415 -973 8645 0
288 -8646 0
75 -8646 0
-288 -75 8646 0
172 -8647 0
-461 -8647 0
-172 461 8647 0
-956 -8648 0
676 -8648 0
956 -676 8648 0
720 -8649 0
802 -8649 0
-720 -802 8649 0
-57 -8650 0
378 -8650 0
57 -378 8650 0
503 -8651 0
515 -8651 0
-503 -515 8651 0
976 -8652 0
502 -8652 0
-976 -502 8652 0
75 -8653 0
785 -8653 0
-75 -785 8653 0
992 -8654 0
-721 -8654 0
-992 721 8654 0
-168 -8655 0
283 -8655 0
168 -283 8655 0
989 -8656 0
-987 -8656 0
-989 987 8656 0
476 -8657 0
-366 -8657 0
-476 366 8657 0
-547 -8658 0
835 -8658 0
547 -835 8658 0
920 -8659 0
934 -8659 0
-920 -934 8659 0
539 -8660 0
-783 -8660 0
-539 783 8660 0
-732 -8661 0
140 -8661 0
732 -140 8661 0
87 -8662 0
332 -8662 0
-87 -332 8662 0
-261 -8663 0
570 -8663 0
261 -570 8663 0
582 -8664 0
334 -8664 0
-582 -334 8664 0
941 -8665 0
649 -8665 0
-941 -649 8665 0
596 -8666 0
307 -8666 0
-596 -307 8666 0
832 -8667 0
399 -8667 0
-832 -399 8667 0
-521 -8668 0
622 -8668 0
521 -622 8668 0
630 -8669 0
314 -8669 0
-630 -314 8669 0
791 -8670 0
-317 -8670 0
-791 317 8670 0
360 -8671 0
-698 -8671 0
-360 698 8671 0
-945 -8672 0
260 -8672 0
945 -260 8672 0
840 -8673 0
178 -8673 0
-840 -178 8673 0
979 -8674 0
-567 -8674 0
-979 567 8674 0
728 -8675 0
260 -8675 0
-728 -260 8675 0
960 -8676 0
-908 -8676 0
-960 908 8676 0
47 -8677 0
-214 -8677 0
-47 214 8677 0
136 -8678 0
281 -8678 0
-136 -281 8678 0
-73 -8679 0
753 -8679 0
73 -753 8679 0
496 -8680 0
314 -8680 0
-496 -314 8680 0
-308 -8681 0
875 -8681 0
308 -875 8681 0
112 -8682 0
188 -8682 0
-112 -188 8682 0
621 -8683 0
-716 -8683 0
-621 716 8683 0
971 -8684 0
179 -8684 0
-971 -179 8684 0
431 -8685 0
-525 -8685 0
-431 525 8685 0
598 -8686 0
-92 -8686 0
-598 92 8686 0
104 -8687 0
-916 -8687 0
-104 916 8687 0
230 -8688 0
-44 -8688 0
-230 44 8688 0
470 -8689 0
-940 -8689 0
-470 940 8689 0
491 -8690 0
107 -8690 0
-491 -107 8690 0
-310 -8691 0
393 -8691 0
310 -393 8691 0
966 -8692 0
-317 -8692 0
-966 317 8692 0
311 -8693 0
276 -8693 0
-311 -276 8693 0
279 -8694 0
-731 -8694 0
-279 731 8694 0
72 -8695 0
-947 -8695 0
-72 947 8695 0
552 -8696 0
-305 -8696 0
-552 305 8696 0
572 -8697 0
538 -8697 0
-572 -538 8697 0
-124 -8698 0
202 -8698 0
124 -202 8698 0
-596 -8699 0
107 -8699 0
596 -107 8699 0
973 -8700 0
-747 -8700 0
-973 747 8700 0
221 -8701 0
-963 -8701 0
-221 963 8701 0
843 -8702 0
-718 -8702 0
-843 718 8702 0
559 -8703 0
421 -8703 0
-559 -421 8703 0
120 -8704 0
540 -8704 0
-120 -540 8704 0
860 -8705 0
513 -8705 0
-860 -513 8705 0
-859 -8706 0
233 -8706 0
859 -233 8706 0
463 -8707 0
470 -8707 0
-463 -470 8707 0
-420 -8708 0
722 -8708 0
420 -722 8708 0
669 -8709 0
81 -8709 0
-669 -81 8709 0
-169 -8710 0
675 -8710 0
169 -675 8710 0
-746 -8711 0
138 -8711 0
746 -138 8711 0
247 -8712 0
466 -8712 0
-247 -466 8712 0
7 -8713 0
313 -8713 0
-7 -313 8713 0
654 -8714 0
74 -8714 0
-654 -74 8714 0
359 -8715 0
-374 -8715 0
-359 374 8715 0
-542 -8716 0
353 -8716 0
542 -353 8716 0
-633 -8717 0
308 -8717 0
633 -308 8717 0
110 -8718 0
-866 -8718 0
-110 866 8718 0
309 -8719 0
-974 -8719 0
-309 974 8719 0
535 -8720 0
-199 -8720 0
-535 199 8720 0
262 -8721 0
-867 -8721 0
-262 867 8721 0
493 -8722 0
453 -8722 0
-493 -453 8722 0
125 -8723 0
465 -8723 0
-125 -465 8723 0
583 -8724 0
385 -8724 0
-583 -385 8724 0
-393 -8725 0
574 -8725 0
393 -574 8725 0
925 -8726 0
-382 -8726 0
-925 382 8726 0
973 -8727 0
825 -8727 0
-973 -825 8727 0
208 -8728 0
-204 -8728 0
-208 204 8728 0
-200 -8729 0
329 -8729 0
200 -329 8729 0
358 -8730 0
19 -8730 0
-358 -19 8730 0
-821 -8731 0
57 -8731 0
821 -57 8731 0
140 -8732 0
-997 -8732 0
-140 997 8732 0
288 -8733 0
978 -8733 0
-288 -978 8733 0
968 -8734 0
-366 -8734 0
-968 366 8734 0
864 -8735 0
-554 -8735 0
-864 554 8735 0
698 -8736 0
-295 -8736 0
-698 295 8736 0
813 -8737 0
-838 -8737 0
-813 838 8737 0
-363 -8738 0
105 -8738 0
363 -105 8738 0
912 -8739 0
826 -8739 0
-912 -826 8739 0
286 -8740 0
371 -8740 0
-286 -371 8740 0
930 -8741 0
569 -8741 0
-930 -569 8741 0
-704 -8742 0
980 -8742 0
704 -980 8742 0
587 -8743 0
65 -8743 0
-587 -65 8743 0
-561 -8744 0
419 -8744 0
561 -419 8744 0
949 -8745 0
-287 -8745 0
-949 287 8745 0
-264 -8746 0
15 -8746 0
264 -15 8746 0
640 -8747 0
297 -8747 0
-640 -297 8747 0
608 -8748 0
-11 -8748 0
-608 11 8748 0
166 -8749 0
-21 -8749 0
-166 21 8749 0
947 -8750 0
-893 -8750 0
-947 893 8750 0
671 -8751 0
37 -8751 0
-671 -37 8751 0
200 -8752 0
733 -8752 0
-200 -733 8752 0
688 -8753 0
-512 -8753 0
-688 512 8753 0
32 -8754 0
-538 -8754 0
-32 538 8754 0
-337 -8755 0
682 -8755 0
337 -682 8755 0
301 -8756 0
637 -8756 0
-301 -637 8756 0
-83 -8757 0
458 -8757 0
83 -458 8757 0
762 -8758 0
-919 -8758 0
-762 919 8758 0
926 -8759 0
921 -8759 0
-926 -921 8759 0
120 -8760 0
867 -8760 0
-120 -867 8760 0
-849 -8761 0
77 -8761 0
849 -77 8761 0
372 -8762 0
977 -8762 0
-372 -977 8762 0
669 -8763 0
545 -8763 0
-669 -545 8763 0
-322 -8764 0
210 -8764 0
322 -210 8764 0
-291 -8765 0
314 -8765 0
291 -314 8765 0
822 -8766 0
212 -8766 0
-822 -212 8766 0
180 -8767 0
-471 -8767 0
-180 471 8767 0
165 -8768 0
-71 -8768 0
-165 71 8768 0
156 -8769 0
-404 -8769 0
-156 404 8769 0
69 -8770 0
-243 -8770 0
-69 243 8770 0
-746 -8771 0
115 -8771 0
746 -115 8771 0
-58 -8772 0
76 -8772 0
58 -76 8772 0
-964 -8773 0
675 -8773 0
964 -675 8773 0
-196 -8774 0
643 -8774 0
196 -643 8774 0
678 -8775 0
491 -8775 0
-678 -491 8775 0
747 -8776 0
-421 -8776 0
-747 421 8776 0
-192 -8777 0
841 -8777 0
192 -841 8777 0
-361 -8778 0
956 -8778 0
361 -956 8778 0
-120 -8779 0
728 -8779 0
120 -728 8779 0
664 -8780 0
-848 -8780 0
-664 848 8780 0
636 -8781 0
211 -8781 0
-636 -211 8781 0
959 -8782 0
-559 -8782 0
-959 559 8782 0
-776 -8783 0
291 -8783 0
776 -291 8783 0
392 -8784 0
409 -8784 0
-392 -409 8784 0
-555 -8785 0
267 -8785 0
555 -267 8785 0
-993 -8786 0
324 -8786 0
993 -324 8786 0
612 -8787 0
-324 -8787 0
-612 324 8787 0
-722 -8788 0
83 -8788 0
722 -83 8788 0
877 -8789 0
-789 -8789 0
-877 789 8789 0
710 -8790 0
-900 -8790 0
-710 900 8790 0
548 -8791 0
827 -8791 0
-548 -827 8791 0
-419 -8792 0
194 -8792 0
419 -194 8792 0
672 -8793 0
-589 -8793 0
-672 589 8793 0
609 -8794 0
969 -8794 0
-609 -969 8794 0
741 -8795 0
394 -8795 0
-741 -394 8795 0
197 -8796 0
-916 -8796 0
-197 916 8796 0
-273 -8797 0
467 -8797 0
273 -467 8797 0
388 -8798 0
506 -8798 0
-388 -506 8798 0
-517 -8799 0
91 -8799 0
517 -91 8799 0
-882 -8800 0
921 -8800 0
882 -921 8800 0
-75 -8801 0
300 -8801 0
75 -300 8801 0
413 -8802 0
187 -8802 0
-413 -187 8802 0
135 -8803 0
-50 -8803 0
-135 50 8803 0
951 -8804 0
655 -8804 0
-951 -655 8804 0
464 -8805 0
-534 -8805 0
-464 534 8805 0
884 -8806 0
114 -8806 0
-884 -114 8806 0
432 -8807 0
-186 -8807 0
-432 186 8807 0
687 -8808 0
180 -8808 0
-687 -180 8808 0
351 -8809 0
-314 -8809 0
-351 314 8809 0
894 -8810 0
-167 -8810 0
-894 167 8810 0
352 -8811 0
558 -8811 0
-352 -558 8811 0
-784 -8812 0
262 -8812 0
784 -262 8812 0
-202 -8813 0
764 -8813 0
202 -764 8813 0
992 -8814 0
-601 -8814 0
-992 601 8814 0
-662 -8815 0
897 -8815 0
662 -897 8815 0
-553 -8816 0
204 -8816 0
553 -204 8816 0
-408 -8817 0
265 -8817 0
408 -265 8817 0
244 -8818 0
467 -8818 0
-244 -467 8818 0
-513 -8819 0
524 -8819 0
513 -524 8819 0
-768 -8820 0
425 -8820 0
768 -425 8820 0
-248 -8821 0
643 -8821 0
248 -643 8821 0
307 -8822 0
754 -8822 0
-307 -754 8822 0
-339 -8823 0
954 -8823 0
339 -954 8823 0
-985 -8824 0
126 -8824 0
985 -126 8824 0
-617 -8825 0
674 -8825 0
617 -674 8825 0
-482 -8826 0
913 -8826 0
482 -913 8826 0
87 -8827 0
-509 -8827 0
-87 509 8827 0
134 -8828 0
661 -8828 0
-134 -661 8828 0
-513 -8829 0
572 -8829 0
513 -572 8829 0
104 -8830 0
291 -8830 0
-104 -291 8830 0
-539 -8831 0
181 -8831 0
539 -181 8831 0
914 -8832 0
530 -8832 0
-914 -530 8832 0
214 -8833 0
401 -8833 0
-214 -401 8833 0
432 -8834 0
457 -8834 0
-432 -457 8834 0
934 -8835 0
-319 -8835 0
-934 319 8835 0
-689 -8836 0
274 -8836 0
689 -274 8836 0
270 -8837 0
-931 -8837 0
-270 931 8837 0
582 -8838 0
-445 -8838 0
-582 445 8838 0
-562 -8839 0
74 -8839 0
562 -74 8839 0
439 -8840 0
73 -8840 0
-439 -73 8840 0
632 -8841 0
-748 -8841 0
-632 748 8841 0
-251 -8842 0
293 -8842 0
251 -293 8842 0
950 -8843 0
531 -8843 0
-950 -531 8843 0
976 -8844 0
23 -8844 0
-976 -23 8844 0
-352 -8845 0
501 -8845 0
352 -501 8845 0
-4 -8846 0
19 -8846 0
4 -19 8846 0
221 -8847 0
-796 -8847 0
-221 796 8847 0
976 -8848 0
-78 -8848 0
-976 78 8848 0
623 -8849 0
669 -8849 0
-623 -669 8849 0
756 -8850 0
-773 -8850 0
-756 773 8850 0
157 -8851 0
715 -8851 0
-157 -715 8851 0
804 -8852 0
331 -8852 0
-804 -331 8852 0
560 -8853 0
844 -8853 0
-560 -844 8853 0
623 -8854 0
357 -8854 0
-623 -357 8854 0
-842 -8855 0
516 -8855 0
842 -516 8855 0
-48 -8856 0
720 -8856 0
48 -720 8856 0
589 -8857 0
-125 -8857 0
-589 125 8857 0
697 -8858 0
217 -8858 0
-697 -217 8858 0
766 -8859 0
-927 -8859 0
-766 927 8859 0
-740 -8860 0
170 -8860 0
740 -170 8860 0
152 -8861 0
-181 -8861 0
-152 181 8861 0
421 -8862 0
-92 -8862 0
-421 92 8862 0
183 -8863 0
135 -8863 0
-183 -135 8863 0
62 -8864 0
526 -8864 0
-62 -526 8864 0
460 -8865 0
931 -8865 0
-460 -931 8865 0
-592 -8866 0
505 -8866 0
592 -505 8866 0
-179 -8867 0
27 -8867 0
179 -27 8867 0
38 -8868 0
105 -8868 0
-38 -105 8868 0
608 -8869 0
-534 -8869 0
-608 534 8869 0
888 -8870 0
921 -8870 0
-888 -921 8870 0
60 -8871 0
-791 -8871 0
-60 791 8871 0
455 -8872 0
956 -8872 0
-455 -956 8872 0
997 -8873 0
-358 -8873 0
-997 358 8873 0
-221 -8874 0
202 -8874 0
221 -202 8874 0
311 -8875 0
252 -8875 0
-311 -252 8875 0
991 -8876 0
572 -8876 0
-991 -572 8876 0
364 -8877 0
-621 -8877 0
-364 621 8877 0
12 -8878 0
281 -8878 0
-12 -281 8878 0
95 -8879 0
466 -8879 0
-95 -466 8879 0
496 -8880 0
461 -8880 0
-496 -461 8880 0
-953 -8881 0
547 -8881 0
953 -547 8881 0
323 -8882 0
266 -8882 0
-323 -266 8882 0
583 -8883 0
3 -8883 0
-583 -3 8883 0
-272 -8884 0
718 -8884 0
272 -718 8884 0
-276 -8885 0
770 -8885 0
276 -770 8885 0
958 -8886 0
337 -8886 0
-958 -337 8886 0
149 -8887 0
-870 -8887 0
-149 870 8887 0
635 -8888 0
-846 -8888 0
-635 846 8888 0
-952 -8889 0
207 -8889 0
952 -207 8889 0
-114 -8890 0
645 -8890 0
114 -645 8890 0
895 -8891 0
19 -8891 0
-895 -19 8891 0
55 -8892 0
-39 -8892 0
-55 39 8892 0
391 -8893 0
-570 -8893 0
-391 570 8893 0
-168 -8894 0
403 -8894 0
168 -403 8894 0
335 -8895 0
-99 -8895 0
-335 99 8895 0
335 -8896 0
-806 -8896 0
-335 806 8896 0
-962 -8897 0
222 -8897 0
962 -222 8897 0
884 -8898 0
-942 -8898 0
-884 942 8898 0
438 -8899 0
-643 -8899 0
-438 643 8899 0
-346 -8900 0
642 -8900 0
346 -642 8900 0
-410 -8901 0
773 -8901 0
410 -773 8901 0
191 -8902 0
-390 -8902 0
-191 390 8902 0
-16 -8903 0
574 -8903 0
16 -574 8903 0
-219 -8904 0
434 -8904 0
219 -434 8904 0
-116 -8905 0
505 -8905 0
116 -505 8905 0
759 -8906 0
866 -8906 0
-759 -866 8906 0
836 -8907 0
-141 -8907 0
-836 141 8907 0
-672 -8908 0
95 -8908 0
672 -95 8908 0
335 -8909 0
397 -8909 0
-335 -397 8909 0
943 -8910 0
-844 -8910 0
-943 844 8910 0
403 -8911 0
41 -8911 0
-403 -41 8911 0
-97 -8912 0
471 -8912 0
97 -471 8912 0
-246 -8913 0
225 -8913 0
246 -225 8913 0
476 -8914 0
-599 -8914 0
-476 599 8914 0
375 -8915 0
491 -8915 0
-375 -491 8915 0
556 -8916 0
241 -8916 0
-556 -241 8916 0
396 -8917 0
-55 -8917 0
-396 55 8917 0
-937 -8918 0
525 -8918 0
937 -525 8918 0
37 -8919 0
771 -8919 0
-37 -771 8919 0
-913 -8920 0
611 -8920 0
913 -611 8920 0
-536 -8921 0
928 -8921 0
536 -928 8921 0
-668 -8922 0
305 -8922 0
668 -305 8922 0
868 -8923 0
-84 -8923 0
-868 84 8923 0
397 -8924 0
-726 -8924 0
-397 726 8924 0
640 -8925 0
434 -8925 0
-640 -434 8925 0
-600 -8926 0
630 -8926 0
600 -630 8926 0
512 -8927 0
-708 -8927 0
-512 708 8927 0
816 -8928 0
111 -8928 0
-816 -111 8928 0
797 -8929 0
-951 -8929 0
-797 951 8929 0
-585 -8930 0
324 -8930 0
585 -324 8930 0
-977 -8931 0
502 -8931 0
977 -502 8931 0
-361 -8932 0
134 -8932 0
361 -134 8932 0
388 -8933 0
52 -8933 0
-388 -52 8933 0
-86 -8934 0
386 -8934 0
86 -386 8934 0
-618 -8935 0
202 -8935 0
618 -202 8935 0
782 -8936 0
-172 -8936 0
-782 172 8936 0
357 -8937 0
825 -8937 0
-357 -825 8937 0
166 -8938 0
820 -8938 0
-166 -820 8938 0
734 -8939 0
-59 -8939 0
-734 59 8939 0
19 -8940 0
291 -8940 0
-19 -291 8940 0
545 -8941 0
697 -8941 0
-545 -697 8941 0
-396 -8942 0
930 -8942 0
396 -930 8942 0
283 -8943 0
443 -8943 0
-283 -443 8943 0
-489 -8944 0
778 -8944 0
489 -778 8944 0
853 -8945 0
-836 -8945 0
-853 836 8945 0
39 -8946 0
-612 -8946 0
-39 612 8946 0
-452 -8947 0
322 -8947 0
452 -322 8947 0
840 -8948 0
-281 -8948 0
-840 281 8948 0
328 -8949 0
-278 -8949 0
-328 278 8949 0
916 -8950 0
-796 -8950 0
-916 796 8950 0
-920 -8951 0
238 -8951 0
920 -238 8951 0
-208 -8952 0
302 -8952 0
208 -302 8952 0
559 -8953 0
876 -8953 0
-559 -876 8953 0
10 -8954 0
-599 -8954 0
-10 599 8954 0
651 -8955 0
-743 -8955 0
-651 743 8955 0
334 -8956 0
756 -8956 0
-334 -756 8956 0
-626 -8957 0
141 -8957 0
626 -141 8957 0
910 -8958 0
418 -8958 0
-910 -418 8958 0
-847 -8959 0
841 -8959 0
847 -841 8959 0
-507 -8960 0
601 -8960 0
507 -601 8960 0
478 -8961 0
-108 -8961 0
-478 108 8961 0
418 -8962 0
-502 -8962 0
-418 502 8962 0
160 -8963 0
-882 -8963 0
-160 882 8963 0
-345 -8964 0
826 -8964 0
345 -826 8964 0
589 -8965 0
140 -8965 0
-589 -140 8965 0
-145 -8966 0
722 -8966 0
145 -722 8966 0
62 -8967 0
-5 -8967 0
-62 5 8967 0
-570 -8968 0
449 -8968 0
570 -449 8968 0
-974 -8969 0
482 -8969 0
974 -482 8969 0
253 -8970 0
-69 -8970 0
-253 69 8970 0
469 -8971 0
445 -8971 0
-469 -445 8971 0
-483 -8972 0
338 -8972 0
483 -338 8972 0
253 -8973 0
-742 -8973 0
-253 742 8973 0
152 -8974 0
732 -8974 0
-152 -732 8974 0
144 -8975 0
-233 -8975 0
-144 233 8975 0
238 -8976 0
-445 -8976 0
-238 445 8976 0
989 -8977 0
-420 -8977 0
-989 420 8977 0
884 -8978 0
322 -8978 0
-884 -322 8978 0
167 -8979 0
-854 -8979 0
-167 854 8979 0
-77 -8980 0
323 -8980 0
77 -323 8980 0
247 -8981 0
-69 -8981 0
-247 69 8981 0
527 -8982 0
789 -8982 0
-527 -789 8982 0
-939 -8983 0
969 -8983 0
939 -969 8983 0
-250 -8984 0
377 -8984 0
250 -377 8984 0
-756 -8985 0
457 -8985 0
756 -457 8985 0
56 -8986 0
318 -8986 0
-56 -318 8986 0
397 -8987 0
-165 -8987 0
-397 165 8987 0
-113 -8988 0
524 -8988 0
113 -524 8988 0
-729 -8989 0
730 -8989 0
729 -730 8989 0
159 -8990 0
-789 -8990 0
-159 789 8990 0
701 -8991 0
-708 -8991 0
-701 708 8991 0
701 -8992 0
371 -8992 0
-701 -371 8992 0
-738 -8993 0
238 -8993 0
738 -238 8993 0
891 -8994 0
-623 -8994 0
-891 623 8994 0
652 -8995 0
553 -8995 0
-652 -553 8995 0
422 -8996 0
-100 -8996 0
-422 100 8996 0
406 -8997 0
357 -8997 0
-406 -357 8997 0
878 -8998 0
324 -8998 0
-878 -324 8998 0
101 -8999 0
28 -8999 0
-101 -28 8999 0
709 -9000 0
-589 -9000 0
-709 589 9000 0
934 -9001 0
181 -9001 0
-934 -181 9001 0
96 -9002 0
534 -9002 0
-96 -534 9002 0
-606 -9003 0
754 -9003 0
606 -754 9003 0
-513 -9004 0
443 -9004 0
513 -443 9004 0
616 -9005 0
347 -9005 0
-616 -347 9005 0
98 -9006 0
225 -9006 0
-98 -225 9006 0
-986 -9007 0
340 -9007 0
986 -340 9007 0
98 -9008 0
977 -9008 0
-98 -977 9008 0
444 -9009 0
481 -9009 0
-444 -481 9009 0
-872 -9010 0
908 -9010 0
872 -908 9010 0
478 -9011 0
522 -9011 0
-478 -522 9011 0
151 -9012 0
242 -9012 0
-151 -242 9012 0
636 -9013 0
-670 -9013 0
-636 670 9013 0
639 -9014 0
-602 -9014 0
-639 602 9014 0
56 -9015 0
-964 -9015 0
-56 964 9015 0
888 -9016 0
258 -9016 0
-888 -258 9016 0
-534 -9017 0
577 -9017 0
534 -577 9017 0
767 -9018 0
333 -9018 0
-767 -333 9018 0
443 -9019 0
-150 -9019 0
-443 150 9019 0
-480 -9020 0
72 -9020 0
480 -72 9020 0
983 -9021 0
810 -9021 0
-983 -810 9021 0
-449 -9022 0
11 -9022 0
449 -11 9022 0
428 -9023 0
-805 -9023 0
-428 805 9023 0
782 -9024 0
-335 -9024 0
-782 335 9024 0
429 -9025 0
100 -9025 0
-429 -100 9025 0
846 -9026 0
-370 -9026 0
-846 370 9026 0
877 -9027 0
51 -9027 0
-877 -51 9027 0
-85 -9028 0
107 -9028 0
85 -107 9028 0
182 -9029 0
657 -9029 0
-182 -657 9029 0
766 -9030 0
451 -9030 0
-766 -451 9030 0
911 -9031 0
146 -9031 0
-911 -146 9031 0
-48 -9032 0
815 -9032 0
48 -815 9032 0
446 -9033 0
-460 -9033 0
-446 460 9033 0
269 -9034 0
556 -9034 0
-269 -556 9034 0
791 -9035 0
-938 -9035 0
-791 938 9035 0
899 -9036 0
465 -9036 0
-899 -465 9036 0
384 -9037 0
857 -9037 0
-384 -857 9037 0
653 -9038 0
601 -9038 0
-653 -601 9038 0
120 -9039 0
258 -9039 0
-120 -258 9039 0
-64 -9040 0
195 -9040 0
64 -195 9040 0
943 -9041 0
-796 -9041 0
-943 796 9041 0
525 -9042 0
441 -9042 0
-525 -441 9042 0
285 -9043 0
-260 -9043 0
-285 260 9043 0
-187 -9044 0
242 -9044 0
187 -242 9044 0
-837 -9045 0
545 -9045 0
837 -545 9045 0
880 -9046 0
437 -9046 0
-880 -437 9046 0
-640 -9047 0
345 -9047 0
640 -345 9047 0
-711 -9048 0
65 -9048 0
711 -65 9048 0
-616 -9049 0
819 -9049 0
616 -819 9049 0
616 -9050 0
241 -9050 0
-616 -241 9050 0
608 -9051 0
809 -9051 0
-608 -809 9051 0
-433 -9052 0
956 -9052 0
433 -956 9052 0
668 -9053 0
-460 -9053 0
-668 460 9053 0
150 -9054 0
891 -9054 0
-150 -891 9054 0
-1 -9055 0
406 -9055 0
1 -406 9055 0
135 -9056 0
995 -9056 0
-135 -995 9056 0
-568 -9057 0
520 -9057 0
568 -520 9057 0
949 -9058 0
-221 -9058 0
-949 221 9058 0
422 -9059 0
612 -9059 0
-422 -612 9059 0
344 -9060 0
821 -9060 0
-344 -821 9060 0
788 -9061 0
-150 -9061 0
-788 150 9061 0
-18 -9062 0
12 -9062 0
18 -12 9062 0
205 -9063 0
866 -9063 0
-205 -866 9063 0
116 -9064 0
123 -9064 0
-116 -123 9064 0
694 -9065 0
828 -9065 0
-694 -828 9065 0
-58 -9066 0
769 -9066 0
58 -769 9066 0
927 -9067 0
-79 -9067 0
-927 79 9067 0
-346 -9068 0
245 -9068 0
346 -245 9068 0
868 -9069 0
811 -9069 0
-868 -811 9069 0
246 -9070 0
-943 -9070 0
-246 943 9070 0
-784 -9071 0
629 -9071 0
784 -629 9071 0
334 -9072 0
646 -9072 0
-334 -646 9072 0
244 -9073 0
-742 -9073 0
-244 742 9073 0
973 -9074 0
-478 -9074 0
-973 478 9074 0
694 -9075 0
-68 -9075 0
-694 68 9075 0
636 -9076 0
842 -9076 0
-636 -842 9076 0
-722 -9077 0
466 -9077 0
722 -466 9077 0
532 -9078 0
-919 -9078 0
-532 919 9078 0
-18 -9079 0
130 -9079 0
18 -130 9079 0
-996 -9080 0
756 -9080 0
996 -756 9080 0
687 -9081 0
-492 -9081 0
-687 492 9081 0
-607 -9082 0
585 -9082 0
607 -585 9082 0
-456 -9083 0
284 -9083 0
456 -284 9083 0
212 -9084 0
529 -9084 0
-212 -529 9084 0
654 -9085 0
388 -9085 0
-654 -388 9085 0
807 -9086 0
-415 -9086 0
-807 415 9086 0
251 -9087 0
258 -9087 0
-251 -258 9087 0
552 -9088 0
-529 -9088 0
-552 529 9088 0
875 -9089 0
679 -9090 0
381 -9090 0
-679 -381 9090 0
532 -9091 0
249 -9091 0
-532 -249 9091 0
841 -9092 0
265 -9092 0
-841 -265 9092 0
44 -9093 0
-231 -9093 0
-44 231 9093 0
106 -9094 0
-343 -9094 0
-106 343 9094 0
899 -9095 0
-775 -9095 0
-899 775 9095 0
896 -9096 0
466 -9096 0
-896 -466 9096 0
-454 -9097 0
601 -9097 0
454 -601 9097 0
536 -9098 0
-266 -9098 0
-536 266 9098 0
613 -9099 0
-373 -9099 0
-613 373 9099 0
-436 -9100 0
721 -9100 0
436 -721 9100 0
-569 -9101 0
25 -9101 0
569 -25 9101 0
-798 -9102 0
321 -9102 0
798 -321 9102 0
-243 -9103 0
689 -9103 0
243 -689 9103 0
-96 -9104 0
493 -9104 0
96 -493 9104 0
-185 -9105 0
220 -9105 0
185 -220 9105 0
-969 -9106 0
348 -9106 0
969 -348 9106 0
-942 -9107 0
177 -9107 0
942 -177 9107 0
925 -9108 0
292 -9108 0
-925 -292 9108 0
272 -9109 0
790 -9109 0
-272 -790 9109 0
-358 -9110 0
250 -9110 0
358 -250 9110 0
694 -9111 0
-612 -9111 0
-694 612 9111 0
277 -9112 0
921 -9112 0
-277 -921 9112 0
621 -9113 0
281 -9113 0
-621 -281 9113 0
-907 -9114 0
819 -9114 0
907 -819 9114 0
263 -9115 0
962 -9115 0
-263 -962 9115 0
637 -9116 0
-412 -9116 0
-637 412 9116 0
-168 -9117 0
361 -9117 0
168 -361 9117 0
-130 -9118 0
786 -9118 0
130 -786 9118 0
535 -9119 0
924 -9119 0
-535 -924 9119 0
592 -9120 0
-960 -9120 0
-592 960 9120 0
748 -9121 0
-446 -9121 0
-748 446 9121 0
-415 -9122 0
833 -9122 0
415 -833 9122 0
414 -9123 0
833 -9123 0
-414 -833 9123 0
726 -9124 0
-231 -9124 0
-726 231 9124 0
-667 -9125 0
730 -9125 0
667 -730 9125 0
-900 -9126 0
939 -9126 0
900 -939 9126 0
544 -9127 0
662 -9127 0
-544 -662 9127 0
705 -9128 0
-55 -9128 0
-705 55 9128 0
955 -9129 0
-510 -9129 0
-955 510 9129 0
766 -9130 0
-636 -9130 0
-766 636 9130 0
367 -9131 0
12 -9131 0
-367 -12 9131 0
575 -9132 0
732 -9132 0
-575 -732 9132 0
652 -9133 0
419 -9133 0
-652 -419 9133 0
-979 -9134 0
731 -9134 0
979 -731 9134 0
608 -9135 0
554 -9135 0
-608 -554 9135 0
-468 -9136 0
228 -9136 0
468 -228 9136 0
783 -9137 0
523 -9137 0
-783 -523 9137 0
-219 -9138 0
273 -9138 0
219 -273 9138 0
550 -9139 0
-622 -9139 0
-550 622 9139 0
959 -9140 0
509 -9140 0
-959 -509 9140 0
165 -9141 0
-687 -9141 0
-165 687 9141 0
648 -9142 0
811 -9142 0
-648 -811 9142 0
-981 -9143 0
297 -9143 0
981 -297 9143 0
-186 -9144 0
541 -9144 0
186 -541 9144 0
-203 -9145 0
748 -9145 0
203 -748 9145 0
-976 -9146 0
216 -9146 0
976 -216 9146 0
415 -9147 0
-540 -9147 0
-415 540 9147 0
206 -9148 0
-291 -9148 0
-206 291 9148 0
789 -9149 0
-557 -9149 0
-789 557 9149 0
460 -9150 0
-295 -9150 0
-460 295 9150 0
143 -9151 0
-754 -9151 0
-143 754 9151 0
102 -9152 0
-111 -9152 0
-102 111 9152 0
560 -9153 0
708 -9153 0
-560 -708 9153 0
164 -9154 0
99 -9154 0
-164 -99 9154 0
807 -9155 0
-851 -9155 0
-807 851 9155 0
161 -9156 0
-815 -9156 0
-161 815 9156 0
-88 -9157 0
380 -9157 0
88 -380 9157 0
958 -9158 0
756 -9158 0
-958 -756 9158 0
-905 -9159 0
292 -9159 0
905 -292 9159 0
-387 -9160 0
138 -9160 0
387 -138 9160 0
404 -9161 0
457 -9161 0
-404 -457 9161 0
-48 -9162 0
227 -9162 0
48 -227 9162 0
275 -9163 0
186 -9163 0
-275 -186 9163 0
-643 -9164 0
506 -9164 0
643 -506 9164 0
-538 -9165 0
941 -9165 0
538 -941 9165 0
-785 -9166 0
186 -9166 0
785 -186 9166 0
-618 -9167 0
865 -9167 0
618 -865 9167 0
-761 -9168 0
683 -9168 0
761 -683 9168 0
655 -9169 0
618 -9169 0
-655 -618 9169 0
8 -9170 0
57 -9170 0
-8 -57 9170 0
70 -9171 0
437 -9171 0
-70 -437 9171 0
-82 -9172 0
954 -9172 0
82 -954 9172 0
-864 -9173 0
234 -9173 0
864 -234 9173 0
-651 -9174 0
987 -9174 0
651 -987 9174 0
733 -9175 0
913 -9175 0
-733 -913 9175 0
-105 -9176 0
617 -9176 0
105 -617 9176 0
-130 -9177 0
244 -9177 0
130 -244 9177 0
632 -9178 0
-424 -9178 0
-632 424 9178 0
795 -9179 0
-821 -9179 0
-795 821 9179 0
-364 -9180 0
964 -9180 0
364 -964 9180 0
661 -9181 0
-148 -9181 0
-661 148 9181 0
477 -9182 0
-111 -9182 0
-477 111 9182 0
28 -9183 0
-165 -9183 0
-28 165 9183 0
339 -9184 0
242 -9184 0
-339 -242 9184 0
-487 -9185 0
409 -9185 0
487 -409 9185 0
824 -9186 0
498 -9186 0
-824 -498 9186 0
727 -9187 0
309 -9187 0
-727 -309 9187 0
848 -9188 0
846 -9188 0
-848 -846 9188 0
488 -9189 0
-886 -9189 0
-488 886 9189 0
118 -9190 0
-484 -9190 0
-118 484 9190 0
-478 -9191 0
817 -9191 0
478 -817 9191 0
864 -9192 0
-381 -9192 0
-864 381 9192 0
-765 -9193 0
739 -9193 0
765 -739 9193 0
428 -9194 0
-583 -9194 0
-428 583 9194 0
-880 -9195 0
358 -9195 0
880 -358 9195 0
-947 -9196 0
657 -9196 0
947 -657 9196 0
800 -9197 0
705 -9197 0
-800 -705 9197 0
-753 -9198 0
758 -9198 0
753 -758 9198 0
-73 -9199 0
713 -9199 0
73 -713 9199 0
488 -9200 0
725 -9200 0
-488 -725 9200 0
303 -9201 0
635 -9201 0
-303 -635 9201 0
117 -9202 0
467 -9202 0
-117 -467 9202 0
86 -9203 0
-255 -9203 0
-86 255 9203 0
617 -9204 0
-463 -9204 0
-617 463 9204 0
-54 -9205 0
674 -9205 0
54 -674 9205 0
903 -9206 0
-44 -9206 0
-903 44 9206 0
175 -9207 0
-989 -9207 0
-175 989 9207 0
492 -9208 0
594 -9208 0
-492 -594 9208 0
303 -9209 0
817 -9209 0
-303 -817 9209 0
21 -9210 0
171 -9210 0
-21 -171 9210 0
-544 -9211 0
412 -9211 0
544 -412 9211 0
788 -9212 0
-254 -9212 0
-788 254 9212 0
972 -9213 0
-894 -9213 0
-972 894 9213 0
214 -9214 0
-477 -9214 0
-214 477 9214 0
934 -9215 0
-543 -9215 0
-934 543 9215 0
269 -9216 0
233 -9216 0
-269 -233 9216 0
288 -9217 0
116 -9217 0
-288 -116 9217 0
319 -9218 0
-178 -9218 0
-319 178 9218 0
-245 -9219 0
457 -9219 0
245 -457 9219 0
-976 -9220 0
269 -9220 0
976 -269 9220 0
743 -9221 0
780 -9221 0
-743 -780 9221 0
-434 -9222 0
438 -9222 0
434 -438 9222 0
-843 -9223 0
356 -9223 0
843 -356 9223 0
815 -9224 0
850 -9224 0
-815 -850 9224 0
155 -9225 0
443 -9225 0
-155 -443 9225 0
557 -9226 0
-229 -9226 0
-557 229 9226 0
464 -9227 0
559 -9227 0
-464 -559 9227 0
-883 -9228 0
435 -9228 0
883 -435 9228 0
546 -9229 0
761 -9229 0
-546 -761 9229 0
828 -9230 0
339 -9230 0
-828 -339 9230 0
712 -9231 0
-914 -9231 0
-712 914 9231 0
30 -9232 0
198 -9232 0
-30 -198 9232 0
-194 -9233 0
697 -9233 0
194 -697 9233 0
380 -9234 0
-237 -9234 0
-380 237 9234 0
-356 -9235 0
889 -9235 0
356 -889 9235 0
-361 -9236 0
918 -9236 0
361 -918 9236 0
-877 -9237 0
74 -9237 0
877 -74 9237 0
-722 -9238 0
449 -9238 0
722 -449 9238 0
-417 -9239 0
97 -9239 0
417 -97 9239 0
856 -9240 0
-265 -9240 0
-856 265 9240 0
619 -9241 0
-670 -9241 0
-619 670 9241 0
556 -9242 0
-398 -9242 0
-556 398 9242 0
-642 -9243 0
724 -9243 0
642 -724 9243 0
773 -9244 0
-495 -9244 0
-773 495 9244 0
-693 -9245 0
793 -9245 0
693 -793 9245 0
624 -9246 0
-729 -9246 0
-624 729 9246 0
-432 -9247 0
61 -9247 0
432 -61 9247 0
903 -9248 0
452 -9248 0
-903 -452 9248 0
980 -9249 0
898 -9249 0
-980 -898 9249 0
356 -9250 0
-509 -9250 0
-356 509 9250 0
-969 -9251 0
244 -9251 0
969 -244 9251 0
78 -9252 0
334 -9252 0
-78 -334 9252 0
526 -9253 0
-614 -9253 0
-526 614 9253 0
-682 -9254 0
12 -9254 0
682 -12 9254 0
911 -9255 0
-346 -9255 0
-911 346 9255 0
475 -9256 0
554 -9256 0
-475 -554 9256 0
846 -9257 0
137 -9257 0
-846 -137 9257 0
489 -9258 0
889 -9258 0
-489 -889 9258 0
109 -9259 0
530 -9259 0
-109 -530 9259 0
741 -9260 0
605 -9260 0
-741 -605 9260 0
-845 -9261 0
426 -9261 0
845 -426 9261 0
999 -9262 0
94 -9262 0
-999 -94 9262 0
125 -9263 0
-916 -9263 0
-125 916 9263 0
550 -9264 0
225 -9264 0
-550 -225 9264 0
773 -9265 0
257 -9265 0
-773 -257 9265 0
-530 -9266 0
685 -9266 0
530 -685 9266 0
-446 -9267 0
329 -9267 0
446 -329 9267 0
368 -9268 0
-103 -9268 0
-368 103 9268 0
558 -9269 0
771 -9269 0
-558 -771 9269 0
371 -9270 0
841 -9270 0
-371 -841 9270 0
-857 -9271 0
57 -9271 0
857 -57 9271 0
-729 -9272 0
778 -9272 0
729 -778 9272 0
-408 -9273 0
878 -9273 0
408 -878 9273 0
435 -9274 0
65 -9274 0
-435 -65 9274 0
220 -9275 0
-637 -9275 0
-220 637 9275 0
744 -9276 0
509 -9276 0
-744 -509 9276 0
528 -9277 0
-39 -9277 0
-528 39 9277 0
848 -9278 0
-708 -9278 0
-848 708 9278 0
412 -9279 0
732 -9279 0
-412 -732 9279 0
390 -9280 0
637 -9280 0
-390 -637 9280 0
628 -9281 0
780 -9281 0
-628 -780 9281 0
88 -9282 0
-582 -9282 0
-88 582 9282 0
792 -9283 0
402 -9283 0
-792 -402 9283 0
832 -9284 0
707 -9284 0
-832 -707 9284 0
79 -9285 0
545 -9285 0
-79 -545 9285 0
302 -9286 0
924 -9286 0
-302 -924 9286 0
-632 -9287 0
927 -9287 0
632 -927 9287 0
-734 -9288 0
433 -9288 0
734 -433 9288 0
-498 -9289 0
459 -9289 0
498 -459 9289 0
-723 -9290 0
884 -9290 0
723 -884 9290 0
-193 -9291 0
972 -9291 0
193 -972 9291 0
757 -9292 0
748 -9292 0
-757 -748 9292 0
294 -9293 0
685 -9293 0
-294 -685 9293 0
533 -9294 0
-949 -9294 0
-533 949 9294 0
198 -9295 0
554 -9295 0
-198 -554 9295 0
20 -9296 0
-836 -9296 0
-20 836 9296 0
638 -9297 0
435 -9297 0
-638 -435 9297 0
30 -9298 0
-19 -9298 0
-30 19 9298 0
423 -9299 0
92 -9299 0
-423 -92 9299 0
87 -9300 0
-919 -9300 0
-87 919 9300 0
-593 -9301 0
49 -9301 0
593 -49 9301 0
759 -9302 0
948 -9302 0
-759 -948 9302 0
-749 -9303 0
987 -9303 0
749 -987 9303 0
838 -9304 0
-786 -9304 0
-838 786 9304 0
912 -9305 0
-892 -9305 0
-912 892 9305 0
495 -9306 0
-850 -9306 0
-495 850 9306 0
975 -9307 0
121 -9307 0
-975 -121 9307 0
29 -9308 0
545 -9308 0
-29 -545 9308 0
447 -9309 0
-311 -9309 0
-447 311 9309 0
-161 -9310 0
756 -9310 0
161 -756 9310 0
-450 -9311 0
750 -9311 0
450 -750 9311 0
-18 -9312 0
609 -9312 0
18 -609 9312 0
703 -9313 0
969 -9313 0
-703 -969 9313 0
867 -9314 0
-375 -9314 0
-867 375 9314 0
344 -9315 0
-869 -9315 0
-344 869 9315 0
125 -9316 0
-285 -9316 0
-125 285 9316 0
699 -9317 0
865 -9317 0
-699 -865 9317 0
678 -9318 0
-55 -9318 0
-678 55 9318 0
-476 -9319 0
403 -9319 0
476 -403 9319 0
762 -9320 0
121 -9320 0
-762 -121 9320 0
325 -9321 0
-183 -9321 0
-325 183 9321 0
996 -9322 0
-709 -9322 0
-996 709 9322 0
380 -9323 0
-294 -9323 0
-380 294 9323 0
-714 -9324 0
676 -9324 0
714 -676 9324 0
-931 -9325 0
337 -9325 0
931 -337 9325 0
-673 -9326 0
450 -9326 0
673 -450 9326 0
782 -9327 0
395 -9327 0
-782 -395 9327 0
-18 -9328 0
220 -9328 0
18 -220 9328 0
-250 -9329 0
237 -9329 0
250 -237 9329 0
457 -9330 0
-87 -9330 0
-457 87 9330 0
766 -9331 0
27 -9331 0
-766 -27 9331 0
422 -9332 0
538 -9332 0
-422 -538 9332 0
447 -9333 0
745 -9333 0
-447 -745 9333 0
645 -9334 0
-103 -9334 0
-645 103 9334 0
222 -9335 0
286 -9335 0
-222 -286 9335 0
-460 -9336 0
841 -9336 0
460 -841 9336 0
487 -9337 0
-163 -9337 0
-487 163 9337 0
360 -9338 0
-716 -9338 0
-360 716 9338 0
744 -9339 0
-994 -9339 0
-744 994 9339 0
-353 -9340 0
498 -9340 0
353 -498 9340 0
-689 -9341 0
346 -9341 0
689 -346 9341 0
-274 -9342 0
83 -9342 0
274 -83 9342 0
812 -9343 0
705 -9343 0
-812 -705 9343 0
19 -9344 0
-782 -9344 0
-19 782 9344 0
-401 -9345 0
693 -9345 0
401 -693 9345 0
-243 -9346 0
452 -9346 0
243 -452 9346 0
400 -9347 0
-452 -9347 0
-400 452 9347 0
-721 -9348 0
555 -9348 0
721 -555 9348 0
-288 -9349 0
845 -9349 0
288 -845 9349 0
461 -9350 0
-715 -9350 0
-461 715 9350 0
262 -9351 0
-828 -9351 0
-262 828 9351 0
-753 -9352 0
991 -9352 0
753 -991 9352 0
-934 -9353 0
642 -9353 0
934 -642 9353 0
511 -9354 0
-934 -9354 0
-511 934 9354 0
36 -9355 0
235 -9355 0
-36 -235 9355 0
936 -9356 0
-390 -9356 0
-936 390 9356 0
400 -9357 0
-689 -9357 0
-400 689 9357 0
-920 -9358 0
800 -9358 0
920 -800 9358 0
230 -9359 0
285 -9359 0
-230 -285 9359 0
258 -9360 0
-615 -9360 0
-258 615 9360 0
807 -9361 0
417 -9361 0
-807 -417 9361 0
346 -9362 0
817 -9362 0
-346 -817 9362 0
972 -9363 0
-261 -9363 0
-972 261 9363 0
941 -9364 0
-582 -9364 0
-941 582 9364 0
487 -9365 0
866 -9365 0
-487 -866 9365 0
-856 -9366 0
804 -9366 0
856 -804 9366 0
677 -9367 0
-998 -9367 0
-677 998 9367 0
870 -9368 0
-455 -9368 0
-870 455 9368 0
-939 -9369 0
788 -9369 0
939 -788 9369 0
-459 -9370 0
954 -9370 0
459 -954 9370 0
-665 -9371 0
321 -9371 0
665 -321 9371 0
488 -9372 0
-925 -9372 0
-488 925 9372 0
503 -9373 0
-29 -9373 0
-503 29 9373 0
-140 -9374 0
425 -9374 0
140 -425 9374 0
-250 -9375 0
262 -9375 0
250 -262 9375 0
-565 -9376 0
315 -9376 0
565 -315 9376 0
-618 -9377 0
834 -9377 0
618 -834 9377 0
29 -9378 0
986 -9378 0
-29 -986 9378 0
-891 -9379 0
721 -9379 0
891 -721 9379 0
153 -9380 0
337 -9380 0
-153 -337 9380 0
447 -9381 0
-11 -9381 0
-447 11 9381 0
740 -9382 0
-820 -9382 0
-740 820 9382 0
5 -9383 0
348 -9383 0
-5 -348 9383 0
61 -9384 0
-173 -9384 0
-61 173 9384 0
493 -9385 0
557 -9385 0
-493 -557 9385 0
-947 -9386 0
300 -9387 0
-38 -9387 0
-300 38 9387 0
694 -9388 0
132 -9388 0
-694 -132 9388 0
272 -9389 0
-97 -9389 0
-272 97 9389 0
866 -9390 0
633 -9390 0
-866 -633 9390 0
654 -9391 0
-523 -9391 0
-654 523 9391 0
4 -9392 0
-989 -9392 0
-4 989 9392 0
295 -9393 0
-702 -9393 0
-295 702 9393 0
-626 -9394 0
429 -9394 0
626 -429 9394 0
839 -9395 0
345 -9395 0
-839 -345 9395 0
399 -9396 0
310 -9396 0
-399 -310 9396 0
691 -9397 0
490 -9397 0
-691 -490 9397 0
903 -9398 0
337 -9398 0
-903 -337 9398 0
-937 -9399 0
105 -9399 0
937 -105 9399 0
-44 -9400 0
947 -9400 0
44 -947 9400 0
-64 -9401 0
41 -9401 0
64 -41 9401 0
-657 -9402 0
548 -9402 0
657 -548 9402 0
894 -9403 0
125 -9403 0
-894 -125 9403 0
989 -9404 0
-325 -9404 0
-989 325 9404 0
252 -9405 0
179 -9405 0
-252 -179 9405 0
-658 -9406 0
804 -9406 0
658 -804 9406 0
620 -9407 0
74 -9407 0
-620 -74 9407 0
133 -9408 0
-44 -9408 0
-133 44 9408 0
-233 -9409 0
46 -9409 0
233 -46 9409 0
846 -9410 0
795 -9410 0
-846 -795 9410 0
181 -9411 0
-574 -9411 0
-181 574 9411 0
-320 -9412 0
2 -9412 0
320 -2 9412 0
-840 -9413 0
463 -9413 0
840 -463 9413 0
-952 -9414 0
771 -9414 0
952 -771 9414 0
71 -9415 0
-370 -9415 0
-71 370 9415 0
444 -9416 0
226 -9416 0
-444 -226 9416 0
486 -9417 0
-677 -9417 0
-486 677 9417 0
5 -9418 0
36 -9418 0
-5 -36 9418 0
896 -9419 0
306 -9419 0
-896 -306 9419 0
380 -9420 0
-324 -9420 0
-380 324 9420 0
-48 -9421 0
673 -9421 0
48 -673 9421 0
907 -9422 0
-311 -9422 0
-907 311 9422 0
534 -9423 0
990 -9423 0
-534 -990 9423 0
278 -9424 0
-766 -9424 0
-278 766 9424 0
-805 -9425 0
394 -9425 0
805 -394 9425 0
-610 -9426 0
234 -9426 0
610 -234 9426 0
846 -9427 0
595 -9427 0
-846 -595 9427 0
197 -9428 0
819 -9428 0
-197 -819 9428 0
328 -9429 0
309 -9429 0
-328 -309 9429 0
861 -9430 0
682 -9430 0
-861 -682 9430 0
496 -9431 0
269 -9431 0
-496 -269 9431 0
-332 -9432 0
66 -9432 0
332 -66 9432 0
264 -9433 0
103 -9433 0
-264 -103 9433 0
477 -9434 0
946 -9434 0
-477 -946 9434 0
181 -9435 0
-364 -9435 0
-181 364 9435 0
-536 -9436 0
385 -9436 0
536 -385 9436 0
285 -9437 0
-443 -9437 0
-285 443 9437 0
101 -9438 0
659 -9438 0
-101 -659 9438 0
574 -9439 0
-366 -9439 0
-574 366 9439 0
399 -9440 0
-603 -9440 0
-399 603 9440 0
425 -9441 0
-31 -9441 0
-425 31 9441 0
-371 -9442 0
937 -9442 0
371 -937 9442 0
96 -9443 0
65 -9443 0
-96 -65 9443 0
368 -9444 0
187 -9444 0
-368 -187 9444 0
194 -9445 0
-23 -9445 0
-194 23 9445 0
739 -9446 0
219 -9446 0
-739 -219 9446 0
-403 -9447 0
267 -9447 0
403 -267 9447 0
445 -9448 0
-436 -9448 0
-445 436 9448 0
876 -9449 0
-884 -9449 0
-876 884 9449 0
-278 -9450 0
273 -9450 0
278 -273 9450 0
742 -9451 0
-677 -9451 0
-742 677 9451 0
720 -9452 0
541 -9452 0
-720 -541 9452 0
360 -9453 0
-452 -9453 0
-360 452 9453 0
792 -9454 0
-307 -9454 0
-792 307 9454 0
215 -9455 0
-397 -9455 0
-215 397 9455 0
776 -9456 0
358 -9456 0
-776 -358 9456 0
95 -9457 0
418 -9457 0
-95 -418 9457 0
240 -9458 0
19 -9458 0
-240 -19 9458 0
541 -9459 0
458 -9459 0
-541 -458 9459 0
-840 -9460 0
458 -9460 0
840 -458 9460 0
47 -9461 0
382 -9461 0
-47 -382 9461 0
691 -9462 0
-453 -9462 0
-691 453 9462 0
-321 -9463 0
274 -9463 0
321 -274 9463 0
422 -9464 0
-787 -9464 0
-422 787 9464 0
744 -9465 0
-394 -9465 0
-744 394 9465 0
-633 -9466 0
797 -9466 0
633 -797 9466 0
188 -9467 0
265 -9467 0
-188 -265 9467 0
-635 -9468 0
155 -9468 0
635 -155 9468 0
552 -9469 0
-172 -9469 0
-552 172 9469 0
159 -9470 0
-989 -9470 0
-159 989 9470 0
135 -9471 0
-394 -9471 0
-135 394 9471 0
-441 -9472 0
125 -9472 0
441 -125 9472 0
624 -9473 0
-639 -9473 0
-624 639 9473 0
424 -9474 0
632 -9474 0
-424 -632 9474 0
896 -9475 0
-290 -9475 0
-896 290 9475 0
773 -9476 0
-692 -9476 0
-773 692 9476 0
376 -9477 0
111 -9477 0
-376 -111 9477 0
942 -9478 0
249 -9478 0
-942 -249 9478 0
-707 -9479 0
577 -9479 0
707 -577 9479 0
-898 -9480 0
489 -9480 0
898 -489 9480 0
383 -9481 0
-559 -9481 0
-383 559 9481 0
727 -9482 0
171 -9482 0
-727 -171 9482 0
338 -9483 0
202 -9483 0
-338 -202 9483 0
896 -9484 0
-139 -9484 0
-896 139 9484 0
549 -9485 0
476 -9485 0
-549 -476 9485 0
300 -9486 0
-839 -9486 0
-300 839 9486 0
863 -9487 0
737 -9487 0
-863 -737 9487 0
949 -9488 0
-700 -9488 0
-949 700 9488 0
582 -9489 0
563 -9489 0
-582 -563 9489 0
771 -9490 0
-22 -9490 0
-771 22 9490 0
195 -9491 0
-485 -9491 0
-195 485 9491 0
695 -9492 0
-715 -9492 0
-695 715 9492 0
-721 -9493 0
548 -9493 0
721 -548 9493 0
919 -9494 0
355 -9494 0
-919 -355 9494 0
31 -9495 0
905 -9495 0
-31 -905 9495 0
485 -9496 0
51 -9496 0
-485 -51 9496 0
536 -9497 0
706 -9497 0
-536 -706 9497 0
36 -9498 0
-12 -9498 0
-36 12 9498 0
79 -9499 0
-455 -9499 0
-79 455 9499 0
6 -9500 0
665 -9500 0
-6 -665 9500 0
680 -9501 0
565 -9501 0
-680 -565 9501 0
399 -9502 0
-854 -9502 0
-399 854 9502 0
-609 -9503 0
990 -9503 0
609 -990 9503 0
398 -9504 0
-853 -9504 0
-398 853 9504 0
279 -9505 0
-252 -9505 0
-279 252 9505 0
751 -9506 0
-963 -9506 0
-751 963 9506 0
375 -9507 0
-249 -9507 0
-375 249 9507 0
-666 -9508 0
218 -9508 0
666 -218 9508 0
807 -9509 0
738 -9509 0
-807 -738 9509 0
806 -9510 0
314 -9510 0
-806 -314 9510 0
-456 -9511 0
250 -9511 0
456 -250 9511 0
926 -9512 0
941 -9512 0
-926 -941 9512 0
108 -9513 0
-61 -9513 0
-108 61 9513 0
-754 -9514 0
604 -9514 0
754 -604 9514 0
658 -9515 0
178 -9515 0
-658 -178 9515 0
882 -9516 0
434 -9516 0
-882 -434 9516 0
807 -9517 0
-318 -9517 0
-807 318 9517 0
-885 -9518 0
409 -9518 0
885 -409 9518 0
783 -9519 0
-603 -9519 0
-783 603 9519 0
-612 -9520 0
833 -9520 0
612 -833 9520 0
-109 -9521 0
587 -9521 0
109 -587 9521 0
-634 -9522 0
809 -9522 0
634 -809 9522 0
88 -9523 0
-25 -9523 0
-88 25 9523 0
-161 -9524 0
769 -9524 0
161 -769 9524 0
-536 -9525 0
316 -9525 0
536 -316 9525 0
214 -9526 0
450 -9526 0
-214 -450 9526 0
919 -9527 0
252 -9527 0
-919 -252 9527 0
582 -9528 0
214 -9528 0
-582 -214 9528 0
-51 -9529 0
225 -9529 0
51 -225 9529 0
291 -9530 0
962 -9530 0
-291 -962 9530 0
935 -9531 0
714 -9531 0
-935 -714 9531 0
-587 -9532 0
627 -9532 0
587 -627 9532 0
685 -9533 0
473 -9533 0
-685 -473 9533 0
-942 -9534 0
257 -9534 0
942 -257 9534 0
-300 -9535 0
337 -9535 0
300 -337 9535 0
864 -9536 0
289 -9536 0
-864 -289 9536 0
749 -9537 0
-782 -9537 0
-749 782 9537 0
-233 -9538 0
434 -9538 0
233 -434 9538 0
-820 -9539 0
915 -9539 0
820 -915 9539 0
-365 -9540 0
91 -9540 0
365 -91 9540 0
-71 -9541 0
993 -9541 0
71 -993 9541 0
230 -9542 0
374 -9542 0
-230 -374 9542 0
-970 -9543 0
741 -9543 0
970 -741 9543 0
-111 -9544 0
25 -9544 0
111 -25 9544 0
575 -9545 0
-76 -9545 0
-575 76 9545 0
190 -9546 0
-996 -9546 0
-190 996 9546 0
616 -9547 0
247 -9547 0
-616 -247 9547 0
288 -9548 0
347 -9548 0
-288 -347 9548 0
135 -9549 0
859 -9549 0
-135 -859 9549 0
-836 -9550 0
426 -9550 0
836 -426 9550 0
558 -9551 0
-797 -9551 0
-558 797 9551 0
810 -9552 0
-71 -9552 0
-810 71 9552 0
170 -9553 0
665 -9553 0
-170 -665 9553 0
14 -9554 0
-567 -9554 0
-14 567 9554 0
-579 -9555 0
291 -9555 0
579 -291 9555 0
-657 -9556 0
945 -9556 0
657 -945 9556 0
919 -9557 0
-803 -9557 0
-919 803 9557 0
982 -9558 0
-183 -9558 0
-982 183 9558 0
-324 -9559 0
801 -9559 0
324 -801 9559 0
679 -9560 0
614 -9560 0
-679 -614 9560 0
687 -9561 0
-818 -9561 0
-687 818 9561 0
445 -9562 0
-605 -9562 0
-445 605 9562 0
56 -9563 0
-990 -9563 0
-56 990 9563 0
807 -9564 0
-119 -9564 0
-807 119 9564 0
-267 -9565 0
658 -9565 0
267 -658 9565 0
-952 -9566 0
778 -9566 0
952 -778 9566 0
-656 -9567 0
512 -9567 0
656 -512 9567 0
824 -9568 0
431 -9568 0
-824 -431 9568 0
763 -9569 0
49 -9569 0
-763 -49 9569 0
-621 -9570 0
939 -9570 0
621 -939 9570 0
-809 -9571 0
861 -9571 0
809 -861 9571 0
711 -9572 0
498 -9572 0
-711 -498 9572 0
-29 -9573 0
217 -9573 0
29 -217 9573 0
-73 -9574 0
941 -9574 0
73 -941 9574 0
-510 -9575 0
689 -9575 0
510 -689 9575 0
182 -9576 0
-259 -9576 0
-182 259 9576 0
126 -9577 0
-957 -9577 0
-126 957 9577 0
822 -9578 0
-711 -9578 0
-822 711 9578 0
-488 -9579 0
622 -9579 0
488 -622 9579 0
-927 -9580 0
489 -9580 0
927 -489 9580 0
684 -9581 0
-359 -9581 0
-684 359 9581 0
-363 -9582 0
485 -9582 0
363 -485 9582 0
15 -9583 0
-411 -9583 0
-15 411 9583 0
296 -9584 0
-963 -9584 0
-296 963 9584 0
525 -9585 0
-630 -9585 0
-525 630 9585 0
774 -9586 0
-227 -9586 0
-774 227 9586 0
-907 -9587 0
828 -9587 0
907 -828 9587 0
-586 -9588 0
514 -9588 0
586 -514 9588 0
902 -9589 0
73 -9589 0
-902 -73 9589 0
104 -9590 0
-12 -9590 0
-104 12 9590 0
843 -9591 0
-991 -9591 0
-843 991 9591 0
-9 -9592 0
181 -9592 0
9 -181 9592 0
156 -9593 0
-431 -9593 0
-156 431 9593 0
712 -9594 0
-63 -9594 0
-712 63 9594 0
149 -9595 0
482 -9595 0
-149 -482 9595 0
780 -9596 0
-686 -9596 0
-780 686 9596 0
685 -9597 0
290 -9597 0
-685 -290 9597 0
-227 -9598 0
666 -9598 0
227 -666 9598 0
96 -9599 0
577 -9599 0
-96 -577 9599 0
893 -9600 0
66 -9600 0
-893 -66 9600 0
-984 -9601 0
556 -9601 0
984 -556 9601 0
663 -9602 0
571 -9602 0
-663 -571 9602 0
-417 -9603 0
342 -9603 0
417 -342 9603 0
716 -9604 0
338 -9604 0
-716 -338 9604 0
-289 -9605 0
19 -9605 0
289 -19 9605 0
469 -9606 0
281 -9606 0
-469 -281 9606 0
125 -9607 0
476 -9607 0
-125 -476 9607 0
-257 -9608 0
314 -9608 0
257 -314 9608 0
741 -9609 0
-643 -9609 0
-741 643 9609 0
-696 -9610 0
232 -9610 0
696 -232 9610 0
-816 -9611 0
859 -9611 0
816 -859 9611 0
-681 -9612 0
125 -9612 0
681 -125 9612 0
351 -9613 0
998 -9613 0
-351 -998 9613 0
-65 -9614 0
281 -9614 0
65 -281 9614 0
-333 -9615 0
10 -9615 0
333 -10 9615 0
-248 -9616 0
757 -9616 0
248 -757 9616 0
237 -9617 0
661 -9617 0
-237 -661 9617 0
-308 -9618 0
283 -9618 0
308 -283 9618 0
670 -9619 0
849 -9619 0
-670 -849 9619 0
-153 -9620 0
914 -9620 0
153 -914 9620 0
-361 -9621 0
111 -9621 0
361 -111 9621 0
-643 -9622 0
260 -9622 0
643 -260 9622 0
189 -9623 0
-29 -9623 0
-189 29 9623 0
-821 -9624 0
849 -9624 0
821 -849 9624 0
326 -9625 0
194 -9625 0
-326 -194 9625 0
983 -9626 0
-780 -9626 0
-983 780 9626 0
-179 -9627 0
305 -9627 0
179 -305 9627 0
8 -9628 0
480 -9628 0
-8 -480 9628 0
-544 -9629 0
76 -9629 0
544 -76 9629 0
144 -9630 0
369 -9630 0
-144 -369 9630 0
-113 -9631 0
78 -9631 0
113 -78 9631 0
514 -9632 0
281 -9632 0
-514 -281 9632 0
-323 -9633 0
701 -9633 0
323 -701 9633 0
686 -9634 0
193 -9634 0
-686 -193 9634 0
185 -9635 0
281 -9635 0
-185 -281 9635 0
995 -9636 0
-847 -9636 0
-995 847 9636 0
255 -9637 0
-114 -9637 0
-255 114 9637 0
659 -9638 0
410 -9638 0
-659 -410 9638 0
303 -9639 0
-634 -9639 0
-303 634 9639 0
924 -9640 0
-68 -9640 0
-924 68 9640 0
-915 -9641 0
705 -9641 0
915 -705 9641 0
280 -9642 0
-556 -9642 0
-280 556 9642 0
720 -9643 0
323 -9643 0
-720 -323 9643 0
40 -9644 0
-570 -9644 0
-40 570 9644 0
-250 -9645 0
508 -9645 0
250 -508 9645 0
-704 -9646 0
640 -9646 0
704 -640 9646 0
-404 -9647 0
338 -9647 0
404 -338 9647 0
-990 -9648 0
865 -9648 0
990 -865 9648 0
565 -9649 0
506 -9649 0
-565 -506 9649 0
392 -9650 0
-831 -9650 0
-392 831 9650 0
914 -9651 0
-279 -9651 0
-914 279 9651 0
-848 -9652 0
323 -9652 0
848 -323 9652 0
-548 -9653 0
466 -9653 0
548 -466 9653 0
-810 -9654 0
433 -9654 0
810 -433 9654 0
16 -9655 0
223 -9655 0
-16 -223 9655 0
320 -9656 0
-225 -9656 0
-320 225 9656 0
816 -9657 0
-286 -9657 0
-816 286 9657 0
632 -9658 0
-759 -9658 0
-632 759 9658 0
728 -9659 0
-940 -9659 0
-728 940 9659 0
101 -9660 0
906 -9660 0
-101 -906 9660 0
192 -9661 0
-124 -9661 0
-192 124 9661 0
180 -9662 0
-308 -9662 0
-180 308 9662 0
-620 -9663 0
665 -9663 0
620 -665 9663 0
814 -9664 0
485 -9664 0
-814 -485 9664 0
458 -9665 0
-927 -9665 0
-458 927 9665 0
982 -9666 0
858 -9666 0
-982 -858 9666 0
687 -9667 0
-649 -9667 0
-687 649 9667 0
151 -9668 0
858 -9668 0
-151 -858 9668 0
7 -9669 0
335 -9669 0
-7 -335 9669 0
-425 -9670 0
524 -9670 0
425 -524 9670 0
980 -9671 0
738 -9671 0
-980 -738 9671 0
128 -9672 0
-772 -9672 0
-128 772 9672 0
763 -9673 0
-238 -9673 0
-763 238 9673 0
320 -9674 0
-341 -9674 0
-320 341 9674 0
375 -9675 0
890 -9675 0
-375 -890 9675 0
378 -9676 0
578 -9676 0
-378 -578 9676 0
608 -9677 0
989 -9677 0
-608 -989 9677 0
-417 -9678 0
345 -9678 0
417 -345 9678 0
111 -9679 0
-355 -9679 0
-111 355 9679 0
-649 -9680 0
415 -9680 0
649 -415 9680 0
107 -9681 0
-774 -9681 0
-107 774 9681 0
104 -9682 0
247 -9682 0
-104 -247 9682 0
-567 -9683 0
753 -9683 0
567 -753 9683 0
-105 -9684 0
195 -9684 0
105 -195 9684 0
746 -9685 0
313 -9685 0
-746 -313 9685 0
766 -9686 0
-149 -9686 0
-766 149 9686 0
-432 -9687 0
958 -9687 0
432 -958 9687 0
367 -9688 0
-935 -9688 0
-367 935 9688 0
925 -9689 0
-782 -9689 0
-925 782 9689 0
583 -9690 0
-157 -9690 0
-583 157 9690 0
15 -9691 0
326 -9691 0
-15 -326 9691 0
176 -9692 0
-80 -9692 0
-176 80 9692 0
572 -9693 0
-494 -9693 0
-572 494 9693 0
524 -9694 0
-213 -9694 0
-524 213 9694 0
656 -9695 0
491 -9695 0
-656 -491 9695 0
608 -9696 0
-904 -9696 0
-608 904 9696 0
55 -9697 0
-838 -9697 0
-55 838 9697 0
-480 -9698 0
455 -9698 0
480 -455 9698 0
-690 -9699 0
130 -9699 0
690 -130 9699 0
-612 -9700 0
962 -9700 0
612 -962 9700 0
69 -9701 0
819 -9701 0
-69 -819 9701 0
838 -9702 0
286 -9702 0
-838 -286 9702 0
-674 -9703 0
203 -9703 0
674 -203 9703 0
607 -9704 0
-950 -9704 0
-607 950 9704 0
728 -9705 0
-109 -9705 0
-728 109 9705 0
739 -9706 0
865 -9706 0
-739 -865 9706 0
502 -9707 0
211 -9707 0
-502 -211 9707 0
-114 -9708 0
485 -9708 0
114 -485 9708 0
828 -9709 0
276 -9709 0
-828 -276 9709 0
720 -9710 0
579 -9710 0
-720 -579 9710 0
-240 -9711 0
575 -9711 0
240 -575 9711 0
706 -9712 0
-199 -9712 0
-706 199 9712 0
122 -9713 0
-247 -9713 0
-122 247 9713 0
-762 -9714 0
505 -9714 0
762 -505 9714 0
587 -9715 0
-902 -9715 0
-587 902 9715 0
998 -9716 0
366 -9716 0
-998 -366 9716 0
349 -9717 0
641 -9717 0
-349 -641 9717 0
168 -9718 0
679 -9718 0
-168 -679 9718 0
447 -9719 0
805 -9719 0
-447 -805 9719 0
183 -9720 0
-100 -9720 0
-183 100 9720 0
-221 -9721 0
690 -9721 0
221 -690 9721 0
-907 -9722 0
67 -9722 0
907 -67 9722 0
237 -9723 0
523 -9723 0
-237 -523 9723 0
-652 -9724 0
996 -9724 0
652 -996 9724 0
639 -9725 0
-705 -9725 0
-639 705 9725 0
101 -9726 0
571 -9726 0
-101 -571 9726 0
-981 -9727 0
130 -9727 0
981 -130 9727 0
-648 -9728 0
808 -9728 0
648 -808 9728 0
499 -9729 0
714 -9729 0
-499 -714 9729 0
399 -9730 0
245 -9730 0
-399 -245 9730 0
651 -9731 0
-877 -9731 0
-651 877 9731 0
236 -9732 0
188 -9732 0
-236 -188 9732 0
-33 -9733 0
398 -9733 0
33 -398 9733 0
454 -9734 0
437 -9734 0
-454 -437 9734 0
400 -9735 0
-478 -9735 0
-400 478 9735 0
-24 -9736 0
943 -9736 0
24 -943 9736 0
264 -9737 0
993 -9737 0
-264 -993 9737 0
653 -9738 0
-422 -9738 0
-653 422 9738 0
741 -9739 0
-255 -9739 0
-741 255 9739 0
607 -9740 0
11 -9740 0
-607 -11 9740 0
438 -9741 0
-805 -9741 0
-438 805 9741 0
-480 -9742 0
65 -9742 0
480 -65 9742 0
-969 -9743 0
850 -9743 0
969 -850 9743 0
271 -9744 0
-539 -9744 0
-271 539 9744 0
720 -9745 0
671 -9745 0
-720 -671 9745 0
421 -9746 0
601 -9746 0
-421 -601 9746 0
831 -9747 0
-555 -9747 0
-831 555 9747 0
864 -9748 0
-852 -9748 0
-864 852 9748 0
416 -9749 0
575 -9749 0
-416 -575 9749 0
224 -9750 0
417 -9750 0
-224 -417 9750 0
-873 -9751 0
242 -9751 0
873 -242 9751 0
154 -9752 0
-510 -9752 0
-154 510 9752 0
974 -9753 0
-660 -9753 0
-974 660 9753 0
786 -9754 0
490 -9754 0
-786 -490 9754 0
-816 -9755 0
959 -9755 0
816 -959 9755 0
639 -9756 0
965 -9756 0
-639 -965 9756 0
-208 -9757 0
923 -9757 0
208 -923 9757 0
-449 -9758 0
764 -9758 0
449 -764 9758 0
478 -9759 0
-542 -9759 0
-478 542 9759 0
492 -9760 0
716 -9760 0
-492 -716 9760 0
-80 -9761 0
135 -9761 0
80 -135 9761 0
-944 -9762 0
292 -9762 0
944 -292 9762 0
664 -9763 0
-967 -9763 0
-664 967 9763 0
365 -9764 0
81 -9764 0
-365 -81 9764 0
94 -9765 0
-711 -9765 0
-94 711 9765 0
221 -9766 0
-38 -9766 0
-221 38 9766 0
118 -9767 0
-791 -9767 0
-118 791 9767 0
-307 -9768 0
933 -9768 0
307 -933 9768 0
72 -9769 0
-700 -9769 0
-72 700 9769 0
-304 -9770 0
564 -9770 0
304 -564 9770 0
590 -9771 0
198 -9771 0
-590 -198 9771 0
-417 -9772 0
701 -9772 0
417 -701 9772 0
-841 -9773 0
806 -9773 0
841 -806 9773 0
96 -9774 0
-392 -9774 0
-96 392 9774 0
86 -9775 0
-748 -9775 0
-86 748 9775 0
232 -9776 0
141 -9776 0
-232 -141 9776 0
-99 -9777 0
553 -9777 0
99 -553 9777 0
788 -9778 0
28 -9778 0
-788 -28 9778 0
567 -9779 0
-766 -9779 0
-567 766 9779 0
-422 -9780 0
418 -9780 0
422 -418 9780 0
-803 -9781 0
75 -9781 0
803 -75 9781 0
330 -9782 0
649 -9782 0
-330 -649 9782 0
934 -9783 0
-395 -9783 0
-934 395 9783 0
966 -9784 0
681 -9784 0
-966 -681 9784 0
-621 -9785 0
114 -9785 0
621 -114 9785 0
437 -9786 0
-702 -9786 0
-437 702 9786 0
320 -9787 0
-827 -9787 0
-320 827 9787 0
-528 -9788 0
422 -9788 0
528 -422 9788 0
-641 -9789 0
108 -9789 0
641 -108 9789 0
844 -9790 0
-477 -9790 0
-844 477 9790 0
310 -9791 0
-870 -9791 0
-310 870 9791 0
-786 -9792 0
249 -9792 0
786 -249 9792 0
333 -9793 0
-356 -9793 0
-333 356 9793 0
948 -9794 0
-710 -9794 0
-948 710 9794 0
901 -9795 0
-93 -9795 0
-901 93 9795 0
103 -9796 0
651 -9796 0
-103 -651 9796 0
60 -9797 0
515 -9797 0
-60 -515 9797 0
683 -9798 0
-927 -9798 0
-683 927 9798 0
-818 -9799 0
891 -9799 0
818 -891 9799 0
589 -9800 0
123 -9800 0
-589 -123 9800 0
439 -9801 0
355 -9801 0
-439 -355 9801 0
-148 -9802 0
818 -9802 0
148 -818 9802 0
764 -9803 0
874 -9803 0
-764 -874 9803 0
-328 -9804 0
772 -9804 0
328 -772 9804 0
-344 -9805 0
602 -9805 0
344 -602 9805 0
635 -9806 0
905 -9806 0
-635 -905 9806 0
-97 -9807 0
182 -9807 0
97 -182 9807 0
-825 -9808 0
482 -9808 0
825 -482 9808 0
526 -9809 0
-830 -9809 0
-526 830 9809 0
773 -9810 0
-933 -9810 0
-773 933 9810 0
207 -9811 0
327 -9811 0
-207 -327 9811 0
263 -9812 0
551 -9812 0
-263 -551 9812 0
872 -9813 0
67 -9813 0
-872 -67 9813 0
228 -9814 0
-263 -9814 0
-228 263 9814 0
856 -9815 0
-225 -9815 0
-856 225 9815 0
143 -9816 0
927 -9816 0
-143 -927 9816 0
4 -9817 0
-870 -9817 0
-4 870 9817 0
397 -9818 0
-303 -9818 0
-397 303 9818 0
836 -9819 0
-308 -9819 0
-836 308 9819 0
701 -9820 0
466 -9820 0
-701 -466 9820 0
261 -9821 0
-695 -9821 0
-261 695 9821 0
948 -9822 0
802 -9822 0
-948 -802 9822 0
-131 -9823 0
450 -9823 0
131 -450 9823 0
758 -9824 0
-666 -9824 0
-758 666 9824 0
247 -9825 0
130 -9825 0
-247 -130 9825 0
880 -9826 0
-833 -9826 0
-880 833 9826 0
-580 -9827 0
843 -9827 0
580 -843 9827 0
447 -9828 0
669 -9828 0
-447 -669 9828 0
-520 -9829 0
990 -9829 0
520 -990 9829 0
316 -9830 0
290 -9830 0
-316 -290 9830 0
-453 -9831 0
858 -9831 0
453 -858 9831 0
784 -9832 0
-542 -9832 0
-784 542 9832 0
-381 -9833 0
819 -9833 0
381 -819 9833 0
588 -9834 0
-308 -9834 0
-588 308 9834 0
359 -9835 0
843 -9835 0
-359 -843 9835 0
734 -9836 0
-861 -9836 0
-734 861 9836 0
-337 -9837 0
676 -9837 0
337 -676 9837 0
216 -9838 0
-177 -9838 0
-216 177 9838 0
660 -9839 0
-287 -9839 0
-660 287 9839 0
974 -9840 0
-77 -9840 0
-974 77 9840 0
-707 -9841 0
98 -9841 0
707 -98 9841 0
294 -9842 0
-333 -9842 0
-294 333 9842 0
-898 -9843 0
245 -9843 0
898 -245 9843 0
894 -9844 0
515 -9844 0
-894 -515 9844 0
360 -9845 0
606 -9845 0
-360 -606 9845 0
280 -9846 0
882 -9846 0
-280 -882 9846 0
934 -9847 0
514 -9847 0
-934 -514 9847 0
108 -9848 0
73 -9848 0
-108 -73 9848 0
823 -9849 0
-246 -9849 0
-823 246 9849 0
846 -9850 0
650 -9850 0
-846 -650 9850 0
-565 -9851 0
67 -9851 0
565 -67 9851 0
224 -9852 0
357 -9852 0
-224 -357 9852 0
215 -9853 0
-558 -9853 0
-215 558 9853 0
-544 -9854 0
481 -9854 0
544 -481 9854 0
-531 -9855 0
124 -9855 0
531 -124 9855 0
190 -9856 0
546 -9856 0
-190 -546 9856 0
976 -9857 0
-568 -9857 0
-976 568 9857 0
750 -9858 0
-172 -9858 0
-750 172 9858 0
-984 -9859 0
58 -9859 0
984 -58 9859 0
-166 -9860 0
128 -9861 0
503 -9861 0
-128 -503 9861 0
260 -9862 0
-47 -9862 0
-260 47 9862 0
-669 -9863 0
401 -9863 0
669 -401 9863 0
-680 -9864 0
317 -9864 0
680 -317 9864 0
703 -9865 0
-107 -9865 0
-703 107 9865 0
-656 -9866 0
518 -9866 0
656 -518 9866 0
266 -9867 0
-319 -9867 0
-266 319 9867 0
461 -9868 0
995 -9868 0
-461 -995 9868 0
-873 -9869 0
522 -9869 0
873 -522 9869 0
13 -9870 0
533 -9870 0
-13 -533 9870 0
296 -9871 0
81 -9871 0
-296 -81 9871 0
806 -9872 0
933 -9872 0
-806 -933 9872 0
-147 -9873 0
482 -9873 0
147 -482 9873 0
781 -9874 0
531 -9874 0
-781 -531 9874 0
-870 -9875 0
793 -9875 0
870 -793 9875 0
131 -9876 0
-590 -9876 0
-131 590 9876 0
253 -9877 0
-483 -9877 0
-253 483 9877 0
56 -9878 0
-632 -9878 0
-56 632 9878 0
-305 -9879 0
313 -9879 0
305 -313 9879 0
-978 -9880 0
526 -9880 0
978 -526 9880 0
-569 -9881 0
662 -9881 0
569 -662 9881 0
-648 -9882 0
359 -9882 0
648 -359 9882 0
399 -9883 0
803 -9883 0
-399 -803 9883 0
-782 -9884 0
538 -9884 0
782 -538 9884 0
664 -9885 0
-231 -9885 0
-664 231 9885 0
309 -9886 0
-255 -9886 0
-309 255 9886 0
773 -9887 0
-895 -9887 0
-773 895 9887 0
206 -9888 0
373 -9888 0
-206 -373 9888 0
79 -9889 0
-201 -9889 0
-79 201 9889 0
647 -9890 0
-229 -9890 0
-647 229 9890 0
531 -9891 0
-174 -9891 0
-531 174 9891 0
752 -9892 0
-660 -9892 0
-752 660 9892 0
616 -9893 0
842 -9893 0
-616 -842 9893 0
495 -9894 0
-514 -9894 0
-495 514 9894 0
256 -9895 0
-250 -9895 0
-256 250 9895 0
-569 -9896 0
484 -9896 0
569 -484 9896 0
113 -9897 0
521 -9897 0
-113 -521 9897 0
7 -9898 0
-637 -9898 0
-7 637 9898 0
718 -9899 0
169 -9899 0
-718 -169 9899 0
414 -9900 0
994 -9900 0
-414 -994 9900 0
336 -9901 0
588 -9901 0
-336 -588 9901 0
511 -9902 0
-341 -9902 0
-511 341 9902 0
8 -9903 0
-460 -9903 0
-8 460 9903 0
-234 -9904 0
314 -9904 0
234 -314 9904 0
944 -9905 0
-388 -9905 0
-944 388 9905 0
735 -9906 0
14 -9906 0
-735 -14 9906 0
912 -9907 0
-432 -9907 0
-912 432 9907 0
559 -9908 0
115 -9908 0
-559 -115 9908 0
696 -9909 0
112 -9909 0
-696 -112 9909 0
-827 -9910 0
611 -9910 0
827 -611 9910 0
-541 -9911 0
610 -9911 0
541 -610 9911 0
-942 -9912 0
722 -9912 0
942 -722 9912 0
688 -9913 0
-782 -9913 0
-688 782 9913 0
-314 -9914 0
452 -9914 0
314 -452 9914 0
-105 -9915 0
268 -9915 0
105 -268 9915 0
831 -9916 0
251 -9916 0
-831 -251 9916 0
-696 -9917 0
39 -9917 0
696 -39 9917 0
583 -9918 0
-591 -9918 0
-583 591 9918 0
152 -9919 0
-989 -9919 0
-152 989 9919 0
816 -9920 0
327 -9920 0
-816 -327 9920 0
727 -9921 0
900 -9921 0
-727 -900 9921 0
848 -9922 0
-790 -9922 0
-848 790 9922 0
711 -9923 0
500 -9923 0
-711 -500 9923 0
-736 -9924 0
897 -9924 0
736 -897 9924 0
95 -9925 0
-385 -9925 0
-95 385 9925 0
843 -9926 0
-182 -9926 0
-843 182 9926 0
608 -9927 0
843 -9927 0
-608 -843 9927 0
163 -9928 0
945 -9928 0
-163 -945 9928 0
-620 -9929 0
363 -9929 0
620 -363 9929 0
440 -9930 0
310 -9930 0
-440 -310 9930 0
-689 -9931 0
542 -9931 0
689 -542 9931 0
136 -9932 0
180 -9932 0
-136 -180 9932 0
816 -9933 0
-842 -9933 0
-816 842 9933 0
909 -9934 0
-996 -9934 0
-909 996 9934 0
16 -9935 0
-507 -9935 0
-16 507 9935 0
-307 -9936 0
947 -9936 0
307 -947 9936 0
-978 -9937 0
228 -9937 0
978 -228 9937 0
958 -9938 0
460 -9938 0
-958 -460 9938 0
992 -9939 0
991 -9939 0
-992 -991 9939 0
-74 -9940 0
356 -9940 0
74 -356 9940 0
880 -9941 0
-477 -9941 0
-880 477 9941 0
951 -9942 0
909 -9942 0
-951 -909 9942 0
-699 -9943 0
467 -9943 0
699 -467 9943 0
211 -9944 0
257 -9944 0
-211 -257 9944 0
487 -9945 0
-621 -9945 0
-487 621 9945 0
119 -9946 0
937 -9946 0
-119 -937 9946 0
-3 -9947 0
605 -9947 0
3 -605 9947 0
-328 -9948 0
982 -9948 0
328 -982 9948 0
-915 -9949 0
57 -9949 0
915 -57 9949 0
663 -9950 0
-727 -9950 0
-663 727 9950 0
323 -9951 0
-183 -9951 0
-323 183 9951 0
269 -9952 0
-939 -9952 0
-269 939 9952 0
-992 -9953 0
820 -9953 0
992 -820 9953 0
55 -9954 0
-678 -9954 0
-55 678 9954 0
223 -9955 0
660 -9955 0
-223 -660 9955 0
815 -9956 0
-698 -9956 0
-815 698 9956 0
-361 -9957 0
316 -9957 0
361 -316 9957 0
-394 -9958 0
741 -9958 0
394 -741 9958 0
695 -9959 0
-835 -9959 0
-695 835 9959 0
462 -9960 0
-183 -9960 0
-462 183 9960 0
-50 -9961 0
785 -9961 0
50 -785 9961 0
711 -9962 0
-297 -9962 0
-711 297 9962 0
352 -9963 0
-627 -9963 0
-352 627 9963 0
23 -9964 0
-414 -9964 0
-23 414 9964 0
-106 -9965 0
908 -9965 0
106 -908 9965 0
-404 -9966 0
492 -9966 0
404 -492 9966 0
-539 -9967 0
90 -9967 0
539 -90 9967 0
-992 -9968 0
879 -9968 0
992 -879 9968 0
442 -9969 0
265 -9969 0
-442 -265 9969 0
-177 -9970 0
204 -9970 0
177 -204 9970 0
-459 -9971 0
842 -9971 0
459 -842 9971 0
-126 -9972 0
754 -9972 0
126 -754 9972 0
-960 -9973 0
338 -9973 0
960 -338 9973 0
472 -9974 0
-772 -9974 0
-472 772 9974 0
-791 -9975 0
729 -9975 0
791 -729 9975 0
768 -9976 0
727 -9976 0
-768 -727 9976 0
644 -9977 0
577 -9977 0
-644 -577 9977 0
144 -9978 0
930 -9978 0
-144 -930 9978 0
861 -9979 0
-717 -9979 0
-861 717 9979 0
-530 -9980 0
313 -9980 0
530 -313 9980 0
813 -9981 0
-526 -9981 0
-813 526 9981 0
-83 -9982 0
908 -9982 0
83 -908 9982 0
575 -9983 0
550 -9983 0
-575 -550 9983 0
376 -9984 0
-524 -9984 0
-376 524 9984 0
-344 -9985 0
871 -9985 0
344 -871 9985 0
29 -9986 0
393 -9986 0
-29 -393 9986 0
460 -9987 0
-215 -9987 0
-460 215 9987 0
-227 -9988 0
900 -9988 0
227 -900 9988 0
604 -9989 0
-797 -9989 0
-604 797 9989 0
-274 -9990 0
701 -9990 0
274 -701 9990 0
-881 -9991 0
325 -9991 0
881 -325 9991 0
792 -9992 0
-858 -9992 0
-792 858 9992 0
-894 -9993 0
137 -9993 0
894 -137 9993 0
797 -9994 0
-743 -9994 0
-797 743 9994 0
-376 -9995 0
968 -9995 0
376 -968 9995 0
-526 -9996 0
809 -9996 0
526 -809 9996 0
-876 -9997 0
354 -9997 0
876 -354 9997 0
583 -9998 0
-989 -9998 0
-583 989 9998 0
-627 -9999 0
876 -9999 0
627 -876 9999 0
-827 -10000 0
570 -10000 0
827 -570 10000 0
243 -10001 0
859 -10001 0
-243 -859 10001 0
84 -10002 0
-583 -10002 0
-84 583 10002 0
942 -10003 0
-514 -10003 0
-942 514 10003 0
-217 -10004 0
215 -10004 0
217 -215 10004 0
230 -10005 0
-15 -10005 0
-230 15 10005 0
-467 -10006 0
689 -10006 0
467 -689 10006 0
79 -10007 0
-924 -10007 0
-79 924 10007 0
618 -10008 0
-47 -10008 0
-618 47 10008 0
-858 -10009 0
404 -10009 0
858 -404 10009 0
-388 -10010 0
691 -10010 0
388 -691 10010 0
832 -10011 0
553 -10011 0
-832 -553 10011 0
120 -10012 0
350 -10012 0
-120 -350 10012 0
-17 -10013 0
435 -10013 0
17 -435 10013 0
24 -10014 0
-542 -10014 0
-24 542 10014 0
55 -10015 0
-308 -10015 0
-55 308 10015 0
-537 -10016 0
514 -10016 0
537 -514 10016 0
632 -10017 0
251 -10017 0
-632 -251 10017 0
-136 -10018 0
316 -10018 0
136 -316 10018 0
515 -10019 0
763 -10019 0
-515 -763 10019 0
-353 -10020 0
69 -10020 0
353 -69 10020 0
432 -10021 0
-328 -10021 0
-432 328 10021 0
-457 -10022 0
314 -10022 0
457 -314 10022 0
318 -10023 0
652 -10023 0
-318 -652 10023 0
960 -10024 0
650 -10024 0
-960 -650 10024 0
709 -10025 0
-846 -10025 0
-709 846 10025 0
47 -10026 0
-874 -10026 0
-47 874 10026 0
-370 -10027 0
730 -10027 0
370 -730 10027 0
506 -10028 0
-655 -10028 0
-506 655 10028 0
296 -10029 0
115 -10029 0
-296 -115 10029 0
102 -10030 0
883 -10030 0
-102 -883 10030 0
-126 -10031 0
58 -10031 0
126 -58 10031 0
979 -10032 0
-535 -10032 0
-979 535 10032 0
87 -10033 0
-235 -10033 0
-87 235 10033 0
828 -10034 0
225 -10034 0
-828 -225 10034 0
-969 -10035 0
574 -10035 0
969 -574 10035 0
-491 -10036 0
922 -10036 0
491 -922 10036 0
510 -10037 0
-51 -10037 0
-510 51 10037 0
838 -10038 0
-598 -10038 0
-838 598 10038 0
-938 -10039 0
841 -10039 0
938 -841 10039 0
792 -10040 0
-406 -10040 0
-792 406 10040 0
398 -10041 0
-686 -10041 0
-398 686 10041 0
334 -10042 0
721 -10042 0
-334 -721 10042 0
463 -10043 0
-743 -10043 0
-463 743 10043 0
462 -10044 0
433 -10044 0
-462 -433 10044 0
630 -10045 0
612 -10045 0
-630 -612 10045 0
432 -10046 0
876 -10046 0
-432 -876 10046 0
-509 -10047 0
395 -10047 0
509 -395 10047 0
758 -10048 0
-798 -10048 0
-758 798 10048 0
590 -10049 0
-91 -10049 0
-590 91 10049 0
-12 -10050 0
354 -10050 0
12 -354 10050 0
-274 -10051 0
753 -10051 0
274 -753 10051 0
-976 -10052 0
987 -10052 0
976 -987 10052 0
48 -10053 0
-771 -10053 0
-48 771 10053 0
602 -10054 0
114 -10054 0
-602 -114 10054 0
350 -10055 0
-626 -10055 0
-350 626 10055 0
-801 -10056 0
508 -10056 0
801 -508 10056 0
157 -10057 0
-349 -10057 0
-157 349 10057 0
-932 -10058 0
713 -10058 0
932 -713 10058 0
-912 -10059 0
328 -10059 0
912 -328 10059 0
231 -10060 0
-677 -10060 0
-231 677 10060 0
392 -10061 0
-352 -10061 0
-392 352 10061 0
957 -10062 0
577 -10062 0
-957 -577 10062 0
-602 -10063 0
122 -10063 0
602 -122 10063 0
376 -10064 0
144 -10064 0
-376 -144 10064 0
872 -10065 0
-907 -10065 0
-872 907 10065 0
448 -10066 0
-662 -10066 0
-448 662 10066 0
656 -10067 0
323 -10067 0
-656 -323 10067 0
-264 -10068 0
722 -10068 0
264 -722 10068 0
-91 -10069 0
595 -10069 0
91 -595 10069 0
-729 -10070 0
683 -10070 0
729 -683 10070 0
-417 -10071 0
867 -10071 0
417 -867 10071 0
436 -10072 0
-701 -10072 0
-436 701 10072 0
719 -10073 0
-181 -10073 0
-719 181 10073 0
-992 -10074 0
90 -10074 0
992 -90 10074 0
588 -10075 0
-988 -10075 0
-588 988 10075 0
-546 -10076 0
777 -10076 0
546 -777 10076 0
608 -10077 0
553 -10077 0
-608 -553 10077 0
224 -10078 0
-797 -10078 0
-224 797 10078 0
262 -10079 0
-125 -10079 0
-262 125 10079 0
-858 -10080 0
293 -10080 0
858 -293 10080 0
479 -10081 0
-562 -10081 0
-479 562 10081 0
-850 -10082 0
203 -10082 0
850 -203 10082 0
62 -10083 0
370 -10083 0
-62 -370 10083 0
-465 -10084 0
14 -10084 0
465 -14 10084 0
-257 -10085 0
785 -10085 0
257 -785 10085 0
28 -10086 0
355 -10086 0
-28 -355 10086 0
371 -10087 0
-287 -10087 0
-371 287 10087 0
-3 -10088 0
884 -10088 0
3 -884 10088 0
872 -10089 0
-429 -10089 0
-872 429 10089 0
368 -10090 0
-665 -10090 0
-368 665 10090 0
448 -10091 0
492 -10091 0
-448 -492 10091 0
-432 -10092 0
819 -10092 0
432 -819 10092 0
860 -10093 0
-476 -10093 0
-860 476 10093 0
-446 -10094 0
433 -10094 0
446 -433 10094 0
-889 -10095 0
467 -10095 0
889 -467 10095 0
37 -10096 0
-21 -10096 0
-37 21 10096 0
-892 -10097 0
506 -10097 0
892 -506 10097 0
84 -10098 0
-263 -10098 0
-84 263 10098 0
728 -10099 0
934 -10099 0
-728 -934 10099 0
757 -10100 0
-675 -10100 0
-757 675 10100 0
61 -10101 0
-734 -10101 0
-61 734 10101 0
448 -10102 0
451 -10102 0
-448 -451 10102 0
28 -10103 0
-453 -10103 0
-28 453 10103 0
967 -10104 0
-887 -10104 0
-967 887 10104 0
277 -10105 0
764 -10105 0
-277 -764 10105 0
-249 -10106 0
166 -10106 0
249 -166 10106 0
-930 -10107 0
971 -10107 0
930 -971 10107 0
253 -10108 0
186 -10108 0
-253 -186 10108 0
408 -10109 0
981 -10109 0
-408 -981 10109 0
792 -10110 0
-371 -10110 0
-792 371 10110 0
-737 -10111 0
629 -10111 0
737 -629 10111 0
-74 -10112 0
268 -10112 0
74 -268 10112 0
216 -10113 0
-482 -10113 0
-216 482 10113 0
14 -10114 0
545 -10114 0
-14 -545 10114 0
-935 -10115 0
697 -10115 0
935 -697 10115 0
-18 -10116 0
635 -10116 0
18 -635 10116 0
218 -10117 0
489 -10117 0
-218 -489 10117 0
912 -10118 0
-8 -10118 0
-912 8 10118 0
902 -10119 0
212 -10119 0
-902 -212 10119 0
949 -10120 0
-580 -10120 0
-949 580 10120 0
-345 -10121 0
230 -10121 0
345 -230 10121 0
148 -10122 0
-902 -10122 0
-148 902 10122 0
360 -10123 0
148 -10123 0
-360 -148 10123 0
-114 -10124 0
532 -10124 0
114 -532 10124 0
453 -10125 0
-958 -10125 0
-453 958 10125 0
904 -10126 0
93 -10126 0
-904 -93 10126 0
659 -10127 0
162 -10127 0
-659 -162 10127 0
712 -10128 0
-20 -10128 0
-712 20 10128 0
-49 -10129 0
284 -10129 0
49 -284 10129 0
37 -10130 0
308 -10130 0
-37 -308 10130 0
598 -10131 0
-39 -10131 0
-598 39 10131 0
-636 -10132 0
722 -10132 0
636 -722 10132 0
-918 -10133 0
81 -10133 0
918 -81 10133 0
807 -10134 0
390 -10134 0
-807 -390 10134 0
527 -10135 0
-285 -10135 0
-527 285 10135 0
-676 -10136 0
187 -10136 0
676 -187 10136 0
-840 -10137 0
956 -10137 0
840 -956 10137 0
-44 -10138 0
452 -10138 0
44 -452 10138 0
-280 -10139 0
117 -10139 0
280 -117 10139 0
439 -10140 0
-162 -10140 0
-439 162 10140 0
567 -10141 0
538 -10141 0
-567 -538 10141 0
-466 -10142 0
909 -10142 0
466 -909 10142 0
410 -10143 0
705 -10143 0
-410 -705 10143 0
135 -10144 0
-719 -10144 0
-135 719 10144 0
-888 -10145 0
667 -10145 0
888 -667 10145 0
-617 -10146 0
877 -10146 0
617 -877 10146 0
526 -10147 0
-622 -10147 0
-526 622 10147 0
701 -10148 0
289 -10148 0
-701 -289 10148 0
253 -10149 0
-806 -10149 0
-253 806 10149 0
631 -10150 0
323 -10150 0
-631 -323 10150 0
-178 -10151 0
374 -10151 0
178 -374 10151 0
-405 -10152 0
65 -10152 0
405 -65 10152 0
654 -10153 0
-367 -10153 0
-654 367 10153 0
-251 -10154 0
217 -10154 0
251 -217 10154 0
277 -10155 0
268 -10155 0
-277 -268 10155 0
451 -10156 0
-597 -10156 0
-451 597 10156 0
661 -10157 0
-975 -10157 0
-661 975 10157 0
213 -10158 0
987 -10158 0
-213 -987 10158 0
559 -10159 0
-322 -10159 0
-559 322 10159 0
-137 -10160 0
972 -10160 0
137 -972 10160 0
-600 -10161 0
609 -10161 0
600 -609 10161 0
151 -10162 0
-189 -10162 0
-151 189 10162 0
276 -10163 0
-70 -10163 0
-276 70 10163 0
174 -10164 0
-551 -10164 0
-174 551 10164 0
-144 -10165 0
265 -10165 0
144 -265 10165 0
215 -10166 0
242 -10166 0
-215 -242 10166 0
-226 -10167 0
341 -10167 0
226 -341 10167 0
698 -10168 0
546 -10168 0
-698 -546 10168 0
159 -10169 0
385 -10169 0
-159 -385 10169 0
310 -10170 0
169 -10170 0
-310 -169 10170 0
326 -10171 0
445 -10171 0
-326 -445 10171 0
-708 -10172 0
714 -10172 0
708 -714 10172 0
558 -10173 0
-599 -10173 0
-558 599 10173 0
64 -10174 0
-475 -10174 0
-64 475 10174 0
785 -10175 0
-431 -10175 0
-785 431 10175 0
-104 -10176 0
369 -10176 0
104 -369 10176 0
103 -10177 0
-499 -10177 0
-103 499 10177 0
604 -10178 0
-884 -10178 0
-604 884 10178 0
702 -10179 0
-716 -10179 0
-702 716 10179 0
952 -10180 0
-939 -10180 0
-952 939 10180 0
908 -10181 0
-572 -10181 0
-908 572 10181 0
-172 -10182 0
707 -10182 0
172 -707 10182 0
878 -10183 0
730 -10183 0
-878 -730 10183 0
108 -10184 0
-309 -10184 0
-108 309 10184 0
62 -10185 0
660 -10185 0
-62 -660 10185 0
152 -10186 0
-600 -10186 0
-152 600 10186 0
-744 -10187 0
26 -10187 0
744 -26 10187 0
877 -10188 0
483 -10188 0
-877 -483 10188 0
270 -10189 0
-261 -10189 0
-270 261 10189 0
542 -10190 0
-941 -10190 0
-542 941 10190 0
739 -10191 0
-382 -10191 0
-739 382 10191 0
607 -10192 0
-726 -10192 0
-607 726 10192 0
-156 -10193 0
217 -10193 0
156 -217 10193 0
119 -10194 0
-309 -10194 0
-119 309 10194 0
-929 -10195 0
821 -10195 0
929 -821 10195 0
671 -10196 0
-610 -10196 0
-671 610 10196 0
-784 -10197 0
215 -10197 0
784 -215 10197 0
150 -10198 0
-437 -10198 0
-150 437 10198 0
256 -10199 0
460 -10199 0
-256 -460 10199 0
374 -10200 0
-567 -10200 0
-374 567 10200 0
600 -10201 0
687 -10201 0
-600 -687 10201 0
303 -10202 0
-778 -10202 0
-303 778 10202 0
254 -10203 0
-965 -10203 0
-254 965 10203 0
-187 -10204 0
346 -10204 0
187 -346 10204 0
266 -10205 0
-15 -10205 0
-266 15 10205 0
677 -10206 0
-550 -10206 0
-677 550 10206 0
106 -10207 0
681 -10207 0
-106 -681 10207 0
861 -10208 0
-572 -10208 0
-861 572 10208 0
168 -10209 0
-141 -10209 0
-168 141 10209 0
-985 -10210 0
353 -10210 0
985 -353 10210 0
488 -10211 0
-188 -10211 0
-488 188 10211 0
-497 -10212 0
413 -10212 0
497 -413 10212 0
237 -10213 0
41 -10213 0
-237 -41 10213 0
884 -10214 0
556 -10214 0
-884 -556 10214 0
-945 -10215 0
901 -10215 0
945 -901 10215 0
-57 -10216 0
804 -10216 0
57 -804 10216 0
7 -10217 0
865 -10217 0
-7 -865 10217 0
559 -10218 0
772 -10218 0
-559 -772 10218 0
-850 -10219 0
731 -10219 0
850 -731 10219 0
959 -10220 0
-4 -10220 0
-959 4 10220 0
624 -10221 0
-92 -10221 0
-624 92 10221 0
568 -10222 0
537 -10222 0
-568 -537 10222 0
135 -10223 0
-751 -10223 0
-135 751 10223 0
160 -10224 0
-428 -10224 0
-160 428 10224 0
998 -10225 0
-660 -10225 0
-998 660 10225 0
63 -10226 0
17 -10226 0
-63 -17 10226 0
990 -10227 0
-478 -10227 0
-990 478 10227 0
-906 -10228 0
869 -10228 0
906 -869 10228 0
464 -10229 0
-777 -10229 0
-464 777 10229 0
-363 -10230 0
25 -10230 0
363 -25 10230 0
-496 -10231 0
562 -10231 0
496 -562 10231 0
855 -10232 0
-266 -10232 0
-855 266 10232 0
800 -10233 0
90 -10233 0
-800 -90 10233 0
81 -10234 0
273 -10234 0
-81 -273 10234 0
93 -10235 0
-413 -10235 0
-93 413 10235 0
-17 -10236 0
414 -10236 0
17 -414 10236 0
80 -10237 0
-478 -10237 0
-80 478 10237 0
894 -10238 0
269 -10238 0
-894 -269 10238 0
247 -10239 0
245 -10239 0
-247 -245 10239 0
-674 -10240 0
453 -10240 0
674 -453 10240 0
366 -10241 0
76 -10241 0
-366 -76 10241 0
-50 -10242 0
5 -10242 0
50 -5 10242 0
-493 -10243 0
649 -10243 0
493 -649 10243 0
192 -10244 0
-971 -10244 0
-192 971 10244 0
167 -10245 0
217 -10245 0
-167 -217 10245 0
182 -10246 0
246 -10246 0
-182 -246 10246 0
354 -10247 0
681 -10247 0
-354 -681 10247 0
612 -10248 0
498 -10248 0
-612 -498 10248 0
90 -10249 0
-463 -10249 0
-90 463 10249 0
790 -10250 0
-487 -10250 0
-790 487 10250 0
-761 -10251 0
22 -10251 0
761 -22 10251 0
-755 -10252 0
746 -10252 0
755 -746 10252 0
368 -10253 0
-945 -10253 0
-368 945 10253 0
-426 -10254 0
750 -10254 0
426 -750 10254 0
822 -10255 0
-716 -10255 0
-822 716 10255 0
750 -10256 0
-22 -10256 0
-750 22 10256 0
-80 -10257 0
995 -10257 0
80 -995 10257 0
381 -10258 0
105 -10258 0
-381 -105 10258 0
104 -10259 0
960 -10259 0
-104 -960 10259 0
311 -10260 0
-883 -10260 0
-311 883 10260 0
117 -10261 0
43 -10261 0
-117 -43 10261 0
-250 -10262 0
33 -10262 0
250 -33 10262 0
-313 -10263 0
225 -10263 0
313 -225 10263 0
48 -10264 0
-784 -10264 0
-48 784 10264 0
565 -10265 0
971 -10265 0
-565 -971 10265 0
-683 -10266 0
308 -10266 0
683 -308 10266 0
-874 -10267 0
420 -10267 0
874 -420 10267 0
626 -10268 0
-727 -10268 0
-626 727 10268 0
455 -10269 0
-958 -10269 0
-455 958 10269 0
677 -10270 0
601 -10270 0
-677 -601 10270 0
-825 -10271 0
302 -10271 0
825 -302 10271 0
23 -10272 0
-534 -10272 0
-23 534 10272 0
881 -10273 0
529 -10273 0
-881 -529 10273 0
815 -10274 0
514 -10274 0
-815 -514 10274 0
-569 -10275 0
844 -10275 0
569 -844 10275 0
915 -10276 0
-871 -10276 0
-915 871 10276 0
230 -10277 0
601 -10277 0
-230 -601 10277 0
989 -10278 0
-315 -10278 0
-989 315 10278 0
773 -10279 0
-277 -10279 0
-773 277 10279 0
-349 -10280 0
209 -10280 0
349 -209 10280 0
45 -10281 0
-37 -10281 0
-45 37 10281 0
167 -10282 0
463 -10282 0
-167 -463 10282 0
7 -10283 0
-217 -10283 0
-7 217 10283 0
-578 -10284 0
171 -10284 0
578 -171 10284 0
684 -10285 0
-375 -10285 0
-684 375 10285 0
-813 -10286 0
673 -10286 0
813 -673 10286 0
-827 -10287 0
737 -10287 0
827 -737 10287 0
-377 -10288 0
590 -10288 0
377 -590 10288 0
118 -10289 0
-836 -10289 0
-118 836 10289 0
605 -10290 0
987 -10290 0
-605 -987 10290 0
157 -10291 0
44 -10291 0
-157 -44 10291 0
-771 -10292 0
379 -10292 0
771 -379 10292 0
-825 -10293 0
65 -10293 0
825 -65 10293 0
734 -10294 0
-82 -10294 0
-734 82 10294 0
850 -10295 0
9 -10295 0
-850 -9 10295 0
536 -10296 0
397 -10296 0
-536 -397 10296 0
479 -10297 0
-835 -10297 0
-479 835 10297 0
749 -10298 0
-636 -10298 0
-749 636 10298 0
100 -10299 0
996 -10299 0
-100 -996 10299 0
496 -10300 0
-384 -10300 0
-496 384 10300 0
336 -10301 0
231 -10301 0
-336 -231 10301 0
328 -10302 0
-510 -10302 0
-328 510 10302 0
111 -10303 0
771 -10303 0
-111 -771 10303 0
423 -10304 0
-671 -10304 0
-423 671 10304 0
566 -10305 0
595 -10305 0
-566 -595 10305 0
134 -10306 0
4 -10306 0
-134 -4 10306 0
-989 -10307 0
178 -10307 0
989 -178 10307 0
230 -10308 0
563 -10308 0
-230 -563 10308 0
382 -10309 0
996 -10309 0
-382 -996 10309 0
264 -10310 0
641 -10310 0
-264 -641 10310 0
535 -10311 0
-358 -10311 0
-535 358 10311 0
479 -10312 0
-923 -10312 0
-479 923 10312 0
-75 -10313 0
371 -10313 0
75 -371 10313 0
15 -10314 0
451 -10314 0
-15 -451 10314 0
954 -10315 0
994 -10315 0
-954 -994 10315 0
656 -10316 0
310 -10316 0
-656 -310 10316 0
990 -10317 0
-404 -10317 0
-990 404 10317 0
-929 -10318 0
963 -10318 0
929 -963 10318 0
734 -10319 0
-460 -10319 0
-734 460 10319 0
-905 -10320 0
230 -10320 0
905 -230 10320 0
280 -10321 0
-326 -10321 0
-280 326 10321 0
-128 -10322 0
231 -10322 0
128 -231 10322 0
166 -10323 0
-479 -10323 0
-166 479 10323 0
727 -10324 0
916 -10324 0
-727 -916 10324 0
-32 -10325 0
226 -10325 0
32 -226 10325 0
-742 -10326 0
289 -10326 0
742 -289 10326 0
208 -10327 0
-804 -10327 0
-208 804 10327 0
-452 -10328 0
417 -10328 0
452 -417 10328 0
-387 -10329 0
923 -10329 0
387 -923 10329 0
264 -10330 0
444 -10330 0
-264 -444 10330 0
-236 -10331 0
435 -10331 0
236 -435 10331 0
823 -10332 0
-83 -10332 0
-823 83 10332 0
318 -10333 0
-754 -10333 0
-318 754 10333 0
-75 -10334 0
66 -10334 0
75 -66 10334 0
-955 -10335 0
357 -10335 0
955 -357 10335 0
87 -10336 0
406 -10336 0
-87 -406 10336 0
-885 -10337 0
634 -10337 0
885 -634 10337 0
639 -10338 0
211 -10338 0
-639 -211 10338 0
938 -10339 0
817 -10339 0
-938 -817 10339 0
206 -10340 0
-131 -10340 0
-206 131 10340 0
846 -10341 0
980 -10341 0
-846 -980 10341 0
-521 -10342 0
882 -10342 0
521 -882 10342 0
-858 -10343 0
923 -10343 0
858 -923 10343 0
347 -10344 0
-407 -10344 0
-347 407 10344 0
-310 -10345 0
865 -10345 0
310 -865 10345 0
254 -10346 0
418 -10346 0
-254 -418 10346 0
482 -10347 0
-623 -10347 0
-482 623 10347 0
679 -10348 0
-331 -10348 0
-679 331 10348 0
367 -10349 0
-338 -10349 0
-367 338 10349 0
-666 -10350 0
675 -10350 0
666 -675 10350 0
-435 -10351 0
909 -10351 0
435 -909 10351 0
838 -10352 0
579 -10352 0
-838 -579 10352 0
184 -10353 0
-948 -10353 0
-184 948 10353 0
-585 -10354 0
157 -10354 0
585 -157 10354 0
-636 -10355 0
298 -10355 0
636 -298 10355 0
716 -10356 0
-917 -10356 0
-716 917 10356 0
-648 -10357 0
406 -10357 0
648 -406 10357 0
383 -10358 0
-106 -10358 0
-383 106 10358 0
291 -10359 0
842 -10359 0
-291 -842 10359 0
-316 -10360 0
716 -10360 0
316 -716 10360 0
918 -10361 0
-531 -10361 0
-918 531 10361 0
31 -10362 0
-495 -10362 0
-31 495 10362 0
927 -10363 0
-621 -10363 0
-927 621 10363 0
773 -10364 0
889 -10364 0
-773 -889 10364 0
-154 -10365 0
565 -10365 0
154 -565 10365 0
934 -10366 0
-990 -10366 0
-934 990 10366 0
840 -10367 0
-770 -10367 0
-840 770 10367 0
-332 -10368 0
850 -10368 0
332 -850 10368 0
823 -10369 0
89 -10369 0
-823 -89 10369 0
536 -10370 0
-541 -10370 0
-536 541 10370 0
664 -10371 0
-428 -10371 0
-664 428 10371 0
645 -10372 0
-765 -10372 0
-645 765 10372 0
104 -10373 0
102 -10374 0
-966 -10374 0
-102 966 10374 0
885 -10375 0
68 -10375 0
-885 -68 10375 0
-601 -10376 0
795 -10376 0
601 -795 10376 0
-338 -10377 0
462 -10377 0
338 -462 10377 0
-529 -10378 0
753 -10378 0
529 -753 10378 0
286 -10379 0
140 -10379 0
-286 -140 10379 0
757 -10380 0
228 -10380 0
-757 -228 10380 0
-648 -10381 0
168 -10381 0
648 -168 10381 0
-341 -10382 0
323 -10382 0
341 -323 10382 0
197 -10383 0
690 -10383 0
-197 -690 10383 0
15 -10384 0
-269 -10384 0
-15 269 10384 0
418 -10385 0
537 -10385 0
-418 -537 10385 0
-288 -10386 0
166 -10386 0
288 -166 10386 0
-41 -10387 0
910 -10387 0
41 -910 10387 0
870 -10388 0
883 -10388 0
-870 -883 10388 0
736 -10389 0
-187 -10389 0
-736 187 10389 0
-554 -10390 0
2 -10390 0
554 -2 10390 0
584 -10391 0
141 -10391 0
-584 -141 10391 0
-868 -10392 0
225 -10392 0
868 -225 10392 0
507 -10393 0
-334 -10393 0
-507 334 10393 0
120 -10394 0
-263 -10394 0
-120 263 10394 0
65 -10395 0
-367 -10395 0
-65 367 10395 0
833 -10396 0
-399 -10396 0
-833 399 10396 0
-73 -10397 0
523 -10397 0
73 -523 10397 0
576 -10398 0
-420 -10398 0
-576 420 10398 0
-364 -10399 0
211 -10399 0
364 -211 10399 0
847 -10400 0
841 -10400 0
-847 -841 10400 0
309 -10401 0
210 -10401 0
-309 -210 10401 0
-644 -10402 0
633 -10402 0
644 -633 10402 0
792 -10403 0
-248 -10403 0
-792 248 10403 0
-814 -10404 0
746 -10404 0
814 -746 10404 0
-528 -10405 0
847 -10405 0
528 -847 10405 0
294 -10406 0
668 -10406 0
-294 -668 10406 0
787 -10407 0
307 -10407 0
-787 -307 10407 0
176 -10408 0
-105 -10408 0
-176 105 10408 0
-409 -10409 0
626 -10409 0
409 -626 10409 0
-57 -10410 0
553 -10410 0
57 -553 10410 0
375 -10411 0
-661 -10411 0
-375 661 10411 0
788 -10412 0
532 -10412 0
-788 -532 10412 0
874 -10413 0
-95 -10413 0
-874 95 10413 0
-126 -10414 0
545 -10414 0
126 -545 10414 0
955 -10415 0
-54 -10415 0
-955 54 10415 0
-344 -10416 0
823 -10416 0
344 -823 10416 0
342 -10417 0
-412 -10417 0
-342 412 10417 0
503 -10418 0
-206 -10418 0
-503 206 10418 0
975 -10419 0
-930 -10419 0
-975 930 10419 0
966 -10420 0
849 -10420 0
-966 -849 10420 0
551 -10421 0
-799 -10421 0
-551 799 10421 0
284 -10422 0
425 -10422 0
-284 -425 10422 0
-978 -10423 0
141 -10423 0
978 -141 10423 0
583 -10424 0
259 -10424 0
-583 -259 10424 0
-806 -10425 0
761 -10425 0
806 -761 10425 0
494 -10426 0
850 -10426 0
-494 -850 10426 0
364 -10427 0
-988 -10427 0
-364 988 10427 0
399 -10428 0
-659 -10428 0
-399 659 10428 0
699 -10429 0
-207 -10429 0
-699 207 10429 0
823 -10430 0
396 -10430 0
-823 -396 10430 0
952 -10431 0
88 -10431 0
-952 -88 10431 0
-546 -10432 0
461 -10432 0
546 -461 10432 0
750 -10433 0
796 -10433 0
-750 -796 10433 0
-164 -10434 0
306 -10434 0
164 -306 10434 0
391 -10435 0
89 -10435 0
-391 -89 10435 0
-872 -10436 0
622 -10436 0
872 -622 10436 0
848 -10437 0
481 -10437 0
-848 -481 10437 0
624 -10438 0
-401 -10438 0
-624 401 10438 0
520 -10439 0
-412 -10439 0
-520 412 10439 0
-88 -10440 0
858 -10440 0
88 -858 10440 0
18 -10441 0
-103 -10441 0
-18 103 10441 0
-681 -10442 0
574 -10442 0
681 -574 10442 0
195 -10443 0
411 -10443 0
-195 -411 10443 0
-154 -10444 0
981 -10444 0
154 -981 10444 0
-684 -10445 0
217 -10445 0
684 -217 10445 0
727 -10446 0
-518 -10446 0
-727 518 10446 0
725 -10447 0
-45 -10447 0
-725 45 10447 0
-417 -10448 0
835 -10448 0
417 -835 10448 0
638 -10449 0
-626 -10449 0
-638 626 10449 0
-229 -10450 0
978 -10450 0
229 -978 10450 0
240 -10451 0
471 -10451 0
-240 -471 10451 0
-977 -10452 0
690 -10452 0
977 -690 10452 0
-485 -10453 0
43 -10453 0
485 -43 10453 0
926 -10454 0
-20 -10454 0
-926 20 10454 0
670 -10455 0
782 -10455 0
-670 -782 10455 0
969 -10456 0
-543 -10456 0
-969 543 10456 0
887 -10457 0
147 -10457 0
-887 -147 10457 0
462 -10458 0
-869 -10458 0
-462 869 10458 0
270 -10459 0
-958 -10459 0
-270 958 10459 0
464 -10460 0
-194 -10460 0
-464 194 10460 0
967 -10461 0
-317 -10461 0
-967 317 10461 0
759 -10462 0
767 -10462 0
-759 -767 10462 0
471 -10463 0
-190 -10463 0
-471 190 10463 0
-506 -10464 0
483 -10464 0
506 -483 10464 0
-404 -10465 0
409 -10465 0
404 -409 10465 0
32 -10466 0
-818 -10466 0
-32 818 10466 0
295 -10467 0
-737 -10467 0
-295 737 10467 0
741 -10468 0
403 -10468 0
-741 -403 10468 0
-769 -10469 0
652 -10469 0
769 -652 10469 0
-693 -10470 0
282 -10470 0
693 -282 10470 0
941 -10471 0
714 -10471 0
-941 -714 10471 0
626 -10472 0
-215 -10472 0
-626 215 10472 0
-193 -10473 0
155 -10473 0
193 -155 10473 0
-944 -10474 0
457 -10474 0
944 -457 10474 0
536 -10475 0
-586 -10475 0
-536 586 10475 0
734 -10476 0
-508 -10476 0
-734 508 10476 0
431 -10477 0
108 -10477 0
-431 -108 10477 0
126 -10478 0
374 -10478 0
-126 -374 10478 0
-385 -10479 0
302 -10479 0
385 -302 10479 0
111 -10480 0
-951 -10480 0
-111 951 10480 0
737 -10481 0
-855 -10481 0
-737 855 10481 0
-561 -10482 0
595 -10482 0
561 -595 10482 0
104 -10483 0
-682 -10483 0
-104 682 10483 0
-778 -10484 0
449 -10484 0
778 -449 10484 0
-826 -10485 0
797 -10485 0
826 -797 10485 0
-45 -10486 0
595 -10486 0
45 -595 10486 0
230 -10487 0
585 -10487 0
-230 -585 10487 0
-698 -10488 0
730 -10488 0
698 -730 10488 0
539 -10489 0
235 -10489 0
-539 -235 10489 0
662 -10490 0
89 -10490 0
-662 -89 10490 0
-746 -10491 0
322 -10491 0
746 -322 10491 0
559 -10492 0
665 -10492 0
-559 -665 10492 0
-337 -10493 0
558 -10493 0
337 -558 10493 0
967 -10494 0
-687 -10494 0
-967 687 10494 0
477 -10495 0
-173 -10495 0
-477 173 10495 0
-720 -10496 0
645 -10496 0
720 -645 10496 0
962 -10497 0
746 -10497 0
-962 -746 10497 0
907 -10498 0
-495 -10498 0
-907 495 10498 0
-971 -10499 0
12 -10499 0
971 -12 10499 0
584 -10500 0
-493 -10500 0
-584 493 10500 0
614 -10501 0
-253 -10501 0
-614 253 10501 0
-712 -10502 0
972 -10502 0
712 -972 10502 0
95 -10503 0
-462 -10503 0
-95 462 10503 0
773 -10504 0
435 -10504 0
-773 -435 10504 0
944 -10505 0
894 -10505 0
-944 -894 10505 0
695 -10506 0
-905 -10506 0
-695 905 10506 0
-281 -10507 0
655 -10507 0
281 -655 10507 0
391 -10508 0
461 -10508 0
-391 -461 10508 0
668 -10509 0
386 -10509 0
-668 -386 10509 0
959 -10510 0
-707 -10510 0
-959 707 10510 0
774 -10511 0
396 -10511 0
-774 -396 10511 0
364 -10512 0
-110 -10512 0
-364 110 10512 0
-396 -10513 0
553 -10513 0
396 -553 10513 0
-18 -10514 0
390 -10514 0
18 -390 10514 0
141 -10515 0
291 -10515 0
-141 -291 10515 0
502 -10516 0
938 -10516 0
-502 -938 10516 0
358 -10517 0
-995 -10517 0
-358 995 10517 0
-537 -10518 0
267 -10518 0
537 -267 10518 0
608 -10519 0
-888 -10519 0
-608 888 10519 0
549 -10520 0
-237 -10520 0
-549 237 10520 0
782 -10521 0
-299 -10521 0
-782 299 10521 0
-72 -10522 0
378 -10522 0
72 -378 10522 0
-457 -10523 0
114 -10523 0
457 -114 10523 0
540 -10524 0
-294 -10524 0
-540 294 10524 0
-425 -10525 0
322 -10525 0
425 -322 10525 0
213 -10526 0
-734 -10526 0
-213 734 10526 0
-104 -10527 0
571 -10527 0
104 -571 10527 0
-602 -10528 0
490 -10528 0
602 -490 10528 0
-711 -10529 0
873 -10529 0
711 -873 10529 0
-509 -10530 0
499 -10530 0
509 -499 10530 0
232 -10531 0
-467 -10531 0
-232 467 10531 0
-721 -10532 0
813 -10532 0
721 -813 10532 0
-921 -10533 0
241 -10533 0
921 -241 10533 0
63 -10534 0
535 -10534 0
-63 -535 10534 0
979 -10535 0
-879 -10535 0
-979 879 10535 0
736 -10536 0
495 -10536 0
-736 -495 10536 0
440 -10537 0
-349 -10537 0
-440 349 10537 0
-292 -10538 0
930 -10538 0
292 -930 10538 0
-946 -10539 0
470 -10539 0
946 -470 10539 0
840 -10540 0
-984 -10540 0
-840 984 10540 0
762 -10541 0
81 -10541 0
-762 -81 10541 0
29 -10542 0
35 -10542 0
-29 -35 10542 0
446 -10543 0
929 -10543 0
-446 -929 10543 0
199 -10544 0
-742 -10544 0
-199 742 10544 0
-731 -10545 0
354 -10545 0
731 -354 10545 0
536 -10546 0
291 -10546 0
-536 -291 10546 0
-840 -10547 0
627 -10547 0
840 -627 10547 0
-16 -10548 0
939 -10548 0
16 -939 10548 0
-856 -10549 0
389 -10549 0
856 -389 10549 0
79 -10550 0
339 -10550 0
-79 -339 10550 0
-275 -10551 0
372 -10551 0
275 -372 10551 0
680 -10552 0
947 -10552 0
-680 -947 10552 0
338 -10553 0
250 -10553 0
-338 -250 10553 0
-888 -10554 0
753 -10554 0
888 -753 10554 0
549 -10555 0
770 -10555 0
-549 -770 10555 0
680 -10556 0
-642 -10556 0
-680 642 10556 0
824 -10557 0
-728 -10557 0
-824 728 10557 0
622 -10558 0
58 -10558 0
-622 -58 10558 0
-185 -10559 0
633 -10559 0
185 -633 10559 0
48 -10560 0
338 -10560 0
-48 -338 10560 0
-304 -10561 0
870 -10561 0
304 -870 10561 0
-810 -10562 0
433 -10562 0
810 -433 10562 0
197 -10563 0
-155 -10563 0
-197 155 10563 0
911 -10564 0
-50 -10564 0
-911 50 10564 0
960 -10565 0
-640 -10565 0
-960 640 10565 0
44 -10566 0
987 -10566 0
-44 -987 10566 0
536 -10567 0
396 -10567 0
-536 -396 10567 0
340 -10568 0
-967 -10568 0
-340 967 10568 0
-978 -10569 0
250 -10569 0
978 -250 10569 0
-413 -10570 0
298 -10570 0
413 -298 10570 0
659 -10571 0
-15 -10571 0
-659 15 10571 0
771 -10572 0
875 -10572 0
-771 -875 10572 0
375 -10573 0
780 -10573 0
-375 -780 10573 0
-498 -10574 0
937 -10574 0
498 -937 10574 0
112 -10575 0
-518 -10575 0
-112 518 10575 0
374 -10576 0
-406 -10576 0
-374 406 10576 0
190 -10577 0
-485 -10577 0
-190 485 10577 0
720 -10578 0
657 -10578 0
-720 -657 10578 0
-385 -10579 0
295 -10579 0
385 -295 10579 0
341 -10580 0
-54 -10580 0
-341 54 10580 0
172 -10581 0
-228 -10581 0
-172 228 10581 0
181 -10582 0
945 -10582 0
-181 -945 10582 0
-641 -10583 0
37 -10583 0
641 -37 10583 0
887 -10584 0
-447 -10584 0
-887 447 10584 0
-80 -10585 0
865 -10585 0
80 -865 10585 0
5 -10586 0
188 -10586 0
-5 -188 10586 0
472 -10587 0
625 -10587 0
-472 -625 10587 0
-284 -10588 0
3 -10588 0
284 -3 10588 0
71 -10589 0
300 -10589 0
-71 -300 10589 0
422 -10590 0
-41 -10591 0
637 -10591 0
41 -637 10591 0
-602 -10592 0
197 -10592 0
602 -197 10592 0
621 -10593 0
690 -10593 0
-621 -690 10593 0
-688 -10594 0
814 -10594 0
688 -814 10594 0
-265 -10595 0
345 -10595 0
265 -345 10595 0
653 -10596 0
58 -10596 0
-653 -58 10596 0
27 -10597 0
786 -10597 0
-27 -786 10597 0
336 -10598 0
193 -10598 0
-336 -193 10598 0
95 -10599 0
-346 -10599 0
-95 346 10599 0
-466 -10600 0
923 -10600 0
466 -923 10600 0
660 -10601 0
460 -10601 0
-660 -460 10601 0
-426 -10602 0
803 -10602 0
426 -803 10602 0
772 -10603 0
-133 -10603 0
-772 133 10603 0
742 -10604 0
219 -10604 0
-742 -219 10604 0
878 -10605 0
314 -10605 0
-878 -314 10605 0
-684 -10606 0
657 -10606 0
684 -657 10606 0
637 -10607 0
-943 -10607 0
-637 943 10607 0
719 -10608 0
562 -10608 0
-719 -562 10608 0
-561 -10609 0
825 -10609 0
561 -825 10609 0
591 -10610 0
-90 -10610 0
-591 90 10610 0
366 -10611 0
787 -10611 0
-366 -787 10611 0
-420 -10612 0
753 -10612 0
420 -753 10612 0
-904 -10613 0
778 -10613 0
904 -778 10613 0
711 -10614 0
-505 -10614 0
-711 505 10614 0
306 -10615 0
-327 -10615 0
-306 327 10615 0
443 -10616 0
553 -10616 0
-443 -553 10616 0
-680 -10617 0
450 -10617 0
680 -450 10617 0
525 -10618 0
-158 -10618 0
-525 158 10618 0
61 -10619 0
-557 -10619 0
-61 557 10619 0
902 -10620 0
764 -10620 0
-902 -764 10620 0
918 -10621 0
851 -10621 0
-918 -851 10621 0
398 -10622 0
774 -10622 0
-398 -774 10622 0
159 -10623 0
-533 -10623 0
-159 533 10623 0
23 -10624 0
877 -10624 0
-23 -877 10624 0
151 -10625 0
-31 -10625 0
-151 31 10625 0
221 -10626 0
-46 -10626 0
-221 46 10626 0
-11 -10627 0
803 -10627 0
11 -803 10627 0
-743 -10628 0
521 -10628 0
743 -521 10628 0
630 -10629 0
-190 -10629 0
-630 190 10629 0
47 -10630 0
972 -10630 0
-47 -972 10630 0
333 -10631 0
97 -10631 0
-333 -97 10631 0
420 -10632 0
-734 -10632 0
-420 734 10632 0
12 -10633 0
-567 -10633 0
-12 567 10633 0
-322 -10634 0
965 -10634 0
322 -965 10634 0
592 -10635 0
59 -10635 0
-592 -59 10635 0
400 -10636 0
-798 -10636 0
-400 798 10636 0
-265 -10637 0
841 -10637 0
265 -841 10637 0
357 -10638 0
994 -10638 0
-357 -994 10638 0
218 -10639 0
-471 -10639 0
-218 471 10639 0
-156 -10640 0
561 -10640 0
156 -561 10640 0
-754 -10641 0
102 -10641 0
754 -102 10641 0
456 -10642 0
758 -10642 0
-456 -758 10642 0
-249 -10643 0
814 -10643 0
249 -814 10643 0
280 -10644 0
-481 -10644 0
-280 481 10644 0
-977 -10645 0
426 -10645 0
977 -426 10645 0
1000 -10646 0
293 -10646 0
-1000 -293 10646 0
957 -10647 0
-279 -10647 0
-957 279 10647 0
303 -10648 0
293 -10648 0
-303 -293 10648 0
484 -10649 0
-847 -10649 0
-484 847 10649 0
45 -10650 0
909 -10650 0
-45 -909 10650 0
438 -10651 0
-252 -10651 0
-438 252 10651 0
472 -10652 0
679 -10652 0
-472 -679 10652 0
567 -10653 0
938 -10653 0
-567 -938 10653 0
22 -10654 0
-46 -10654 0
-22 46 10654 0
16 -10655 0
-702 -10655 0
-16 702 10655 0
14 -10656 0
-3 -10656 0
-14 3 10656 0
-33 -10657 0
972 -10657 0
33 -972 10657 0
590 -10658 0
-627 -10658 0
-590 627 10658 0
480 -10659 0
478 -10659 0
-480 -478 10659 0
-633 -10660 0
402 -10660 0
633 -402 10660 0
-56 -10661 0
440 -10661 0
56 -440 10661 0
15 -10662 0
-554 -10662 0
-15 554 10662 0
-665 -10663 0
921 -10663 0
665 -921 10663 0
-363 -10664 0
17 -10664 0
363 -17 10664 0
-861 -10665 0
81 -10665 0
861 -81 10665 0
855 -10666 0
645 -10666 0
-855 -645 10666 0
-169 -10667 0
460 -10667 0
169 -460 10667 0
-880 -10668 0
916 -10668 0
880 -916 10668 0
-28 -10669 0
673 -10669 0
28 -673 10669 0
221 -10670 0
653 -10670 0
-221 -653 10670 0
-626 -10671 0
932 -10671 0
626 -932 10671 0
-941 -10672 0
522 -10672 0
941 -522 10672 0
-289 -10673 0
20 -10673 0
289 -20 10673 0
770 -10674 0
-639 -10674 0
-770 639 10674 0
-637 -10675 0
451 -10675 0
637 -451 10675 0
116 -10676 0
-31 -10676 0
-116 31 10676 0
-902 -10677 0
729 -10677 0
902 -729 10677 0
-902 -10678 0
658 -10678 0
902 -658 10678 0
935 -10679 0
-830 -10679 0
-935 830 10679 0
-777 -10680 0
790 -10680 0
777 -790 10680 0
-606 -10681 0
194 -10681 0
606 -194 10681 0
-570 -10682 0
100 -10682 0
570 -100 10682 0
231 -10683 0
964 -10683 0
-231 -964 10683 0
974 -10684 0
747 -10684 0
-974 -747 10684 0
935 -10685 0
-942 -10685 0
-935 942 10685 0
849 -10686 0
-383 -10686 0
-849 383 10686 0
-510 -10687 0
329 -10687 0
510 -329 10687 0
995 -10688 0
-373 -10688 0
-995 373 10688 0
-860 -10689 0
691 -10689 0
860 -691 10689 0
79 -10690 0
-363 -10690 0
-79 363 10690 0
876 -10691 0
379 -10691 0
-876 -379 10691 0
475 -10692 0
690 -10692 0
-475 -690 10692 0
-472 -10693 0
204 -10693 0
472 -204 10693 0
-89 -10694 0
310 -10694 0
89 -310 10694 0
-345 -10695 0
237 -10695 0
345 -237 10695 0
172 -10696 0
634 -10696 0
-172 -634 10696 0
600 -10697 0
594 -10697 0
-600 -594 10697 0
668 -10698 0
204 -10698 0
-668 -204 10698 0
-859 -10699 0
891 -10699 0
859 -891 10699 0
132 -10700 0
-645 -10700 0
-132 645 10700 0
197 -10701 0
105 -10701 0
-197 -105 10701 0
-476 -10702 0
3 -10702 0
476 -3 10702 0
155 -10703 0
905 -10703 0
-155 -905 10703 0
36 -10704 0
-295 -10704 0
-36 295 10704 0
455 -10705 0
166 -10705 0
-455 -166 10705 0
908 -10706 0
915 -10706 0
-908 -915 10706 0
934 -10707 0
433 -10707 0
-934 -433 10707 0
359 -10708 0
-463 -10708 0
-359 463 10708 0
-433 -10709 0
193 -10709 0
433 -193 10709 0
-725 -10710 0
921 -10710 0
725 -921 10710 0
658 -10711 0
-863 -10711 0
-658 863 10711 0
-554 -10712 0
180 -10712 0
554 -180 10712 0
606 -10713 0
-755 -10713 0
-606 755 10713 0
981 -10714 0
-955 -10714 0
-981 955 10714 0
479 -10715 0
967 -10715 0
-479 -967 10715 0
351 -10716 0
940 -10716 0
-351 -940 10716 0
-152 -10717 0
40 -10717 0
152 -40 10717 0
-147 -10718 0
857 -10718 0
147 -857 10718 0
554 -10719 0
953 -10719 0
-554 -953 10719 0
-848 -10720 0
363 -10720 0
848 -363 10720 0
735 -10721 0
-733 -10721 0
-735 733 10721 0
-168 -10722 0
186 -10722 0
168 -186 10722 0
-137 -10723 0
799 -10723 0
137 -799 10723 0
959 -10724 0
-444 -10724 0
-959 444 10724 0
328 -10725 0
-915 -10725 0
-328 915 10725 0
528 -10726 0
-954 -10726 0
-528 954 10726 0
-352 -10727 0
33 -10727 0
352 -33 10727 0
546 -10728 0
177 -10728 0
-546 -177 10728 0
471 -10729 0
-809 -10729 0
-471 809 10729 0
317 -10730 0
-789 -10730 0
-317 789 10730 0
583 -10731 0
-37 -10731 0
-583 37 10731 0
34 -10732 0
1 -10732 0
-34 -1 10732 0
-658 -10733 0
953 -10733 0
658 -953 10733 0
-537 -10734 0
574 -10734 0
537 -574 10734 0
-347 -10735 0
100 -10735 0
347 -100 10735 0
373 -10736 0
-844 -10736 0
-373 844 10736 0
463 -10737 0
-182 -10737 0
-463 182 10737 0
111 -10738 0
861 -10738 0
-111 -861 10738 0
-349 -10739 0
306 -10739 0
349 -306 10739 0
507 -10740 0
137 -10740 0
-507 -137 10740 0
376 -10741 0
-623 -10741 0
-376 623 10741 0
-149 -10742 0
898 -10742 0
149 -898 10742 0
-716 -10743 0
602 -10743 0
716 -602 10743 0
-840 -10744 0
684 -10744 0
840 -684 10744 0
-504 -10745 0
607 -10745 0
504 -607 10745 0
800 -10746 0
-743 -10746 0
-800 743 10746 0
152 -10747 0
-176 -10747 0
-152 176 10747 0
-822 -10748 0
993 -10748 0
822 -993 10748 0
480 -10749 0
-417 -10749 0
-480 417 10749 0
238 -10750 0
-467 -10750 0
-238 467 10750 0
942 -10751 0
-815 -10751 0
-942 815 10751 0
496 -10752 0
387 -10752 0
-496 -387 10752 0
-42 -10753 0
121 -10753 0
42 -121 10753 0
888 -10754 0
166 -10754 0
-888 -166 10754 0
-37 -10755 0
266 -10755 0
37 -266 10755 0
560 -10756 0
165 -10756 0
-560 -165 10756 0
624 -10757 0
158 -10757 0
-624 -158 10757 0
-554 -10758 0
363 -10758 0
554 -363 10758 0
784 -10759 0
378 -10759 0
-784 -378 10759 0
399 -10760 0
614 -10760 0
-399 -614 10760 0
296 -10761 0
54 -10761 0
-296 -54 10761 0
872 -10762 0
-558 -10762 0
-872 558 10762 0
222 -10763 0
557 -10763 0
-222 -557 10763 0
-672 -10764 0
950 -10764 0
672 -950 10764 0
-752 -10765 0
437 -10765 0
752 -437 10765 0
-678 -10766 0
713 -10766 0
678 -713 10766 0
773 -10767 0
-404 -10767 0
-773 404 10767 0
717 -10768 0
227 -10768 0
-717 -227 10768 0
-66 -10769 0
59 -10769 0
66 -59 10769 0
-22 -10770 0
233 -10770 0
22 -233 10770 0
696 -10771 0
-131 -10771 0
-696 131 10771 0
80 -10772 0
427 -10772 0
-80 -427 10772 0
62 -10773 0
734 -10773 0
-62 -734 10773 0
-701 -10774 0
553 -10774 0
701 -553 10774 0
-768 -10775 0
367 -10775 0
768 -367 10775 0
430 -10776 0
997 -10776 0
-430 -997 10776 0
-328 -10777 0
860 -10777 0
328 -860 10777 0
350 -10778 0
298 -10778 0
-350 -298 10778 0
629 -10779 0
932 -10779 0
-629 -932 10779 0
-125 -10780 0
673 -10780 0
125 -673 10780 0
847 -10781 0
297 -10781 0
-847 -297 10781 0
-430 -10782 0
681 -10782 0
430 -681 10782 0
312 -10783 0
-72 -10783 0
-312 72 10783 0
704 -10784 0
-901 -10784 0
-704 901 10784 0
554 -10785 0
-286 -10785 0
-554 286 10785 0
568 -10786 0
653 -10786 0
-568 -653 10786 0
-817 -10787 0
345 -10787 0
817 -345 10787 0
300 -10788 0
145 -10788 0
-300 -145 10788 0
683 -10789 0
-165 -10789 0
-683 165 10789 0
984 -10790 0
-865 -10790 0
-984 865 10790 0
62 -10791 0
667 -10791 0
-62 -667 10791 0
455 -10792 0
290 -10792 0
-455 -290 10792 0
755 -10793 0
67 -10793 0
-755 -67 10793 0
916 -10794 0
-766 -10794 0
-916 766 10794 0
191 -10795 0
-886 -10795 0
-191 886 10795 0
246 -10796 0
-891 -10796 0
-246 891 10796 0
542 -10797 0
564 -10797 0
-542 -564 10797 0
812 -10798 0
-309 -10798 0
-812 309 10798 0
816 -10799 0
1000 -10799 0
-816 -1000 10799 0
301 -10800 0
169 -10800 0
-301 -169 10800 0
135 -10801 0
-716 -10801 0
-135 716 10801 0
239 -10802 0
-789 -10802 0
-239 789 10802 0
-89 -10803 0
13 -10803 0
89 -13 10803 0
-337 -10804 0
967 -10804 0
337 -967 10804 0
525 -10805 0
829 -10805 0
-525 -829 10805 0
544 -10806 0
965 -10806 0
-544 -965 10806 0
322 -10807 0
-375 -10807 0
-322 375 10807 0
302 -10808 0
-558 -10808 0
-302 558 10808 0
510 -10809 0
-890 -10809 0
-510 890 10809 0
-587 -10810 0
91 -10810 0
587 -91 10810 0
-952 -10811 0
914 -10811 0
952 -914 10811 0
-437 -10812 0
114 -10812 0
437 -114 10812 0
-38 -10813 0
873 -10813 0
38 -873 10813 0
527 -10814 0
-692 -10814 0
-527 692 10814 0
-943 -10815 0
153 -10815 0
943 -153 10815 0
-209 -10816 0
409 -10816 0
209 -409 10816 0
-664 -10817 0
863 -10817 0
664 -863 10817 0
701 -10818 0
185 -10818 0
-701 -185 10818 0
190 -10819 0
-715 -10819 0
-190 715 10819 0
-131 -10820 0
10 -10820 0
131 -10 10820 0
89 -10821 0
-263 -10821 0
-89 263 10821 0
560 -10822 0
-175 -10822 0
-560 175 10822 0
431 -10823 0
175 -10823 0
-431 -175 10823 0
342 -10824 0
209 -10824 0
-342 -209 10824 0
288 -10825 0
-593 -10825 0
-288 593 10825 0
623 -10826 0
202 -10826 0
-623 -202 10826 0
696 -10827 0
310 -10827 0
-696 -310 10827 0
-402 -10828 0
852 -10828 0
402 -852 10828 0
104 -10829 0
-617 -10829 0
-104 617 10829 0
-955 -10830 0
745 -10830 0
955 -745 10830 0
-965 -10831 0
162 -10831 0
965 -162 10831 0
-729 -10832 0
397 -10832 0
729 -397 10832 0
783 -10833 0
-563 -10833 0
-783 563 10833 0
819 -10834 0
426 -10834 0
-819 -426 10834 0
464 -10835 0
-500 -10835 0
-464 500 10835 0
-100 -10836 0
57 -10836 0
100 -57 10836 0
-728 -10837 0
982 -10837 0
728 -982 10837 0
646 -10838 0
756 -10838 0
-646 -756 10838 0
-466 -10839 0
115 -10839 0
466 -115 10839 0
134 -10840 0
196 -10840 0
-134 -196 10840 0
888 -10841 0
645 -10841 0
-888 -645 10841 0
582 -10842 0
35 -10842 0
-582 -35 10842 0
918 -10843 0
-771 -10843 0
-918 771 10843 0
195 -10844 0
499 -10844 0
-195 -499 10844 0
564 -10845 0
-182 -10845 0
-564 182 10845 0
-641 -10846 0
444 -10846 0
641 -444 10846 0
-948 -10847 0
715 -10847 0
948 -715 10847 0
958 -10848 0
-694 -10848 0
-958 694 10848 0
827 -10849 0
-519 -10849 0
-827 519 10849 0
110 -10850 0
-460 -10850 0
-110 460 10850 0
319 -10851 0
-946 -10851 0
-319 946 10851 0
238 -10852 0
-5 -10852 0
-238 5 10852 0
964 -10853 0
9 -10853 0
-964 -9 10853 0
640 -10854 0
313 -10854 0
-640 -313 10854 0
581 -10855 0
-143 -10855 0
-581 143 10855 0
-216 -10856 0
574 -10856 0
216 -574 10856 0
629 -10857 0
-252 -10857 0
-629 252 10857 0
269 -10858 0
363 -10858 0
-269 -363 10858 0
-849 -10859 0
371 -10859 0
849 -371 10859 0
132 -10860 0
867 -10860 0
-132 -867 10860 0
44 -10861 0
-487 -10861 0
-44 487 10861 0
952 -10862 0
-448 -10862 0
-952 448 10862 0
-16 -10863 0
575 -10863 0
16 -575 10863 0
868 -10864 0
-471 -10864 0
-868 471 10864 0
-910 -10865 0
705 -10865 0
910 -705 10865 0
853 -10866 0
130 -10866 0
-853 -130 10866 0
312 -10867 0
-391 -10867 0
-312 391 10867 0
-163 -10868 0
41 -10868 0
163 -41 10868 0
343 -10869 0
-279 -10869 0
-343 279 10869 0
-726 -10870 0
770 -10870 0
726 -770 10870 0
387 -10871 0
-998 -10871 0
-387 998 10871 0
-408 -10872 0
166 -10872 0
408 -166 10872 0
372 -10873 0
753 -10873 0
-372 -753 10873 0
-875 -10874 0
85 -10874 0
875 -85 10874 0
-732 -10875 0
466 -10875 0
732 -466 10875 0
455 -10876 0
585 -10876 0
-455 -585 10876 0
-273 -10877 0
690 -10877 0
273 -690 10877 0
-400 -10878 0
858 -10878 0
400 -858 10878 0
-362 -10879 0
771 -10879 0
362 -771 10879 0
-188 -10880 0
914 -10880 0
188 -914 10880 0
-962 -10881 0
914 -10881 0
962 -914 10881 0
-368 -10882 0
263 -10882 0
368 -263 10882 0
-35 -10883 0
473 -10883 0
35 -473 10883 0
120 -10884 0
921 -10884 0
-120 -921 10884 0
-832 -10885 0
809 -10885 0
832 -809 10885 0
-960 -10886 0
987 -10886 0
960 -987 10886 0
784 -10887 0
-406 -10887 0
-784 406 10887 0
-698 -10888 0
177 -10888 0
698 -177 10888 0
808 -10889 0
963 -10889 0
-808 -963 10889 0
402 -10890 0
553 -10890 0
-402 -553 10890 0
634 -10891 0
-486 -10891 0
-634 486 10891 0
-409 -10892 0
359 -10892 0
409 -359 10892 0
248 -10893 0
-898 -10893 0
-248 898 10893 0
860 -10894 0
378 -10894 0
-860 -378 10894 0
-833 -10895 0
484 -10895 0
833 -484 10895 0
742 -10896 0
630 -10896 0
-742 -630 10896 0
672 -10897 0
-940 -10897 0
-672 940 10897 0
173 -10898 0
-795 -10898 0
-173 795 10898 0
830 -10899 0
-637 -10899 0
-830 637 10899 0
143 -10900 0
402 -10900 0
-143 -402 10900 0
979 -10901 0
-541 -10901 0
-979 541 10901 0
160 -10902 0
-98 -10902 0
-160 98 10902 0
376 -10903 0
38 -10903 0
-376 -38 10903 0
789 -10904 0
-502 -10904 0
-789 502 10904 0
414 -10905 0
163 -10905 0
-414 -163 10905 0
998 -10906 0
474 -10906 0
-998 -474 10906 0
-240 -10907 0
736 -10907 0
240 -736 10907 0
-35 -10908 0
12 -10908 0
35 -12 10908 0
787 -10909 0
-166 -10909 0
-787 166 10909 0
-562 -10910 0
851 -10910 0
562 -851 10910 0
742 -10911 0
181 -10911 0
-742 -181 10911 0
447 -10912 0
-559 -10912 0
-447 559 10912 0
759 -10913 0
51 -10913 0
-759 -51 10913 0
996 -10914 0
-254 -10914 0
-996 254 10914 0
78 -10915 0
390 -10915 0
-78 -390 10915 0
584 -10916 0
-198 -10916 0
-584 198 10916 0
-59 -10917 0
533 -10917 0
59 -533 10917 0
326 -10918 0
757 -10918 0
-326 -757 10918 0
301 -10919 0
3 -10919 0
-301 -3 10919 0
732 -10920 0
-895 -10920 0
-732 895 10920 0
407 -10921 0
20 -10921 0
-407 -20 10921 0
-992 -10922 0
66 -10922 0
992 -66 10922 0
51 -10923 0
217 -10923 0
-51 -217 10923 0
972 -10924 0
257 -10924 0
-972 -257 10924 0
744 -10925 0
-629 -10925 0
-744 629 10925 0
-94 -10926 0
377 -10926 0
94 -377 10926 0
326 -10927 0
510 -10927 0
-326 -510 10927 0
-657 -10928 0
196 -10928 0
657 -196 10928 0
693 -10929 0
157 -10929 0
-693 -157 10929 0
438 -10930 0
282 -10930 0
-438 -282 10930 0
792 -10931 0
-275 -10931 0
-792 275 10931 0
758 -10932 0
20 -10932 0
-758 -20 10932 0
1000 -10933 0
456 -10933 0
-1000 -456 10933 0
248 -10934 0
-663 -10934 0
-248 663 10934 0
-491 -10935 0
841 -10935 0
491 -841 10935 0
84 -10936 0
298 -10936 0
-84 -298 10936 0
413 -10937 0
241 -10937 0
-413 -241 10937 0
824 -10938 0
-977 -10938 0
-824 977 10938 0
-645 -10939 0
970 -10939 0
645 -970 10939 0
375 -10940 0
835 -10940 0
-375 -835 10940 0
660 -10941 0
169 -10941 0
-660 -169 10941 0
72 -10942 0
-337 -10942 0
-72 337 10942 0
787 -10943 0
-549 -10943 0
-787 549 10943 0
320 -10944 0
308 -10944 0
-320 -308 10944 0
306 -10945 0
-423 -10945 0
-306 423 10945 0
454 -10946 0
204 -10946 0
-454 -204 10946 0
280 -10947 0
-2 -10947 0
-280 2 10947 0
244 -10948 0
-213 -10948 0
-244 213 10948 0
757 -10949 0
554 -10949 0
-757 -554 10949 0
-961 -10950 0
859 -10950 0
961 -859 10950 0
-363 -10951 0
897 -10951 0
363 -897 10951 0
-552 -10952 0
455 -10952 0
552 -455 10952 0
231 -10953 0
322 -10953 0
-231 -322 10953 0
654 -10954 0
-915 -10954 0
-654 915 10954 0
761 -10955 0
961 -10955 0
-761 -961 10955 0
888 -10956 0
-488 -10956 0
-888 488 10956 0
749 -10957 0
-751 -10957 0
-749 751 10957 0
188 -10958 0
465 -10958 0
-188 -465 10958 0
-985 -10959 0
723 -10959 0
985 -723 10959 0
592 -10960 0
-787 -10960 0
-592 787 10960 0
981 -10961 0
412 -10961 0
-981 -412 10961 0
-804 -10962 0
554 -10962 0
804 -554 10962 0
575 -10963 0
-589 -10963 0
-575 589 10963 0
424 -10964 0
521 -10964 0
-424 -521 10964 0
516 -10965 0
162 -10965 0
-516 -162 10965 0
412 -10966 0
-286 -10966 0
-412 286 10966 0
480 -10967 0
-671 -10967 0
-480 671 10967 0
-914 -10968 0
459 -10968 0
914 -459 10968 0
-101 -10969 0
609 -10969 0
101 -609 10969 0
62 -10970 0
-172 -10970 0
-62 172 10970 0
509 -10971 0
469 -10971 0
-509 -469 10971 0
271 -10972 0
235 -10972 0
-271 -235 10972 0
471 -10973 0
-166 -10973 0
-471 166 10973 0
-57 -10974 0
517 -10974 0
57 -517 10974 0
599 -10975 0
-370 -10975 0
-599 370 10975 0
86 -10976 0
725 -10976 0
-86 -725 10976 0
367 -10977 0
-613 -10977 0
-367 613 10977 0
328 -10978 0
929 -10978 0
-328 -929 10978 0
-460 -10979 0
738 -10979 0
460 -738 10979 0
-2 -10980 0
450 -10980 0
2 -450 10980 0
621 -10981 0
865 -10981 0
-621 -865 10981 0
469 -10982 0
917 -10982 0
-469 -917 10982 0
174 -10983 0
122 -10983 0
-174 -122 10983 0
-952 -10984 0
770 -10984 0
952 -770 10984 0
37 -10985 0
-580 -10985 0
-37 580 10985 0
67 -10986 0
985 -10986 0
-67 -985 10986 0
382 -10987 0
-362 -10987 0
-382 362 10987 0
420 -10988 0
-349 -10988 0
-420 349 10988 0
808 -10989 0
170 -10989 0
-808 -170 10989 0
540 -10990 0
-110 -10990 0
-540 110 10990 0
144 -10991 0
33 -10991 0
-144 -33 10991 0
-856 -10992 0
810 -10992 0
856 -810 10992 0
-256 -10993 0
690 -10993 0
256 -690 10993 0
248 -10994 0
274 -10994 0
-248 -274 10994 0
503 -10995 0
-837 -10995 0
-503 837 10995 0
952 -10996 0
-488 -10996 0
-952 488 10996 0
652 -10997 0
-452 -10997 0
-652 452 10997 0
39 -10998 0
834 -10998 0
-39 -834 10998 0
300 -10999 0
-582 -10999 0
-300 582 10999 0
463 -11000 0
628 -11000 0
-463 -628 11000 0
536 -11001 0
820 -11001 0
-536 -820 11001 0
943 -11002 0
-115 -11002 0
-943 115 11002 0
453 -11003 0
394 -11003 0
-453 -394 11003 0
-585 -11004 0
309 -11004 0
585 -309 11004 0
-668 -11005 0
700 -11005 0
668 -700 11005 0
-576 -11006 0
143 -11006 0
576 -143 11006 0
462 -11007 0
772 -11007 0
-462 -772 11007 0
292 -11008 0
507 -11008 0
-292 -507 11008 0
-73 -11009 0
393 -11009 0
73 -393 11009 0
-56 -11010 0
858 -11010 0
56 -858 11010 0
103 -11011 0
732 -11011 0
-103 -732 11011 0
368 -11012 0
646 -11012 0
-368 -646 11012 0
632 -11013 0
751 -11013 0
-632 -751 11013 0
-817 -11014 0
681 -11014 0
817 -681 11014 0
975 -11015 0
956 -11015 0
-975 -956 11015 0
848 -11016 0
254 -11016 0
-848 -254 11016 0
-942 -11017 0
865 -11017 0
942 -865 11017 0
348 -11018 0
-669 -11018 0
-348 669 11018 0
-596 -11019 0
161 -11019 0
596 -161 11019 0
-979 -11020 0
554 -11020 0
979 -554 11020 0
-984 -11021 0
910 -11021 0
984 -910 11021 0
439 -11022 0
-835 -11022 0
-439 835 11022 0
295 -11023 0
-916 -11023 0
-295 916 11023 0
310 -11024 0
-746 -11024 0
-310 746 11024 0
575 -11025 0
518 -11025 0
-575 -518 11025 0
855 -11026 0
-814 -11026 0
-855 814 11026 0
828 -11027 0
-519 -11027 0
-828 519 11027 0
469 -11028 0
-211 -11028 0
-469 211 11028 0
296 -11029 0
650 -11029 0
-296 -650 11029 0
-310 -11030 0
361 -11030 0
310 -361 11030 0
976 -11031 0
154 -11031 0
-976 -154 11031 0
59 -11032 0
-525 -11032 0
-59 525 11032 0
644 -11033 0
436 -11033 0
-644 -436 11033 0
467 -11034 0
426 -11034 0
-467 -426 11034 0
331 -11035 0
-390 -11035 0
-331 390 11035 0
43 -11036 0
139 -11036 0
-43 -139 11036 0
407 -11037 0
-409 -11037 0
-407 409 11037 0
-50 -11038 0
953 -11038 0
50 -953 11038 0
-208 -11039 0
599 -11039 0
208 -599 11039 0
599 -11040 0
-106 -11040 0
-599 106 11040 0
454 -11041 0
388 -11041 0
-454 -388 11041 0
952 -11042 0
945 -11042 0
-952 -945 11042 0
-725 -11043 0
362 -11043 0
725 -362 11043 0
350 -11044 0
3 -11044 0
-350 -3 11044 0
795 -11045 0
-669 -11045 0
-795 669 11045 0
-948 -11046 0
729 -11046 0
948 -729 11046 0
446 -11047 0
275 -11047 0
-446 -275 11047 0
351 -11048 0
-633 -11048 0
-351 633 11048 0
320 -11049 0
389 -11049 0
-320 -389 11049 0
-417 -11050 0
526 -11050 0
417 -526 11050 0
-585 -11051 0
329 -11051 0
585 -329 11051 0
-705 -11052 0
105 -11052 0
705 -105 11052 0
125 -11053 0
-405 -11053 0
-125 405 11053 0
37 -11054 0
-452 -11054 0
-37 452 11054 0
80 -11055 0
795 -11055 0
-80 -795 11055 0
166 -11056 0
-734 -11056 0
-166 734 11056 0
86 -11057 0
-733 -11057 0
-86 733 11057 0
-364 -11058 0
226 -11058 0
364 -226 11058 0
786 -11059 0
-15 -11059 0
-786 15 11059 0
886 -11060 0
-299 -11060 0
-886 299 11060 0
556 -11061 0
-974 -11061 0
-556 974 11061 0
151 -11062 0
574 -11062 0
-151 -574 11062 0
830 -11063 0
-387 -11063 0
-830 387 11063 0
208 -11064 0
651 -11064 0
-208 -651 11064 0
-496 -11065 0
506 -11065 0
496 -506 11065 0
-24 -11066 0
309 -11066 0
24 -309 11066 0
107 -11067 0
218 -11067 0
-107 -218 11067 0
-969 -11068 0
41 -11068 0
969 -41 11068 0
528 -11069 0
534 -11069 0
-528 -534 11069 0
291 -11070 0
362 -11070 0
-291 -362 11070 0
984 -11071 0
-95 -11071 0
-984 95 11071 0
-528 -11072 0
897 -11072 0
528 -897 11072 0
204 -11073 0
89 -11073 0
-204 -89 11073 0
-756 -11074 0
369 -11074 0
756 -369 11074 0
524 -11075 0
-596 -11075 0
-524 596 11075 0
-484 -11076 0
522 -11076 0
484 -522 11076 0
-489 -11077 0
220 -11077 0
489 -220 11077 0
735 -11078 0
390 -11078 0
-735 -390 11078 0
39 -11079 0
18 -11079 0
-39 -18 11079 0
999 -11080 0
707 -11080 0
-999 -707 11080 0
-35 -11081 0
948 -11081 0
35 -948 11081 0
519 -11082 0
-291 -11082 0
-519 291 11082 0
583 -11083 0
189 -11083 0
-583 -189 11083 0
194 -11084 0
-799 -11084 0
-194 799 11084 0
836 -11085 0
-925 -11085 0
-836 925 11085 0
288 -11086 0
-694 -11086 0
-288 694 11086 0
888 -11087 0
-234 -11087 0
-888 234 11087 0
95 -11088 0
234 -11088 0
-95 -234 11088 0
135 -11089 0
-751 -11089 0
-135 751 11089 0
88 -11090 0
707 -11090 0
-88 -707 11090 0
-978 -11091 0
398 -11091 0
978 -398 11091 0
768 -11092 0
149 -11092 0
-768 -149 11092 0
671 -11093 0
839 -11093 0
-671 -839 11093 0
-712 -11094 0
604 -11094 0
712 -604 11094 0
-112 -11095 0
883 -11095 0
112 -883 11095 0
663 -11096 0
342 -11096 0
-663 -342 11096 0
-596 -11097 0
963 -11097 0
596 -963 11097 0
-587 -11098 0
635 -11098 0
587 -635 11098 0
-2 -11099 0
316 -11099 0
2 -316 11099 0
775 -11100 0
485 -11100 0
-775 -485 11100 0
-608 -11101 0
450 -11101 0
608 -450 11101 0
-40 -11102 0
925 -11102 0
40 -925 11102 0
837 -11103 0
-375 -11103 0
-837 375 11103 0
123 -11104 0
-190 -11104 0
-123 190 11104 0
398 -11105 0
-191 -11105 0
-398 191 11105 0
-99 -11106 0
865 -11106 0
99 -865 11106 0
-544 -11107 0
587 -11107 0
544 -587 11107 0
-122 -11108 0
241 -11108 0
122 -241 11108 0
440 -11109 0
-986 -11109 0
-440 986 11109 0
-652 -11110 0
89 -11110 0
652 -89 11110 0
284 -11111 0
841 -11111 0
-284 -841 11111 0
135 -11112 0
-374 -11112 0
-135 374 11112 0
543 -11113 0
590 -11113 0
-543 -590 11113 0
831 -11114 0
-323 -11114 0
-831 323 11114 0
540 -11115 0
403 -11115 0
-540 -403 11115 0
406 -11116 0
-851 -11116 0
-406 851 11116 0
-12 -11117 0
513 -11117 0
12 -513 11117 0
592 -11118 0
895 -11118 0
-592 -895 11118 0
371 -11119 0
-806 -11119 0
-371 806 11119 0
551 -11120 0
-862 -11120 0
-551 862 11120 0
608 -11121 0
-882 -11121 0
-608 882 11121 0
2 -11122 0
-607 -11122 0
-2 607 11122 0
342 -11123 0
525 -11123 0
-342 -525 11123 0
-984 -11124 0
417 -11124 0
984 -417 11124 0
-786 -11125 0
20 -11125 0
786 -20 11125 0
439 -11126 0
644 -11126 0
-439 -644 11126 0
330 -11127 0
889 -11127 0
-330 -889 11127 0
870 -11128 0
-477 -11128 0
-870 477 11128 0
-218 -11129 0
694 -11129 0
218 -694 11129 0
150 -11130 0
261 -11130 0
-150 -261 11130 0
15 -11131 0
-47 -11131 0
-15 47 11131 0
-697 -11132 0
293 -11132 0
697 -293 11132 0
-387 -11133 0
948 -11133 0
387 -948 11133 0
220 -11134 0
-471 -11134 0
-220 471 11134 0
837 -11135 0
-703 -11135 0
-837 703 11135 0
543 -11136 0
-52 -11136 0
-543 52 11136 0
380 -11137 0
-278 -11137 0
-380 278 11137 0
496 -11138 0
785 -11138 0
-496 -785 11138 0
-371 -11139 0
985 -11139 0
371 -985 11139 0
-283 -11140 0
314 -11140 0
283 -314 11140 0
660 -11141 0
242 -11141 0
-660 -242 11141 0
612 -11142 0
-455 -11142 0
-612 455 11142 0
-154 -11143 0
637 -11143 0
154 -637 11143 0
-475 -11144 0
458 -11144 0
475 -458 11144 0
-168 -11145 0
891 -11145 0
168 -891 11145 0
680 -11146 0
325 -11146 0
-680 -325 11146 0
784 -11147 0
199 -11147 0
-784 -199 11147 0
631 -11148 0
-43 -11148 0
-631 43 11148 0
-157 -11149 0
594 -11149 0
157 -594 11149 0
880 -11150 0
-450 -11150 0
-880 450 11150 0
-616 -11151 0
320 -11151 0
616 -320 11151 0
464 -11152 0
-880 -11152 0
-464 880 11152 0
839 -11153 0
-430 -11153 0
-839 430 11153 0
-257 -11154 0
363 -11154 0
257 -363 11154 0
-371 -11155 0
442 -11155 0
371 -442 11155 0
606 -11156 0
569 -11156 0
-606 -569 11156 0
-98 -11157 0
766 -11157 0
98 -766 11157 0
442 -11158 0
530 -11158 0
-442 -530 11158 0
-914 -11159 0
898 -11159 0
914 -898 11159 0
-617 -11160 0
966 -11160 0
617 -966 11160 0
456 -11161 0
-367 -11161 0
-456 367 11161 0
310 -11162 0
369 -11162 0
-310 -369 11162 0
344 -11163 0
754 -11163 0
-344 -754 11163 0
647 -11164 0
-26 -11164 0
-647 26 11164 0
294 -11165 0
-435 -11165 0
-294 435 11165 0
-860 -11166 0
418 -11166 0
860 -418 11166 0
520 -11167 0
836 -11167 0
-520 -836 11167 0
356 -11168 0
276 -11168 0
-356 -276 11168 0
160 -11169 0
453 -11169 0
-160 -453 11169 0
386 -11170 0
585 -11170 0
-386 -585 11170 0
-382 -11171 0
834 -11171 0
382 -834 11171 0
837 -11172 0
3 -11172 0
-837 -3 11172 0
-81 -11173 0
39 -11173 0
81 -39 11173 0
510 -11174 0
-79 -11174 0
-510 79 11174 0
549 -11175 0
617 -11175 0
-549 -617 11175 0
855 -11176 0
-102 -11176 0
-855 102 11176 0
114 -11177 0
-838 -11177 0
-114 838 11177 0
486 -11178 0
-467 -11178 0
-486 467 11178 0
-555 -11179 0
603 -11179 0
555 -603 11179 0
208 -11180 0
-964 -11180 0
-208 964 11180 0
496 -11181 0
-999 -11181 0
-496 999 11181 0
787 -11182 0
-822 -11182 0
-787 822 11182 0
229 -11183 0
-942 -11183 0
-229 942 11183 0
711 -11184 0
877 -11184 0
-711 -877 11184 0
-361 -11185 0
237 -11185 0
361 -237 11185 0
907 -11186 0
-431 -11186 0
-907 431 11186 0
293 -11187 0
-980 -11187 0
-293 980 11187 0
64 -11188 0
102 -11188 0
-64 -102 11188 0
415 -11189 0
-175 -11189 0
-415 175 11189 0
308 -11190 0
-222 -11190 0
-308 222 11190 0
815 -11191 0
971 -11191 0
-815 -971 11191 0
831 -11192 0
-563 -11192 0
-831 563 11192 0
448 -11193 0
-199 -11193 0
-448 199 11193 0
-864 -11194 0
230 -11194 0
864 -230 11194 0
-504 -11195 0
775 -11195 0
504 -775 11195 0
966 -11196 0
579 -11196 0
-966 -579 11196 0
557 -11197 0
-823 -11197 0
-557 823 11197 0
-185 -11198 0
516 -11198 0
185 -516 11198 0
622 -11199 0
-406 -11199 0
-622 406 11199 0
-173 -11200 0
619 -11200 0
173 -619 11200 0
265 -11201 0
273 -11201 0
-265 -273 11201 0
-755 -11202 0
938 -11202 0
755 -938 11202 0
-42 -11203 0
355 -11203 0
42 -355 11203 0
317 -11204 0
450 -11204 0
-317 -450 11204 0
343 -11205 0
-877 -11205 0
-343 877 11205 0
827 -11206 0
161 -11206 0
-827 -161 11206 0
-345 -11207 0
807 -11207 0
345 -807 11207 0
413 -11208 0
301 -11208 0
-413 -301 11208 0
510 -11209 0
-469 -11209 0
-510 469 11209 0
-43 -11210 0
538 -11210 0
43 -538 11210 0
616 -11211 0
-478 -11211 0
-616 478 11211 0
55 -11212 0
369 -11212 0
-55 -369 11212 0
533 -11213 0
-150 -11213 0
-533 150 11213 0
352 -11214 0
-931 -11214 0
-352 931 11214 0
-18 -11215 0
957 -11215 0
18 -957 11215 0
-524 -11216 0
314 -11216 0
524 -314 11216 0
431 -11217 0
-530 -11217 0
-431 530 11217 0
584 -11218 0
95 -11218 0
-584 -95 11218 0
800 -11219 0
-199 -11219 0
-800 199 11219 0
-956 -11220 0
986 -11220 0
956 -986 11220 0
141 -11221 0
-420 -11221 0
-141 420 11221 0
864 -11222 0
765 -11222 0
-864 -765 11222 0
-561 -11223 0
586 -11223 0
561 -586 11223 0
-667 -11224 0
362 -11224 0
667 -362 11224 0
720 -11225 0
-277 -11225 0
-720 277 11225 0
619 -11226 0
713 -11226 0
-619 -713 11226 0
709 -11227 0
-503 -11227 0
-709 503 11227 0
295 -11228 0
-732 -11228 0
-295 732 11228 0
-756 -11229 0
825 -11229 0
756 -825 11229 0
-578 -11230 0
931 -11230 0
578 -931 11230 0
111 -11231 0
316 -11231 0
-111 -316 11231 0
751 -11232 0
-715 -11232 0
-751 715 11232 0
302 -11233 0
413 -11233 0
-302 -413 11233 0
-233 -11234 0
974 -11234 0
233 -974 11234 0
-598 -11235 0
282 -11235 0
598 -282 11235 0
88 -11236 0
298 -11236 0
-88 -298 11236 0
749 -11237 0
604 -11237 0
-749 -604 11237 0
731 -11238 0
17 -11238 0
-731 -17 11238 0
264 -11239 0
243 -11239 0
-264 -243 11239 0
615 -11240 0
135 -11240 0
-615 -135 11240 0
-99 -11241 0
897 -11241 0
99 -897 11241 0
572 -11242 0
457 -11242 0
-572 -457 11242 0
709 -11243 0
-516 -11243 0
-709 516 11243 0
599 -11244 0
-817 -11244 0
-599 817 11244 0
742 -11245 0
-11 -11245 0
-742 11 11245 0
896 -11246 0
126 -11246 0
-896 -126 11246 0
-481 -11247 0
603 -11247 0
481 -603 11247 0
-744 -11248 0
203 -11248 0
744 -203 11248 0
864 -11249 0
-644 -11249 0
-864 644 11249 0
748 -11250 0
-790 -11250 0
-748 790 11250 0
-307 -11251 0
60 -11251 0
307 -60 11251 0
720 -11252 0
-534 -11252 0
-720 534 11252 0
560 -11253 0
581 -11253 0
-560 -581 11253 0
-403 -11254 0
12 -11254 0
403 -12 11254 0
-851 -11255 0
61 -11255 0
851 -61 11255 0
-364 -11256 0
35 -11256 0
364 -35 11256 0
-616 -11257 0
487 -11257 0
616 -487 11257 0
204 -11258 0
67 -11258 0
-204 -67 11258 0
-840 -11259 0
444 -11259 0
840 -444 11259 0
336 -11260 0
-470 -11260 0
-336 470 11260 0
-544 -11261 0
892 -11261 0
544 -892 11261 0
325 -11262 0
-189 -11262 0
-325 189 11262 0
899 -11263 0
-29 -11263 0
-899 29 11263 0
-834 -11264 0
923 -11264 0
834 -923 11264 0
391 -11265 0
925 -11265 0
-391 -925 11265 0
840 -11266 0
3 -11266 0
-840 -3 11266 0
-293 -11267 0
505 -11267 0
293 -505 11267 0
71 -11268 0
564 -11268 0
-71 -564 11268 0
6 -11269 0
-524 -11269 0
-6 524 11269 0
795 -11270 0
426 -11270 0
-795 -426 11270 0
462 -11271 0
-751 -11271 0
-462 751 11271 0
519 -11272 0
-227 -11272 0
-519 227 11272 0
-60 -11273 0
444 -11273 0
60 -444 11273 0
347 -11274 0
242 -11274 0
-347 -242 11274 0
668 -11275 0
-910 -11275 0
-668 910 11275 0
-459 -11276 0
492 -11276 0
459 -492 11276 0
-802 -11277 0
188 -11277 0
802 -188 11277 0
710 -11278 0
126 -11278 0
-710 -126 11278 0
523 -11279 0
-405 -11279 0
-523 405 11279 0
-870 -11280 0
625 -11280 0
870 -625 11280 0
990 -11281 0
205 -11281 0
-990 -205 11281 0
-265 -11282 0
369 -11282 0
265 -369 11282 0
403 -11283 0
273 -11283 0
-403 -273 11283 0
27 -11284 0
-151 -11284 0
-27 151 11284 0
-634 -11285 0
666 -11285 0
634 -666 11285 0
64 -11286 0
999 -11286 0
-64 -999 11286 0
518 -11287 0
741 -11287 0
-518 -741 11287 0
716 -11288 0
435 -11288 0
-716 -435 11288 0
117 -11289 0
852 -11289 0
-117 -852 11289 0
-434 -11290 0
773 -11290 0
434 -773 11290 0
195 -11291 0
-230 -11291 0
-195 230 11291 0
791 -11292 0
866 -11292 0
-791 -866 11292 0
884 -11293 0
-317 -11293 0
-884 317 11293 0
213 -11294 0
-607 -11294 0
-213 607 11294 0
-301 -11295 0
777 -11295 0
301 -777 11295 0
957 -11296 0
381 -11296 0
-957 -381 11296 0
378 -11297 0
-622 -11297 0
-378 622 11297 0
859 -11298 0
626 -11298 0
-859 -626 11298 0
790 -11299 0
-934 -11299 0
-790 934 11299 0
-321 -11300 0
349 -11300 0
321 -349 11300 0
448 -11301 0
354 -11301 0
-448 -354 11301 0
15 -11302 0
427 -11302 0
-15 -427 11302 0
224 -11303 0
288 -11303 0
-224 -288 11303 0
218 -11304 0
690 -11304 0
-218 -690 11304 0
624 -11305 0
718 -11305 0
-624 -718 11305 0
-216 -11306 0
985 -11306 0
216 -985 11306 0
146 -11307 0
-14 -11307 0
-146 14 11307 0
-41 -11308 0
794 -11308 0
41 -794 11308 0
-249 -11309 0
182 -11309 0
249 -182 11309 0
782 -11310 0
-180 -11310 0
-782 180 11310 0
791 -11311 0
-4 -11311 0
-791 4 11311 0
24 -11312 0
-913 -11312 0
-24 913 11312 0
848 -11313 0
-28 -11313 0
-848 28 11313 0
738 -11314 0
-167 -11314 0
-738 167 11314 0
-650 -11315 0
443 -11315 0
650 -443 11315 0
692 -11316 0
161 -11316 0
-692 -161 11316 0
168 -11317 0
-820 -11317 0
-168 820 11317 0
541 -11318 0
-990 -11318 0
-541 990 11318 0
363 -11319 0
753 -11319 0
-363 -753 11319 0
964 -11320 0
-836 -11320 0
-964 836 11320 0
774 -11321 0
700 -11321 0
-774 -700 11321 0
669 -11322 0
-196 -11322 0
-669 196 11322 0
951 -11323 0
-268 -11323 0
-951 268 11323 0
965 -11324 0
-292 -11324 0
-965 292 11324 0
-555 -11325 0
147 -11325 0
555 -147 11325 0
560 -11326 0
-293 -11326 0
-560 293 11326 0
200 -11327 0
-403 -11327 0
-200 403 11327 0
-193 -11328 0
713 -11328 0
193 -713 11328 0
24 -11329 0
449 -11329 0
-24 -449 11329 0
496 -11330 0
-85 -11330 0
-496 85 11330 0
830 -11331 0
756 -11331 0
-830 -756 11331 0
20 -11332 0
-324 -11332 0
-20 324 11332 0
-168 -11333 0
719 -11333 0
168 -719 11333 0
398 -11334 0
-765 -11334 0
-398 765 11334 0
-170 -11335 0
811 -11335 0
170 -811 11335 0
280 -11336 0
955 -11336 0
-280 -955 11336 0
64 -11337 0
694 -11337 0
-64 -694 11337 0
533 -11338 0
-428 -11338 0
-533 428 11338 0
462 -11339 0
125 -11339 0
-462 -125 11339 0
-115 -11340 0
836 -11340 0
115 -836 11340 0
632 -11341 0
-84 -11341 0
-632 84 11341 0
446 -11342 0
-631 -11342 0
-446 631 11342 0
147 -11343 0
753 -11343 0
-147 -753 11343 0
359 -11344 0
324 -11344 0
-359 -324 11344 0
-290 -11345 0
997 -11345 0
290 -997 11345 0
-635 -11346 0
331 -11346 0
635 -331 11346 0
534 -11347 0
-829 -11347 0
-534 829 11347 0
742 -11348 0
900 -11348 0
-742 -900 11348 0
709 -11349 0
-364 -11349 0
-709 364 11349 0
340 -11350 0
130 -11350 0
-340 -130 11350 0
-128 -11351 0
530 -11351 0
128 -530 11351 0
415 -11352 0
-147 -11352 0
-415 147 11352 0
-987 -11353 0
913 -11353 0
987 -913 11353 0
-840 -11354 0
921 -11354 0
840 -921 11354 0
-940 -11355 0
460 -11355 0
940 -460 11355 0
-531 -11356 0
658 -11356 0
531 -658 11356 0
-321 -11357 0
934 -11357 0
321 -934 11357 0
723 -11358 0
497 -11358 0
-723 -497 11358 0
-346 -11359 0
5 -11359 0
346 -5 11359 0
-87 -11360 0
873 -11360 0
87 -873 11360 0
431 -11361 0
406 -11361 0
-431 -406 11361 0
174 -11362 0
212 -11362 0
-174 -212 11362 0
139 -11363 0
-463 -11363 0
-139 463 11363 0
-285 -11364 0
707 -11364 0
285 -707 11364 0
7 -11365 0
978 -11365 0
-7 -978 11365 0
568 -11366 0
211 -11366 0
-568 -211 11366 0
-456 -11367 0
432 -11367 0
456 -432 11367 0
832 -11368 0
317 -11368 0
-832 -317 11368 0
839 -11369 0
-342 -11369 0
-839 342 11369 0
96 -11370 0
-950 -11370 0
-96 950 11370 0
-403 -11371 0
636 -11371 0
403 -636 11371 0
318 -11372 0
-906 -11372 0
-318 906 11372 0
-940 -11373 0
796 -11373 0
940 -796 11373 0
954 -11374 0
-839 -11374 0
-954 839 11374 0
838 -11375 0
573 -11375 0
-838 -573 11375 0
605 -11376 0
307 -11376 0
-605 -307 11376 0
93 -11377 0
907 -11377 0
-93 -907 11377 0
637 -11378 0
-423 -11378 0
-637 423 11378 0
359 -11379 0
-539 -11379 0
-359 539 11379 0
316 -11380 0
-662 -11380 0
-316 662 11380 0
756 -11381 0
770 -11381 0
-756 -770 11381 0
-314 -11382 0
291 -11382 0
314 -291 11382 0
660 -11383 0
770 -11383 0
-660 -770 11383 0
183 -11384 0
-413 -11384 0
-183 413 11384 0
60 -11385 0
-15 -11385 0
-60 15 11385 0
815 -11386 0
682 -11386 0
-815 -682 11386 0
248 -11387 0
-362 -11387 0
-248 362 11387 0
-659 -11388 0
220 -11388 0
659 -220 11388 0
-981 -11389 0
507 -11389 0
981 -507 11389 0
-193 -11390 0
980 -11390 0
193 -980 11390 0
-672 -11391 0
486 -11391 0
672 -486 11391 0
535 -11392 0
-798 -11392 0
-535 798 11392 0
-906 -11393 0
426 -11393 0
906 -426 11393 0
-397 -11394 0
233 -11394 0
397 -233 11394 0
612 -11395 0
-317 -11395 0
-612 317 11395 0
377 -11396 0
-287 -11396 0
-377 287 11396 0
724 -11397 0
906 -11397 0
-724 -906 11397 0
-281 -11398 0
636 -11398 0
281 -636 11398 0
-897 -11399 0
102 -11399 0
897 -102 11399 0
871 -11400 0
-690 -11400 0
-871 690 11400 0
-264 -11401 0
566 -11401 0
264 -566 11401 0
363 -11402 0
-150 -11402 0
-363 150 11402 0
436 -11403 0
-637 -11403 0
-436 637 11403 0
-403 -11404 0
341 -11404 0
403 -341 11404 0
462 -11405 0
-882 -11405 0
-462 882 11405 0
183 -11406 0
985 -11406 0
-183 -985 11406 0
-139 -11407 0
549 -11407 0
139 -549 11407 0
-385 -11408 0
94 -11408 0
385 -94 11408 0
118 -11409 0
-205 -11409 0
-118 205 11409 0
783 -11410 0
-231 -11410 0
-783 231 11410 0
237 -11411 0
-124 -11411 0
-237 124 11411 0
389 -11412 0
-517 -11412 0
-389 517 11412 0
229 -11413 0
331 -11413 0
-229 -331 11413 0
959 -11414 0
-279 -11414 0
-959 279 11414 0
-416 -11415 0
293 -11415 0
416 -293 11415 0
221 -11416 0
-79 -11416 0
-221 79 11416 0
151 -11417 0
196 -11417 0
-151 -196 11417 0
455 -11418 0
281 -11418 0
-455 -281 11418 0
-18 -11419 0
804 -11419 0
18 -804 11419 0
806 -11420 0
401 -11420 0
-806 -401 11420 0
-481 -11421 0
229 -11421 0
481 -229 11421 0
767 -11422 0
-750 -11422 0
-767 750 11422 0
588 -11423 0
275 -11423 0
-588 -275 11423 0
434 -11424 0
402 -11424 0
-434 -402 11424 0
871 -11425 0
337 -11425 0
-871 -337 11425 0
483 -11426 0
-773 -11426 0
-483 773 11426 0
901 -11427 0
-196 -11427 0
-901 196 11427 0
695 -11428 0
249 -11428 0
-695 -249 11428 0
152 -11429 0
268 -11429 0
-152 -268 11429 0
-198 -11430 0
753 -11430 0
198 -753 11430 0
152 -11431 0
531 -11431 0
-152 -531 11431 0
166 -11432 0
907 -11432 0
-166 -907 11432 0
242 -11433 0
305 -11433 0
-242 -305 11433 0
-974 -11434 0
929 -11434 0
974 -929 11434 0
471 -11435 0
531 -11435 0
-471 -531 11435 0
576 -11436 0
-316 -11436 0
-576 316 11436 0
415 -11437 0
221 -11437 0
-415 -221 11437 0
-895 -11438 0
321 -11438 0
895 -321 11438 0
624 -11439 0
90 -11439 0
-624 -90 11439 0
-709 -11440 0
370 -11440 0
709 -370 11440 0
695 -11441 0
735 -11441 0
-695 -735 11441 0
595 -11442 0
-54 -11442 0
-595 54 11442 0
935 -11443 0
93 -11443 0
-935 -93 11443 0
503 -11444 0
222 -11444 0
-503 -222 11444 0
-392 -11445 0
220 -11445 0
392 -220 11445 0
-832 -11446 0
830 -11446 0
832 -830 11446 0
354 -11447 0
937 -11447 0
-354 -937 11447 0
548 -11448 0
875 -11448 0
-548 -875 11448 0
620 -11449 0
905 -11449 0
-620 -905 11449 0
272 -11450 0
901 -11450 0
-272 -901 11450 0
704 -11451 0
750 -11451 0
-704 -750 11451 0
-498 -11452 0
321 -11452 0
498 -321 11452 0
262 -11453 0
-868 -11453 0
-262 868 11453 0
843 -11454 0
578 -11454 0
-843 -578 11454 0
-816 -11455 0
255 -11455 0
816 -255 11455 0
-315 -11456 0
313 -11456 0
315 -313 11456 0
-547 -11457 0
195 -11457 0
547 -195 11457 0
-776 -11458 0
139 -11458 0
776 -139 11458 0
-454 -11459 0
657 -11459 0
454 -657 11459 0
-976 -11460 0
718 -11460 0
976 -718 11460 0
207 -11461 0
-245 -11461 0
-207 245 11461 0
343 -11462 0
150 -11462 0
-343 -150 11462 0
464 -11463 0
456 -11463 0
-464 -456 11463 0
165 -11464 0
-908 -11464 0
-165 908 11464 0
998 -11465 0
-371 -11465 0
-998 371 11465 0
888 -11466 0
-895 -11466 0
-888 895 11466 0
461 -11467 0
-132 -11467 0
-461 132 11467 0
-325 -11468 0
113 -11468 0
325 -113 11468 0
-281 -11469 0
851 -11469 0
281 -851 11469 0
964 -11470 0
459 -11470 0
-964 -459 11470 0
387 -11471 0
882 -11471 0
-387 -882 11471 0
-10 -11472 0
694 -11472 0
10 -694 11472 0
86 -11473 0
-343 -11473 0
-86 343 11473 0
488 -11474 0
-981 -11474 0
-488 981 11474 0
627 -11475 0
865 -11475 0
-627 -865 11475 0
769 -11476 0
345 -11476 0
-769 -345 11476 0
182 -11477 0
-29 -11477 0
-182 29 11477 0
621 -11478 0
-279 -11478 0
-621 279 11478 0
-785 -11479 0
403 -11479 0
785 -403 11479 0
-424 -11480 0
975 -11480 0
424 -975 11480 0
135 -11481 0
-657 -11481 0
-135 657 11481 0
512 -11482 0
202 -11482 0
-512 -202 11482 0
472 -11483 0
907 -11483 0
-472 -907 11483 0
134 -11484 0
-319 -11484 0
-134 319 11484 0
174 -11485 0
-86 -11485 0
-174 86 11485 0
-850 -11486 0
978 -11486 0
850 -978 11486 0
608 -11487 0
-35 -11487 0
-608 35 11487 0
-545 -11488 0
238 -11488 0
545 -238 11488 0
-434 -11489 0
323 -11489 0
434 -323 11489 0
336 -11490 0
-426 -11490 0
-336 426 11490 0
43 -11491 0
561 -11491 0
-43 -561 11491 0
-177 -11492 0
462 -11492 0
177 -462 11492 0
813 -11493 0
-245 -11493 0
-813 245 11493 0
62 -11494 0
-306 -11494 0
-62 306 11494 0
-541 -11495 0
611 -11495 0
541 -611 11495 0
13 -11496 0
113 -11496 0
-13 -113 11496 0
-979 -11497 0
573 -11497 0
979 -573 11497 0
46 -11498 0
161 -11498 0
-46 -161 11498 0
-242 -11499 0
853 -11499 0
242 -853 11499 0
439 -11500 0
-5 -11500 0
-439 5 11500 0
-993 -11501 0
354 -11501 0
993 -354 11501 0
168 -11502 0
346 -11502 0
-168 -346 11502 0
108 -11503 0
-287 -11503 0
-108 287 11503 0
142 -11504 0
369 -11504 0
-142 -369 11504 0
335 -11505 0
319 -11505 0
-335 -319 11505 0
526 -11506 0
-749 -11506 0
-526 749 11506 0
-121 -11507 0
22 -11507 0
121 -22 11507 0
-965 -11508 0
114 -11508 0
965 -114 11508 0
-300 -11509 0
3 -11509 0
300 -3 11509 0
381 -11510 0
-143 -11510 0
-381 143 11510 0
551 -11511 0
258 -11511 0
-551 -258 11511 0
808 -11512 0
-291 -11512 0
-808 291 11512 0
80 -11513 0
482 -11513 0
-80 -482 11513 0
760 -11514 0
-498 -11514 0
-760 498 11514 0
-699 -11515 0
827 -11515 0
699 -827 11515 0
55 -11516 0
-596 -11516 0
-55 596 11516 0
-193 -11517 0
780 -11517 0
193 -780 11517 0
80 -11518 0
-604 -11518 0
-80 604 11518 0
-992 -11519 0
169 -11519 0
992 -169 11519 0
-356 -11520 0
107 -11520 0
356 -107 11520 0
214 -11521 0
-791 -11521 0
-214 791 11521 0
-153 -11522 0
842 -11522 0
153 -842 11522 0
736 -11523 0
-346 -11523 0
-736 346 11523 0
-762 -11524 0
700 -11524 0
762 -700 11524 0
-58 -11525 0
12 -11525 0
58 -12 11525 0
364 -11526 0
-701 -11526 0
-364 701 11526 0
-765 -11527 0
363 -11527 0
765 -363 11527 0
-938 -11528 0
924 -11528 0
938 -924 11528 0
72 -11529 0
172 -11529 0
-72 -172 11529 0
12 -11530 0
-631 -11530 0
-12 631 11530 0
967 -11531 0
518 -11531 0
-967 -518 11531 0
683 -11532 0
993 -11532 0
-683 -993 11532 0
963 -11533 0
321 -11533 0
-963 -321 11533 0
871 -11534 0
78 -11534 0
-871 -78 11534 0
96 -11535 0
-121 -11535 0
-96 121 11535 0
-11 -11536 0
660 -11536 0
11 -660 11536 0
-794 -11537 0
411 -11537 0
794 -411 11537 0
710 -11538 0
205 -11538 0
-710 -205 11538 0
711 -11539 0
-722 -11539 0
-711 722 11539 0
182 -11540 0
739 -11540 0
-182 -739 11540 0
466 -11541 0
273 -11541 0
-466 -273 11541 0
76 -11542 0
-47 -11542 0
-76 47 11542 0
788 -11543 0
522 -11543 0
-788 -522 11543 0
400 -11544 0
629 -11544 0
-400 -629 11544 0
-560 -11545 0
34 -11545 0
560 -34 11545 0
54 -11546 0
-626 -11546 0
-54 626 11546 0
895 -11547 0
-473 -11547 0
-895 473 11547 0
428 -11548 0
35 -11548 0
-428 -35 11548 0
36 -11549 0
668 -11549 0
-36 -668 11549 0
-569 -11550 0
414 -11550 0
569 -414 11550 0
543 -11551 0
-116 -11551 0
-543 116 11551 0
8 -11552 0
-124 -11552 0
-8 124 11552 0
-634 -11553 0
969 -11553 0
634 -969 11553 0
302 -11554 0
356 -11554 0
-302 -356 11554 0
216 -11555 0
-19 -11555 0
-216 19 11555 0
464 -11556 0
-443 -11556 0
-464 443 11556 0
32 -11557 0
-899 -11557 0
-32 899 11557 0
-10 -11558 0
531 -11558 0
10 -531 11558 0
908 -11559 0
-341 -11559 0
-908 341 11559 0
158 -11560 0
885 -11560 0
-158 -885 11560 0
-450 -11561 0
109 -11561 0
450 -109 11561 0
-881 -11562 0
50 -11562 0
881 -50 11562 0
-596 -11563 0
249 -11563 0
596 -249 11563 0
311 -11564 0
-487 -11564 0
-311 487 11564 0
718 -11565 0
417 -11565 0
-718 -417 11565 0
-53 -11566 0
386 -11566 0
53 -386 11566 0
-227 -11567 0
706 -11567 0
227 -706 11567 0
-818 -11568 0
163 -11568 0
818 -163 11568 0
110 -11569 0
820 -11569 0
-110 -820 11569 0
655 -11570 0
-626 -11570 0
-655 626 11570 0
900 -11571 0
369 -11571 0
-900 -369 11571 0
40 -11572 0
-303 -11572 0
-40 303 11572 0
920 -11573 0
-122 -11573 0
-920 122 11573 0
336 -11574 0
5 -11574 0
-336 -5 11574 0
957 -11575 0
-238 -11575 0
-957 238 11575 0
-584 -11576 0
330 -11576 0
584 -330 11576 0
853 -11577 0
988 -11577 0
-853 -988 11577 0
117 -11578 0
-598 -11578 0
-117 598 11578 0
1000 -11579 0
953 -11579 0
-1000 -953 11579 0
-201 -11580 0
455 -11580 0
201 -455 11580 0
574 -11581 0
-846 -11581 0
-574 846 11581 0
278 -11582 0
924 -11582 0
-278 -924 11582 0
500 -11583 0
-695 -11583 0
-500 695 11583 0
782 -11584 0
643 -11584 0
-782 -643 11584 0
-760 -11585 0
190 -11585 0
760 -190 11585 0
863 -11586 0
-292 -11586 0
-863 292 11586 0
758 -11587 0
-636 -11587 0
-758 636 11587 0
47 -11588 0
-169 -11588 0
-47 169 11588 0
136 -11589 0
-732 -11589 0
-136 732 11589 0
751 -11590 0
-853 -11590 0
-751 853 11590 0
292 -11591 0
100 -11591 0
-292 -100 11591 0
520 -11592 0
414 -11592 0
-520 -414 11592 0
915 -11593 0
834 -11593 0
-915 -834 11593 0
277 -11594 0
-973 -11594 0
-277 973 11594 0
-786 -11595 0
963 -11595 0
786 -963 11595 0
838 -11596 0
717 -11596 0
-838 -717 11596 0
-41 -11597 0
613 -11597 0
41 -613 11597 0
298 -11598 0
545 -11598 0
-298 -545 11598 0
262 -11599 0
-603 -11599 0
-262 603 11599 0
944 -11600 0
973 -11600 0
-944 -973 11600 0
135 -11601 0
-27 -11601 0
-135 27 11601 0
428 -11602 0
186 -11602 0
-428 -186 11602 0
-592 -11603 0
725 -11603 0
592 -725 11603 0
8 -11604 0
931 -11604 0
-8 -931 11604 0
961 -11605 0
-287 -11605 0
-961 287 11605 0
428 -11606 0
-727 -11606 0
-428 727 11606 0
551 -11607 0
182 -11607 0
-551 -182 11607 0
-387 -11608 0
306 -11608 0
387 -306 11608 0
-108 -11609 0
890 -11609 0
108 -890 11609 0
184 -11610 0
-306 -11610 0
-184 306 11610 0
-412 -11611 0
523 -11611 0
412 -523 11611 0
-856 -11612 0
842 -11612 0
856 -842 11612 0
882 -11613 0
-246 -11613 0
-882 246 11613 0
936 -11614 0
133 -11614 0
-936 -133 11614 0
501 -11615 0
-852 -11615 0
-501 852 11615 0
424 -11616 0
-834 -11616 0
-424 834 11616 0
247 -11617 0
-442 -11617 0
-247 442 11617 0
40 -11618 0
-701 -11618 0
-40 701 11618 0
791 -11619 0
-907 -11619 0
-791 907 11619 0
851 -11620 0
394 -11620 0
-851 -394 11620 0
-464 -11621 0
870 -11621 0
464 -870 11621 0
745 -11622 0
537 -11622 0
-745 -537 11622 0
504 -11623 0
-931 -11623 0
-504 931 11623 0
854 -11624 0
-998 -11624 0
-854 998 11624 0
432 -11625 0
-152 -11625 0
-432 152 11625 0
718 -11626 0
-754 -11626 0
-718 754 11626 0
71 -11627 0
453 -11627 0
-71 -453 11627 0
568 -11628 0
-527 -11628 0
-568 527 11628 0
591 -11629 0
524 -11629 0
-591 -524 11629 0
-25 -11630 0
795 -11630 0
25 -795 11630 0
-860 -11631 0
722 -11631 0
860 -722 11631 0
394 -11632 0
722 -11632 0
-394 -722 11632 0
504 -11633 0
852 -11633 0
-504 -852 11633 0
800 -11634 0
-484 -11634 0
-800 484 11634 0
345 -11635 0
809 -11635 0
-345 -809 11635 0
295 -11636 0
513 -11636 0
-295 -513 11636 0
221 -11637 0
451 -11637 0
-221 -451 11637 0
916 -11638 0
890 -11638 0
-916 -890 11638 0
222 -11639 0
-211 -11639 0
-222 211 11639 0
855 -11640 0
-387 -11640 0
-855 387 11640 0
718 -11641 0
259 -11641 0
-718 -259 11641 0
967 -11642 0
379 -11642 0
-967 -379 11642 0
975 -11643 0
559 -11643 0
-975 -559 11643 0
716 -11644 0
-839 -11644 0
-716 839 11644 0
584 -11645 0
-531 -11645 0
-584 531 11645 0
368 -11646 0
-546 -11646 0
-368 546 11646 0
408 -11647 0
-426 -11647 0
-408 426 11647 0
1000 -11648 0
-300 -11648 0
-1000 300 11648 0
-200 -11649 0
66 -11649 0
200 -66 11649 0
-240 -11650 0
301 -11650 0
240 -301 11650 0
-162 -11651 0
771 -11651 0
162 -771 11651 0
-748 -11652 0
627 -11652 0
748 -627 11652 0
547 -11653 0
-861 -11653 0
-547 861 11653 0
-24 -11654 0
30 -11654 0
24 -30 11654 0
207 -11655 0
571 -11655 0
-207 -571 11655 0
854 -11656 0
159 -11657 0
35 -11657 0
-159 -35 11657 0
-342 -11658 0
258 -11658 0
342 -258 11658 0
631 -11659 0
772 -11659 0
-631 -772 11659 0
855 -11660 0
365 -11660 0
-855 -365 11660 0
374 -11661 0
290 -11661 0
-374 -290 11661 0
376 -11662 0
381 -11662 0
-376 -381 11662 0
54 -11663 0
6 -11663 0
-54 -6 11663 0
-777 -11664 0
492 -11664 0
777 -492 11664 0
-703 -11665 0
993 -11665 0
703 -993 11665 0
7 -11666 0
-483 -11666 0
-7 483 11666 0
232 -11667 0
-773 -11667 0
-232 773 11667 0
631 -11668 0
-395 -11668 0
-631 395 11668 0
295 -11669 0
-103 -11669 0
-295 103 11669 0
167 -11670 0
-226 -11670 0
-167 226 11670 0
751 -11671 0
961 -11671 0
-751 -961 11671 0
-72 -11672 0
935 -11672 0
72 -935 11672 0
175 -11673 0
-517 -11673 0
-175 517 11673 0
-57 -11674 0
618 -11674 0
57 -618 11674 0
-672 -11675 0
470 -11675 0
672 -470 11675 0
774 -11676 0
-572 -11676 0
-774 572 11676 0
137 -11677 0
-287 -11677 0
-137 287 11677 0
-576 -11678 0
311 -11678 0
576 -311 11678 0
546 -11679 0
802 -11679 0
-546 -802 11679 0
-417 -11680 0
69 -11680 0
417 -69 11680 0
-322 -11681 0
971 -11681 0
322 -971 11681 0
-260 -11682 0
233 -11682 0
260 -233 11682 0
395 -11683 0
858 -11683 0
-395 -858 11683 0
183 -11684 0
847 -11684 0
-183 -847 11684 0
958 -11685 0
-219 -11685 0
-958 219 11685 0
76 -11686 0
-70 -11686 0
-76 70 11686 0
664 -11687 0
166 -11687 0
-664 -166 11687 0
987 -11688 0
323 -11688 0
-987 -323 11688 0
440 -11689 0
13 -11689 0
-440 -13 11689 0
54 -11690 0
826 -11690 0
-54 -826 11690 0
-585 -11691 0
665 -11691 0
585 -665 11691 0
623 -11692 0
-394 -11692 0
-623 394 11692 0
757 -11693 0
658 -11693 0
-757 -658 11693 0
93 -11694 0
363 -11694 0
-93 -363 11694 0
760 -11695 0
692 -11695 0
-760 -692 11695 0
472 -11696 0
348 -11696 0
-472 -348 11696 0
250 -11697 0
-47 -11697 0
-250 47 11697 0
-74 -11698 0
349 -11698 0
74 -349 11698 0
411 -11699 0
-405 -11699 0
-411 405 11699 0
-915 -11700 0
651 -11700 0
915 -651 11700 0
891 -11701 0
-143 -11701 0
-891 143 11701 0
-997 -11702 0
273 -11702 0
997 -273 11702 0
268 -11703 0
569 -11703 0
-268 -569 11703 0
440 -11704 0
897 -11704 0
-440 -897 11704 0
557 -11705 0
-525 -11705 0
-557 525 11705 0
294 -11706 0
452 -11706 0
-294 -452 11706 0
781 -11707 0
932 -11707 0
-781 -932 11707 0
239 -11708 0
-227 -11708 0
-239 227 11708 0
-737 -11709 0
867 -11709 0
737 -867 11709 0
375 -11710 0
-973 -11710 0
-375 973 11710 0
-624 -11711 0
952 -11711 0
624 -952 11711 0
221 -11712 0
315 -11712 0
-221 -315 11712 0
-619 -11713 0
67 -11713 0
619 -67 11713 0
542 -11714 0
-898 -11714 0
-542 898 11714 0
-850 -11715 0
369 -11715 0
850 -369 11715 0
707 -11716 0
561 -11716 0
-707 -561 11716 0
-80 -11717 0
642 -11717 0
80 -642 11717 0
366 -11718 0
963 -11718 0
-366 -963 11718 0
119 -11719 0
-390 -11719 0
-119 390 11719 0
888 -11720 0
498 -11720 0
-888 -498 11720 0
466 -11721 0
697 -11721 0
-466 -697 11721 0
396 -11722 0
-327 -11722 0
-396 327 11722 0
891 -11723 0
962 -11723 0
-891 -962 11723 0
-471 -11724 0
849 -11724 0
471 -849 11724 0
-356 -11725 0
155 -11725 0
356 -155 11725 0
-235 -11726 0
332 -11726 0
235 -332 11726 0
14 -11727 0
164 -11727 0
-14 -164 11727 0
229 -11728 0
-171 -11728 0
-229 171 11728 0
-906 -11729 0
977 -11729 0
906 -977 11729 0
919 -11730 0
-175 -11730 0
-919 175 11730 0
-761 -11731 0
861 -11731 0
761 -861 11731 0
-101 -11732 0
355 -11732 0
101 -355 11732 0
604 -11733 0
-607 -11733 0
-604 607 11733 0
-962 -11734 0
949 -11734 0
962 -949 11734 0
350 -11735 0
-851 -11735 0
-350 851 11735 0
388 -11736 0
852 -11736 0
-388 -852 11736 0
775 -11737 0
461 -11737 0
-775 -461 11737 0
641 -11738 0
-271 -11738 0
-641 271 11738 0
246 -11739 0
-630 -11739 0
-246 630 11739 0
747 -11740 0
-542 -11740 0
-747 542 11740 0
831 -11741 0
-771 -11741 0
-831 771 11741 0
950 -11742 0
-427 -11742 0
-950 427 11742 0
-729 -11743 0
213 -11743 0
729 -213 11743 0
644 -11744 0
748 -11744 0
-644 -748 11744 0
128 -11745 0
-890 -11745 0
-128 890 11745 0
-970 -11746 0
642 -11746 0
970 -642 11746 0
230 -11747 0
666 -11747 0
-230 -666 11747 0
103 -11748 0
798 -11748 0
-103 -798 11748 0
603 -11749 0
506 -11749 0
-603 -506 11749 0
719 -11750 0
-782 -11750 0
-719 782 11750 0
558 -11751 0
933 -11751 0
-558 -933 11751 0
838 -11752 0
42 -11752 0
-838 -42 11752 0
63 -11753 0
13 -11753 0
-63 -13 11753 0
-940 -11754 0
123 -11754 0
940 -123 11754 0
119 -11755 0
-7 -11755 0
-119 7 11755 0
823 -11756 0
809 -11756 0
-823 -809 11756 0
-697 -11757 0
730 -11757 0
697 -730 11757 0
958 -11758 0
467 -11758 0
-958 -467 11758 0
552 -11759 0
-267 -11759 0
-552 267 11759 0
-435 -11760 0
666 -11760 0
435 -666 11760 0
880 -11761 0
-605 -11761 0
-880 605 11761 0
196 -11762 0
-775 -11762 0
-196 775 11762 0
943 -11763 0
-329 -11763 0
-943 329 11763 0
-771 -11764 0
123 -11764 0
771 -123 11764 0
54 -11765 0
-37 -11765 0
-54 37 11765 0
141 -11766 0
290 -11766 0
-141 -290 11766 0
-390 -11767 0
26 -11767 0
390 -26 11767 0
788 -11768 0
-838 -11768 0
-788 838 11768 0
-142 -11769 0
946 -11769 0
142 -946 11769 0
-673 -11770 0
835 -11770 0
673 -835 11770 0
-763 -11771 0
581 -11771 0
763 -581 11771 0
709 -11772 0
-295 -11772 0
-709 295 11772 0
548 -11773 0
-463 -11773 0
-548 463 11773 0
59 -11774 0
-158 -11774 0
-59 158 11774 0
440 -11775 0
321 -11775 0
-440 -321 11775 0
206 -11776 0
381 -11776 0
-206 -381 11776 0
-544 -11777 0
589 -11777 0
544 -589 11777 0
-690 -11778 0
822 -11778 0
690 -822 11778 0
792 -11779 0
-490 -11779 0
-792 490 11779 0
581 -11780 0
956 -11780 0
-581 -956 11780 0
568 -11781 0
110 -11781 0
-568 -110 11781 0
-354 -11782 0
659 -11782 0
354 -659 11782 0
974 -11783 0
-453 -11783 0
-974 453 11783 0
-249 -11784 0
844 -11784 0
249 -844 11784 0
-892 -11785 0
939 -11785 0
892 -939 11785 0
-345 -11786 0
396 -11786 0
345 -396 11786 0
870 -11787 0
-516 -11787 0
-870 516 11787 0
77 -11788 0
-651 -11788 0
-77 651 11788 0
-219 -11789 0
906 -11789 0
219 -906 11789 0
660 -11790 0
292 -11790 0
-660 -292 11790 0
434 -11791 0
-207 -11791 0
-434 207 11791 0
926 -11792 0
-292 -11792 0
-926 292 11792 0
-712 -11793 0
193 -11793 0
712 -193 11793 0
-298 -11794 0
185 -11794 0
298 -185 11794 0
791 -11795 0
258 -11795 0
-791 -258 11795 0
-792 -11796 0
392 -11796 0
792 -392 11796 0
-618 -11797 0
778 -11797 0
618 -778 11797 0
861 -11798 0
572 -11798 0
-861 -572 11798 0
319 -11799 0
95 -11799 0
-319 -95 11799 0
-299 -11800 0
267 -11800 0
299 -267 11800 0
-784 -11801 0
47 -11801 0
784 -47 11801 0
-627 -11802 0
649 -11802 0
627 -649 11802 0
948 -11803 0
-829 -11803 0
-948 829 11803 0
54 -11804 0
-829 -11804 0
-54 829 11804 0
672 -11805 0
-92 -11805 0
-672 92 11805 0
-441 -11806 0
338 -11806 0
441 -338 11806 0
-595 -11807 0
321 -11807 0
595 -321 11807 0
-339 -11808 0
249 -11808 0
339 -249 11808 0
247 -11809 0
-191 -11809 0
-247 191 11809 0
871 -11810 0
-966 -11810 0
-871 966 11810 0
-169 -11811 0
451 -11811 0
169 -451 11811 0
932 -11812 0
-77 -11812 0
-932 77 11812 0
519 -11813 0
-132 -11813 0
-519 132 11813 0
919 -11814 0
-203 -11814 0
-919 203 11814 0
872 -11815 0
79 -11815 0
-872 -79 11815 0
200 -11816 0
72 -11816 0
-200 -72 11816 0
-995 -11817 0
641 -11817 0
995 -641 11817 0
-805 -11818 0
257 -11818 0
805 -257 11818 0
534 -11819 0
139 -11819 0
-534 -139 11819 0
-49 -11820 0
597 -11820 0
49 -597 11820 0
-24 -11821 0
10 -11821 0
24 -10 11821 0
979 -11822 0
721 -11822 0
-979 -721 11822 0
-657 -11823 0
172 -11823 0
657 -172 11823 0
-697 -11824 0
876 -11824 0
697 -876 11824 0
688 -11825 0
914 -11825 0
-688 -914 11825 0
725 -11826 0
-764 -11826 0
-725 764 11826 0
558 -11827 0
-498 -11827 0
-558 498 11827 0
86 -11828 0
-970 -11828 0
-86 970 11828 0
-1 -11829 0
47 -11829 0
1 -47 11829 0
192 -11830 0
295 -11830 0
-192 -295 11830 0
-797 -11831 0
825 -11831 0
797 -825 11831 0
-898 -11832 0
876 -11832 0
898 -876 11832 0
944 -11833 0
346 -11833 0
-944 -346 11833 0
214 -11834 0
595 -11834 0
-214 -595 11834 0
-216 -11835 0
491 -11835 0
216 -491 11835 0
527 -11836 0
-508 -11836 0
-527 508 11836 0
23 -11837 0
70 -11837 0
-23 -70 11837 0
-889 -11838 0
179 -11838 0
889 -179 11838 0
805 -11839 0
346 -11839 0
-805 -346 11839 0
734 -11840 0
-851 -11840 0
-734 851 11840 0
-608 -11841 0
44 -11841 0
608 -44 11841 0
-324 -11842 0
442 -11842 0
324 -442 11842 0
-332 -11843 0
51 -11843 0
332 -51 11843 0
520 -11844 0
-501 -11844 0
-520 501 11844 0
-264 -11845 0
805 -11845 0
264 -805 11845 0
30 -11846 0
-718 -11846 0
-30 718 11846 0
-957 -11847 0
635 -11847 0
957 -635 11847 0
560 -11848 0
336 -11848 0
-560 -336 11848 0
52 -11849 0
-893 -11849 0
-52 893 11849 0
-889 -11850 0
942 -11850 0
889 -942 11850 0
7 -11851 0
239 -11851 0
-7 -239 11851 0
127 -11852 0
628 -11852 0
-127 -628 11852 0
-640 -11853 0
454 -11853 0
640 -454 11853 0
-872 -11854 0
803 -11854 0
872 -803 11854 0
165 -11855 0
547 -11855 0
-165 -547 11855 0
508 -11856 0
946 -11856 0
-508 -946 11856 0
955 -11857 0
-101 -11857 0
-955 101 11857 0
87 -11858 0
614 -11858 0
-87 -614 11858 0
294 -11859 0
-550 -11859 0
-294 550 11859 0
615 -11860 0
-359 -11860 0
-615 359 11860 0
1 -11861 0
770 -11861 0
-1 -770 11861 0
382 -11862 0
131 -11862 0
-382 -131 11862 0
752 -11863 0
808 -11863 0
-752 -808 11863 0
395 -11864 0
-533 -11864 0
-395 533 11864 0
-744 -11865 0
92 -11865 0
744 -92 11865 0
535 -11866 0
126 -11866 0
-535 -126 11866 0
516 -11867 0
827 -11867 0
-516 -827 11867 0
-704 -11868 0
925 -11868 0
704 -925 11868 0
102 -11869 0
915 -11869 0
-102 -915 11869 0
128 -11870 0
429 -11870 0
-128 -429 11870 0
583 -11871 0
-777 -11871 0
-583 777 11871 0
439 -11872 0
443 -11872 0
-439 -443 11872 0
-324 -11873 0
995 -11873 0
324 -995 11873 0
182 -11874 0
669 -11874 0
-182 -669 11874 0
-274 -11875 0
860 -11875 0
274 -860 11875 0
271 -11876 0
-513 -11876 0
-271 513 11876 0
319 -11877 0
547 -11877 0
-319 -547 11877 0
108 -11878 0
-717 -11878 0
-108 717 11878 0
-138 -11879 0
253 -11879 0
138 -253 11879 0
944 -11880 0
-166 -11880 0
-944 166 11880 0
-888 -11881 0
350 -11881 0
888 -350 11881 0
103 -11882 0
-43 -11882 0
-103 43 11882 0
739 -11883 0
569 -11883 0
-739 -569 11883 0
968 -11884 0
-480 -11884 0
-968 480 11884 0
317 -11885 0
858 -11885 0
-317 -858 11885 0
-601 -11886 0
396 -11886 0
601 -396 11886 0
344 -11887 0
-880 -11887 0
-344 880 11887 0
350 -11888 0
-6 -11888 0
-350 6 11888 0
360 -11889 0
-13 -11889 0
-360 13 11889 0
435 -11890 0
617 -11890 0
-435 -617 11890 0
-904 -11891 0
897 -11891 0
904 -897 11891 0
247 -11892 0
-282 -11892 0
-247 282 11892 0
858 -11893 0
321 -11893 0
-858 -321 11893 0
61 -11894 0
275 -11894 0
-61 -275 11894 0
472 -11895 0
845 -11895 0
-472 -845 11895 0
595 -11896 0
441 -11896 0
-595 -441 11896 0
240 -11897 0
292 -11897 0
-240 -292 11897 0
467 -11898 0
281 -11898 0
-467 -281 11898 0
851 -11899 0
-31 -11899 0
-851 31 11899 0
-794 -11900 0
723 -11900 0
794 -723 11900 0
-200 -11901 0
762 -11901 0
200 -762 11901 0
-872 -11902 0
99 -11902 0
872 -99 11902 0
-440 -11903 0
698 -11903 0
440 -698 11903 0
-470 -11904 0
433 -11904 0
470 -433 11904 0
-387 -11905 0
202 -11905 0
387 -202 11905 0
952 -11906 0
850 -11906 0
-952 -850 11906 0
551 -11907 0
730 -11907 0
-551 -730 11907 0
740 -11908 0
874 -11908 0
-740 -874 11908 0
662 -11909 0
-701 -11909 0
-662 701 11909 0
-128 -11910 0
531 -11910 0
128 -531 11910 0
391 -11911 0
-331 -11911 0
-391 331 11911 0
-864 -11912 0
332 -11912 0
864 -332 11912 0
183 -11913 0
838 -11913 0
-183 -838 11913 0
362 -11914 0
-406 -11914 0
-362 406 11914 0
405 -11915 0
940 -11915 0
-405 -940 11915 0
406 -11916 0
756 -11916 0
-406 -756 11916 0
784 -11917 0
-430 -11917 0
-784 430 11917 0
919 -11918 0
414 -11918 0
-919 -414 11918 0
294 -11919 0
557 -11919 0
-294 -557 11919 0
479 -11920 0
404 -11920 0
-479 -404 11920 0
496 -11921 0
861 -11921 0
-496 -861 11921 0
440 -11922 0
-201 -11922 0
-440 201 11922 0
-456 -11923 0
173 -11923 0
456 -173 11923 0
607 -11924 0
225 -11924 0
-607 -225 11924 0
512 -11925 0
856 -11925 0
-512 -856 11925 0
695 -11926 0
234 -11926 0
-695 -234 11926 0
830 -11927 0
334 -11927 0
-830 -334 11927 0
259 -11928 0
131 -11928 0
-259 -131 11928 0
-513 -11929 0
794 -11929 0
513 -794 11929 0
716 -11930 0
-55 -11930 0
-716 55 11930 0
-649 -11931 0
26 -11931 0
649 -26 11931 0
283 -11932 0
-751 -11932 0
-283 751 11932 0
-956 -11933 0
372 -11933 0
956 -372 11933 0
639 -11934 0
-452 -11934 0
-639 452 11934 0
743 -11935 0
-964 -11935 0
-743 964 11935 0
789 -11936 0
-948 -11936 0
-789 948 11936 0
-274 -11937 0
130 -11937 0
274 -130 11937 0
-970 -11938 0
996 -11938 0
970 -996 11938 0
-784 -11939 0
630 -11939 0
784 -630 11939 0
-253 -11940 0
395 -11940 0
253 -395 11940 0
-561 -11941 0
660 -11941 0
561 -660 11941 0
707 -11942 0
-191 -11942 0
-707 191 11942 0
262 -11943 0
892 -11943 0
-262 -892 11943 0
288 -11944 0
-91 -11944 0
-288 91 11944 0
764 -11945 0
-863 -11945 0
-764 863 11945 0
655 -11946 0
-758 -11946 0
-655 758 11946 0
526 -11947 0
-527 -11947 0
-526 527 11947 0
-426 -11948 0
618 -11948 0
426 -618 11948 0
20 -11949 0
-599 -11949 0
-20 599 11949 0
-515 -11950 0
388 -11950 0
515 -388 11950 0
566 -11951 0
65 -11951 0
-566 -65 11951 0
239 -11952 0
226 -11952 0
-239 -226 11952 0
419 -11953 0
377 -11953 0
-419 -377 11953 0
359 -11954 0
295 -11954 0
-359 -295 11954 0
-979 -11955 0
441 -11955 0
979 -441 11955 0
72 -11956 0
687 -11956 0
-72 -687 11956 0
-934 -11957 0
905 -11957 0
934 -905 11957 0
-530 -11958 0
244 -11958 0
530 -244 11958 0
-835 -11959 0
700 -11959 0
835 -700 11959 0
79 -11960 0
-870 -11960 0
-79 870 11960 0
736 -11961 0
41 -11961 0
-736 -41 11961 0
-884 -11962 0
428 -11962 0
884 -428 11962 0
160 -11963 0
-829 -11963 0
-160 829 11963 0
916 -11964 0
266 -11964 0
-916 -266 11964 0
403 -11965 0
51 -11965 0
-403 -51 11965 0
170 -11966 0
-775 -11966 0
-170 775 11966 0
-120 -11967 0
238 -11967 0
120 -238 11967 0
-392 -11968 0
373 -11968 0
392 -373 11968 0
309 -11969 0
-478 -11969 0
-309 478 11969 0
208 -11970 0
564 -11970 0
-208 -564 11970 0
-889 -11971 0
739 -11971 0
889 -739 11971 0
927 -11972 0
866 -11972 0
-927 -866 11972 0
808 -11973 0
-724 -11973 0
-808 724 11973 0
248 -11974 0
-430 -11974 0
-248 430 11974 0
261 -11975 0
-421 -11975 0
-261 421 11975 0
832 -11976 0
962 -11976 0
-832 -962 11976 0
218 -11977 0
-863 -11977 0
-218 863 11977 0
663 -11978 0
-357 -11978 0
-663 357 11978 0
-402 -11979 0
441 -11979 0
402 -441 11979 0
182 -11980 0
996 -11980 0
-182 -996 11980 0
430 -11981 0
373 -11981 0
-430 -373 11981 0
698 -11982 0
305 -11982 0
-698 -305 11982 0
559 -11983 0
-354 -11983 0
-559 354 11983 0
488 -11984 0
-699 -11984 0
-488 699 11984 0
317 -11985 0
290 -11985 0
-317 -290 11985 0
296 -11986 0
573 -11986 0
-296 -573 11986 0
294 -11987 0
-972 -11987 0
-294 972 11987 0
-515 -11988 0
147 -11988 0
515 -147 11988 0
237 -11989 0
613 -11989 0
-237 -613 11989 0
663 -11990 0
-635 -11990 0
-663 635 11990 0
287 -11991 0
733 -11991 0
-287 -733 11991 0
803 -11992 0
-174 -11992 0
-803 174 11992 0
-985 -11993 0
683 -11993 0
985 -683 11993 0
882 -11994 0
298 -11994 0
-882 -298 11994 0
491 -11995 0
-334 -11995 0
-491 334 11995 0
248 -11996 0
-670 -11996 0
-248 670 11996 0
470 -11997 0
-742 -11997 0
-470 742 11997 0
326 -11998 0
-567 -11998 0
-326 567 11998 0
456 -11999 0
772 -11999 0
-456 -772 11999 0
667 -12000 0
-885 -12000 0
-667 885 12000 0
415 -12001 0
-380 -12001 0
-415 380 12001 0
-936 -12002 0
827 -12002 0
936 -827 12002 0
-387 -12003 0
929 -12003 0
387 -929 12003 0
-894 -12004 0
850 -12004 0
894 -850 12004 0
492 -12005 0
114 -12005 0
-492 -114 12005 0
-937 -12006 0
66 -12006 0
937 -66 12006 0
-825 -12007 0
610 -12007 0
825 -610 12007 0
103 -12008 0
-774 -12008 0
-103 774 12008 0
974 -12009 0
-398 -12009 0
-974 398 12009 0
-660 -12010 0
226 -12010 0
660 -226 12010 0
319 -12011 0
721 -12011 0
-319 -721 12011 0
-304 -12012 0
475 -12012 0
304 -475 12012 0
-418 -12013 0
486 -12013 0
418 -486 12013 0
-768 -12014 0
157 -12014 0
768 -157 12014 0
40 -12015 0
375 -12015 0
-40 -375 12015 0
334 -12016 0
-948 -12016 0
-334 948 12016 0
527 -12017 0
258 -12017 0
-527 -258 12017 0
510 -12018 0
793 -12018 0
-510 -793 12018 0
528 -12019 0
-147 -12019 0
-528 147 12019 0
-450 -12020 0
257 -12020 0
450 -257 12020 0
453 -12021 0
333 -12021 0
-453 -333 12021 0
525 -12022 0
539 -12022 0
-525 -539 12022 0
-674 -12023 0
678 -12023 0
674 -678 12023 0
734 -12024 0
-751 -12024 0
-734 751 12024 0
983 -12025 0
-764 -12025 0
-983 764 12025 0
648 -12026 0
685 -12026 0
-648 -685 12026 0
960 -12027 0
-114 -12027 0
-960 114 12027 0
503 -12028 0
-555 -12028 0
-503 555 12028 0
613 -12029 0
-600 -12030 0
421 -12030 0
600 -421 12030 0
938 -12031 0
-271 -12031 0
-938 271 12031 0
415 -12032 0
-819 -12032 0
-415 819 12032 0
430 -12033 0
-468 -12033 0
-430 468 12033 0
159 -12034 0
567 -12034 0
-159 -567 12034 0
-603 -12035 0
682 -12035 0
603 -682 12035 0
862 -12036 0
382 -12036 0
-862 -382 12036 0
834 -12037 0
162 -12037 0
-834 -162 12037 0
-402 -12038 0
865 -12038 0
402 -865 12038 0
-611 -12039 0
281 -12039 0
611 -281 12039 0
376 -12040 0
-933 -12040 0
-376 933 12040 0
807 -12041 0
10 -12041 0
-807 -10 12041 0
-409 -12042 0
201 -12042 0
409 -201 12042 0
-796 -12043 0
801 -12043 0
796 -801 12043 0
548 -12044 0
-567 -12044 0
-548 567 12044 0
472 -12045 0
812 -12045 0
-472 -812 12045 0
-573 -12046 0
778 -12046 0
573 -778 12046 0
-530 -12047 0
69 -12047 0
530 -69 12047 0
272 -12048 0
-296 -12048 0
-272 296 12048 0
-557 -12049 0
618 -12049 0
557 -618 12049 0
551 -12050 0
363 -12050 0
-551 -363 12050 0
261 -12051 0
-533 -12051 0
-261 533 12051 0
-738 -12052 0
370 -12052 0
738 -370 12052 0
494 -12053 0
-557 -12053 0
-494 557 12053 0
-706 -12054 0
291 -12054 0
706 -291 12054 0
602 -12055 0
-647 -12055 0
-602 647 12055 0
963 -12056 0
-638 -12056 0
-963 638 12056 0
534 -12057 0
501 -12057 0
-534 -501 12057 0
-416 -12058 0
658 -12058 0
416 -658 12058 0
215 -12059 0
338 -12059 0
-215 -338 12059 0
574 -12060 0
827 -12060 0
-574 -827 12060 0
-250 -12061 0
422 -12061 0
250 -422 12061 0
-298 -12062 0
430 -12062 0
298 -430 12062 0
272 -12063 0
-556 -12063 0
-272 556 12063 0
288 -12064 0
-258 -12064 0
-288 258 12064 0
597 -12065 0
-517 -12065 0
-597 517 12065 0
332 -12066 0
834 -12066 0
-332 -834 12066 0
-451 -12067 0
348 -12067 0
451 -348 12067 0
833 -12068 0
-767 -12068 0
-833 767 12068 0
-937 -12069 0
62 -12069 0
937 -62 12069 0
374 -12070 0
102 -12070 0
-374 -102 12070 0
923 -12071 0
-53 -12071 0
-923 53 12071 0
-202 -12072 0
154 -12072 0
202 -154 12072 0
-729 -12073 0
539 -12073 0
729 -539 12073 0
198 -12074 0
-974 -12074 0
-198 974 12074 0
974 -12075 0
313 -12075 0
-974 -313 12075 0
936 -12076 0
-804 -12076 0
-936 804 12076 0
533 -12077 0
987 -12077 0
-533 -987 12077 0
427 -12078 0
-149 -12078 0
-427 149 12078 0
395 -12079 0
-78 -12079 0
-395 78 12079 0
180 -12080 0
-615 -12080 0
-180 615 12080 0
-454 -12081 0
601 -12081 0
454 -601 12081 0
-506 -12082 0
685 -12082 0
506 -685 12082 0
176 -12083 0
-910 -12083 0
-176 910 12083 0
32 -12084 0
81 -12084 0
-32 -81 12084 0
355 -12085 0
-199 -12085 0
-355 199 12085 0
802 -12086 0
329 -12086 0
-802 -329 12086 0
438 -12087 0
449 -12087 0
-438 -449 12087 0
-600 -12088 0
492 -12088 0
600 -492 12088 0
96 -12089 0
-591 -12089 0
-96 591 12089 0
117 -12090 0
-228 -12090 0
-117 228 12090 0
605 -12091 0
763 -12091 0
-605 -763 12091 0
392 -12092 0
384 -12092 0
-392 -384 12092 0
535 -12093 0
-821 -12093 0
-535 821 12093 0
461 -12094 0
-943 -12094 0
-461 943 12094 0
876 -12095 0
890 -12095 0
-876 -890 12095 0
984 -12096 0
-762 -12096 0
-984 762 12096 0
-168 -12097 0
785 -12097 0
168 -785 12097 0
156 -12098 0
-759 -12098 0
-156 759 12098 0
456 -12099 0
743 -12099 0
-456 -743 12099 0
404 -12100 0
305 -12100 0
-404 -305 12100 0
61 -12101 0
-467 -12101 0
-61 467 12101 0
133 -12102 0
465 -12102 0
-133 -465 12102 0
-417 -12103 0
529 -12103 0
417 -529 12103 0
-388 -12104 0
715 -12104 0
388 -715 12104 0
924 -12105 0
-941 -12105 0
-924 941 12105 0
80 -12106 0
922 -12106 0
-80 -922 12106 0
831 -12107 0
-795 -12107 0
-831 795 12107 0
60 -12108 0
707 -12108 0
-60 -707 12108 0
743 -12109 0
-543 -12109 0
-743 543 12109 0
-121 -12110 0
789 -12110 0
121 -789 12110 0
320 -12111 0
-964 -12111 0
-320 964 12111 0
21 -12112 0
187 -12112 0
-21 -187 12112 0
-868 -12113 0
867 -12113 0
868 -867 12113 0
136 -12114 0
555 -12114 0
-136 -555 12114 0
-524 -12115 0
313 -12115 0
524 -313 12115 0
651 -12116 0
43 -12116 0
-651 -43 12116 0
-485 -12117 0
547 -12117 0
485 -547 12117 0
484 -12118 0
529 -12118 0
-484 -529 12118 0
888 -12119 0
-516 -12119 0
-888 516 12119 0
-692 -12120 0
26 -12120 0
692 -26 12120 0
-985 -12121 0
500 -12121 0
985 -500 12121 0
-553 -12122 0
194 -12122 0
553 -194 12122 0
382 -12123 0
-106 -12123 0
-382 106 12123 0
-529 -12124 0
706 -12124 0
529 -706 12124 0
699 -12125 0
-375 -12125 0
-699 375 12125 0
721 -12126 0
-407 -12126 0
-721 407 12126 0
-456 -12127 0
721 -12127 0
456 -721 12127 0
98 -12128 0
138 -12128 0
-98 -138 12128 0
232 -12129 0
866 -12129 0
-232 -866 12129 0
-766 -12130 0
665 -12130 0
766 -665 12130 0
711 -12131 0
654 -12131 0
-711 -654 12131 0
86 -12132 0
97 -12132 0
-86 -97 12132 0
205 -12133 0
-723 -12133 0
-205 723 12133 0
-96 -12134 0
165 -12134 0
96 -165 12134 0
480 -12135 0
-124 -12135 0
-480 124 12135 0
471 -12136 0
907 -12136 0
-471 -907 12136 0
-1 -12137 0
635 -12137 0
1 -635 12137 0
-672 -12138 0
992 -12138 0
672 -992 12138 0
-810 -12139 0
518 -12139 0
810 -518 12139 0
790 -12140 0
-84 -12140 0
-790 84 12140 0
245 -12141 0
-934 -12141 0
-245 934 12141 0
959 -12142 0
659 -12142 0
-959 -659 12142 0
589 -12143 0
-687 -12143 0
-589 687 12143 0
157 -12144 0
146 -12144 0
-157 -146 12144 0
934 -12145 0
346 -12145 0
-934 -346 12145 0
415 -12146 0
900 -12146 0
-415 -900 12146 0
-625 -12147 0
858 -12147 0
625 -858 12147 0
648 -12148 0
-646 -12148 0
-648 646 12148 0
-803 -12149 0
449 -12149 0
803 -449 12149 0
-730 -12150 0
795 -12150 0
730 -795 12150 0
448 -12151 0
-458 -12151 0
-448 458 12151 0
268 -12152 0
-463 -12152 0
-268 463 12152 0
935 -12153 0
-663 -12153 0
-935 663 12153 0
536 -12154 0
538 -12154 0
-536 -538 12154 0
-585 -12155 0
396 -12155 0
585 -396 12155 0
348 -12156 0
836 -12156 0
-348 -836 12156 0
536 -12157 0
864 -12157 0
-536 -864 12157 0
-776 -12158 0
854 -12158 0
776 -854 12158 0
645 -12159 0
514 -12159 0
-645 -514 12159 0
-574 -12160 0
353 -12160 0
574 -353 12160 0
365 -12161 0
868 -12161 0
-365 -868 12161 0
331 -12162 0
-94 -12162 0
-331 94 12162 0
-148 -12163 0
450 -12163 0
148 -450 12163 0
-37 -12164 0
753 -12164 0
37 -753 12164 0
936 -12165 0
953 -12165 0
-936 -953 12165 0
260 -12166 0
-103 -12166 0
-260 103 12166 0
-392 -12167 0
87 -12167 0
392 -87 12167 0
327 -12168 0
-657 -12168 0
-327 657 12168 0
536 -12169 0
-99 -12169 0
-536 99 12169 0
-60 -12170 0
82 -12170 0
60 -82 12170 0
-192 -12171 0
53 -12171 0
192 -53 12171 0
712 -12172 0
-442 -12172 0
-712 442 12172 0
383 -12173 0
897 -12173 0
-383 -897 12173 0
538 -12174 0
-943 -12174 0
-538 943 12174 0
456 -12175 0
-802 -12175 0
-456 802 12175 0
155 -12176 0
714 -12176 0
-155 -714 12176 0
62 -12177 0
-711 -12177 0
-62 711 12177 0
-848 -12178 0
353 -12178 0
848 -353 12178 0
867 -12179 0
810 -12179 0
-867 -810 12179 0
796 -12180 0
922 -12180 0
-796 -922 12180 0
-251 -12181 0
850 -12181 0
251 -850 12181 0
782 -12182 0
-845 -12182 0
-782 845 12182 0
573 -12183 0
179 -12183 0
-573 -179 12183 0
-16 -12184 0
356 -12184 0
16 -356 12184 0
-65 -12185 0
180 -12185 0
65 -180 12185 0
359 -12186 0
860 -12186 0
-359 -860 12186 0
914 -12187 0
-70 -12187 0
-914 70 12187 0
616 -12188 0
-237 -12188 0
-616 237 12188 0
-298 -12189 0
443 -12189 0
298 -443 12189 0
527 -12190 0
-4 -12190 0
-527 4 12190 0
312 -12191 0
-722 -12191 0
-312 722 12191 0
-938 -12192 0
547 -12192 0
938 -547 12192 0
856 -12193 0
631 -12193 0
-856 -631 12193 0
-289 -12194 0
366 -12194 0
289 -366 12194 0
80 -12195 0
-475 -12195 0
-80 475 12195 0
736 -12196 0
-571 -12196 0
-736 571 12196 0
808 -12197 0
661 -12197 0
-808 -661 12197 0
696 -12198 0
144 -12198 0
-696 -144 12198 0
611 -12199 0
785 -12199 0
-611 -785 12199 0
896 -12200 0
-657 -12200 0
-896 657 12200 0
680 -12201 0
-972 -12201 0
-680 972 12201 0
914 -12202 0
473 -12202 0
-914 -473 12202 0
590 -12203 0
285 -12203 0
-590 -285 12203 0
507 -12204 0
-447 -12204 0
-507 447 12204 0
-691 -12205 0
108 -12205 0
691 -108 12205 0
988 -12206 0
-71 -12206 0
-988 71 12206 0
994 -12207 0
-367 -12207 0
-994 367 12207 0
615 -12208 0
-938 -12208 0
-615 938 12208 0
549 -12209 0
290 -12209 0
-549 -290 12209 0
535 -12210 0
-482 -12210 0
-535 482 12210 0
-733 -12211 0
305 -12211 0
733 -305 12211 0
486 -12212 0
-991 -12212 0
-486 991 12212 0
-244 -12213 0
161 -12213 0
244 -161 12213 0
-56 -12214 0
267 -12214 0
56 -267 12214 0
894 -12215 0
-322 -12215 0
-894 322 12215 0
-605 -12216 0
835 -12216 0
605 -835 12216 0
870 -12217 0
921 -12217 0
-870 -921 12217 0
573 -12218 0
-164 -12218 0
-573 164 12218 0
-44 -12219 0
707 -12219 0
44 -707 12219 0
47 -12220 0
509 -12220 0
-47 -509 12220 0
-74 -12221 0
149 -12221 0
74 -149 12221 0
711 -12222 0
-710 -12222 0
-711 710 12222 0
374 -12223 0
-727 -12223 0
-374 727 12223 0
-170 -12224 0
109 -12224 0
170 -109 12224 0
52 -12225 0
322 -12225 0
-52 -322 12225 0
-178 -12226 0
91 -12226 0
178 -91 12226 0
-448 -12227 0
545 -12227 0
448 -545 12227 0
-713 -12228 0
458 -12228 0
713 -458 12228 0
650 -12229 0
529 -12229 0
-650 -529 12229 0
37 -12230 0
865 -12230 0
-37 -865 12230 0
744 -12231 0
201 -12231 0
-744 -201 12231 0
748 -12232 0
-623 -12232 0
-748 623 12232 0
-126 -12233 0
937 -12233 0
126 -937 12233 0
999 -12234 0
-23 -12234 0
-999 23 12234 0
719 -12235 0
702 -12235 0
-719 -702 12235 0
286 -12236 0
141 -12236 0
-286 -141 12236 0
891 -12237 0
346 -12237 0
-891 -346 12237 0
576 -12238 0
-26 -12238 0
-576 26 12238 0
-221 -12239 0
697 -12239 0
221 -697 12239 0
472 -12240 0
-166 -12240 0
-472 166 12240 0
760 -12241 0
-852 -12241 0
-760 852 12241 0
983 -12242 0
-646 -12242 0
-983 646 12242 0
200 -12243 0
-466 -12243 0
-200 466 12243 0
-515 -12244 0
241 -12244 0
515 -241 12244 0
982 -12245 0
-395 -12245 0
-982 395 12245 0
704 -12246 0
-498 -12246 0
-704 498 12246 0
93 -12247 0
-30 -12247 0
-93 30 12247 0
320 -12248 0
717 -12248 0
-320 -717 12248 0
959 -12249 0
-825 -12249 0
-959 825 12249 0
-49 -12250 0
697 -12250 0
49 -697 12250 0
765 -12251 0
685 -12251 0
-765 -685 12251 0
877 -12252 0
-615 -12252 0
-877 615 12252 0
-984 -12253 0
802 -12253 0
984 -802 12253 0
-187 -12254 0
378 -12254 0
187 -378 12254 0
974 -12255 0
-503 -12255 0
-974 503 12255 0
-553 -12256 0
812 -12256 0
553 -812 12256 0
866 -12257 0
-518 -12257 0
-866 518 12257 0
573 -12258 0
-135 -12258 0
-573 135 12258 0
80 -12259 0
-214 -12259 0
-80 214 12259 0
484 -12260 0
-798 -12260 0
-484 798 12260 0
13 -12261 0
-963 -12261 0
-13 963 12261 0
855 -12262 0
221 -12262 0
-855 -221 12262 0
791 -12263 0
-991 -12263 0
-791 991 12263 0
234 -12264 0
57 -12264 0
-234 -57 12264 0
-653 -12265 0
9 -12265 0
653 -9 12265 0
918 -12266 0
619 -12266 0
-918 -619 12266 0
1000 -12267 0
623 -12267 0
-1000 -623 12267 0
923 -12268 0
-438 -12268 0
-923 438 12268 0
703 -12269 0
459 -12269 0
-703 -459 12269 0
8 -12270 0
-932 -12270 0
-8 932 12270 0
317 -12271 0
-46 -12271 0
-317 46 12271 0
894 -12272 0
353 -12272 0
-894 -353 12272 0
878 -12273 0
635 -12273 0
-878 -635 12273 0
440 -12274 0
-545 -12274 0
-440 545 12274 0
415 -12275 0
161 -12275 0
-415 -161 12275 0
627 -12276 0
810 -12276 0
-627 -810 12276 0
