p cnf 500 6202
-284 -81 0
186 -77 0
66 -214 0
-184 178 0
488 -84 0
-36 0
-64 489 0
37 -337 0
-79 0
-435 0
112 -159 0
-359 0
-82 0
-371 95 0
-49 0
-143 0
-116 301 0
-80 -99 0
-33 0
153 -437 0
378 -419 0
-480 240 0
-101 0
289 -313 0
-422 485 0
272 -493 0
-239 401 0
-69 238 0
-120 0
-14 -364 0
-253 0
-369 0
-469 0
-26 0
473 -394 0
-206 0
-248 0
-229 0
-231 0
85 -482 0
-353 0
-421 -389 0
-223 0
-473 0
479 -97 0
-154 0
-134 -395 0
-290 0
476 -196 0
-169 407 0
-220 0
-3 -474 0
-172 -57 0
-402 0
-178 -145 0
-354 0
-348 -442 0
-404 0
177 -133 0
-84 0
385 -278 0
244 -195 0
-64 103 0
-352 0
-478 -228 0
-147 -331 0
-392 119 0
17 -482 0
-143 -150 0
-26 0
-6 0
-85 0
-308 228 0
-148 0
-328 -158 0
-400 308 0
-24 109 0
-118 -498 0
-313 487 0
-478 0
-146 0
-274 0
-151 -399 0
-23 0
185 -6 0
160 -485 0
-8 0
-235 141 0
131 -395 0
-131 0
-248 -426 0
-349 0
-347 0
288 -424 0
-219 0
-388 -89 0
-353 0
-277 0
-466 0
468 -436 0
-237 -153 0
-370 0
-445 0
285 -90 0
-6 90 0
148 -35 0
-235 318 0
480 -60 0
-229 -413 0
-47 476 0
-346 334 0
-282 -233 0
-289 0
-316 0
-126 0
-138 0
-398 478 0
-124 0
-464 0
-363 294 0
-393 0
480 -445 0
33 -335 0
-77 126 0
-340 0
-341 276 0
-312 0
387 -201 0
-477 124 0
-108 -338 0
-337 0
-345 0
-124 -241 0
-122 0
-96 -337 0
-34 0
-421 0
-70 0
360 -444 0
-170 0
-47 -227 0
-359 30 0
133 -306 0
200 -283 0
-248 29 0
-248 457 0
-21 454 0
-176 436 0
-465 0
-332 0
-236 -362 0
-349 -17 0
-277 0
-99 0
-60 0
-324 388 0
401 -241 0
-488 0
-207 0
-199 -417 0
136 -302 0
-288 201 0
367 -305 0
-49 0
240 -190 0
-174 0
-179 0
377 -466 0
-171 0
-84 0
-157 0
-123 0
-459 -347 0
-74 0
-301 0
-22 0
-69 -164 0
-104 455 0
-135 -263 0
-490 0
-69 0
-53 -361 0
-321 -73 0
-107 175 0
-334 -362 0
-285 0
-138 0
-426 0
-430 -390 0
-324 0
-391 -90 0
424 -410 0
-444 0
-324 -83 0
-64 -431 0
-484 -58 0
-372 0
-154 0
-201 0
-413 404 0
336 -119 0
-298 0
-88 -464 0
-101 -162 0
-142 0
-95 0
-36 0
-486 -227 0
74 -395 0
-398 0
-422 0
-99 0
-358 0
-293 -338 0
-464 57 0
65 -238 0
-339 0
392 -249 0
-300 0
-275 0
-62 484 0
-377 0
-150 -44 0
-389 -153 0
-488 221 0
433 -181 0
-7 0
-151 443 0
-255 -188 0
-162 0
-234 0
-487 0
-174 0
-23 -195 0
-424 0
-30 0
-13 0
-438 0
-427 0
-96 -203 0
-16 366 0
1 -204 0
16 -105 0
33 -365 0
-373 158 0
41 -270 0
344 -75 0
-188 -353 0
365 -115 0
-54 261 0
-355 262 0
450 -166 0
426 -394 0
-113 0
-292 0
-252 -235 0
-257 0
-303 0
132 -436 0
-110 0
-268 0
-437 319 0
-357 430 0
-220 0
-473 0
-363 -426 0
29 -401 0
-477 0
-189 -156 0
-157 -389 0
-368 0
-371 447 0
385 -295 0
-277 0
-396 -9 0
-334 -444 0
-367 -221 0
-418 0
-395 0
108 -489 0
-54 0
-365 -498 0
-472 0
349 -26 0
-494 0
-485 0
-325 0
-296 348 0
-491 0
-70 0
-436 325 0
-325 0
-70 0
-79 189 0
168 -311 0
360 -60 0
-384 81 0
-240 127 0
424 -88 0
-435 -491 0
-240 26 0
-123 238 0
-416 0
330 -105 0
-389 0
-286 -90 0
-338 319 0
-494 0
-285 294 0
323 -201 0
-207 51 0
-176 -369 0
-462 195 0
-371 -401 0
-344 0
400 -318 0
360 -206 0
-146 0
-485 0
-25 0
-258 0
-167 451 0
-55 -302 0
-288 289 0
124 -121 0
-410 -57 0
-414 0
-199 -406 0
-112 455 0
-103 -411 0
-234 327 0
-254 444 0
60 -81 0
-288 376 0
209 -3 0
-309 0
88 -204 0
-376 -469 0
291 -45 0
-54 0
2 -244 0
45 -185 0
-330 0
-108 0
-143 -489 0
-192 0
-431 0
-380 0
-390 0
-443 0
-202 0
-435 414 0
73 -444 0
-13 -386 0
-100 0
17 -108 0
-56 0
-316 0
-347 0
-172 -266 0
172 -100 0
-101 0
-493 -385 0
-422 2 0
-230 85 0
-356 -425 0
-264 29 0
-207 0
106 -285 0
-271 405 0
-373 0
352 -188 0
-216 -268 0
-220 293 0
-47 -269 0
-85 -13 0
-464 452 0
-198 0
-334 0
-296 0
-110 0
-479 276 0
-202 0
-384 0
-103 0
106 -225 0
-190 -460 0
-347 -9 0
-383 -356 0
-215 0
-436 0
-179 0
-26 0
-159 0
-191 -130 0
-8 99 0
45 -51 0
-224 409 0
-146 0
-406 0
299 -44 0
-375 0
-432 0
-310 -445 0
-360 0
-215 -226 0
-63 465 0
-428 0
418 -318 0
368 -332 0
498 -433 0
443 -3 0
-485 478 0
-113 0
-115 0
-197 -105 0
-255 243 0
-404 -308 0
-429 -220 0
-428 277 0
-56 0
-380 -356 0
-226 0
275 -36 0
-95 427 0
-195 0
316 -338 0
25 -52 0
81 -415 0
-224 0
-282 0
443 -1 0
212 -58 0
459 -417 0
-431 -402 0
-27 95 0
-127 -467 0
-345 0
98 -179 0
-310 -443 0
-453 0
-34 -33 0
-301 0
448 -422 0
-301 -66 0
-288 0
-442 0
48 -119 0
-493 0
-372 477 0
-70 0
-351 250 0
-95 0
-374 283 0
-355 -10 0
-53 0
-432 474 0
-225 0
-158 0
490 -84 0
-216 0
-357 196 0
-405 142 0
170 -321 0
-131 453 0
-22 0
249 -219 0
-399 0
482 -452 0
-281 0
-460 0
-45 310 0
-399 303 0
54 -121 0
-365 0
-366 0
425 -139 0
-28 -235 0
-211 0
17 -213 0
-472 237 0
264 -61 0
-374 0
-259 0
-39 1 0
-36 -467 0
177 -19 0
-128 479 0
-207 0
-447 0
56 -60 0
-318 0
19 -52 0
-96 354 0
-141 0
-4 0
57 -258 0
-379 486 0
-155 246 0
-344 0
-382 0
121 -58 0
-318 0
-85 0
-287 140 0
-104 395 0
231 -233 0
-452 276 0
40 -119 0
-211 269 0
-317 143 0
2 -387 0
-205 356 0
-56 450 0
-293 271 0
10 -157 0
-143 0
-53 -252 0
-231 0
-280 -209 0
76 -193 0
-425 -97 0
-54 -210 0
189 -161 0
-315 0
-244 -34 0
-179 0
481 -453 0
34 -100 0
333 -241 0
-407 0
-8 0
-470 -109 0
-59 -275 0
-108 -443 0
-67 278 0
-489 0
-432 -118 0
-70 0
-444 292 0
-92 340 0
-239 -412 0
-254 0
-95 0
-105 0
81 -347 0
-177 0
-249 0
-45 0
-239 0
81 -406 0
-163 0
-391 498 0
-215 199 0
120 -106 0
-350 190 0
1 -307 0
-60 0
29 -378 0
-403 0
-360 -64 0
-295 298 0
-227 0
-456 294 0
-422 147 0
-222 422 0
-80 0
-54 -449 0
194 -5 0
-130 0
-24 0
-23 0
-118 0
-385 0
204 -225 0
-274 0
-339 182 0
-245 0
302 -18 0
-491 0
-9 0
449 -453 0
-292 -138 0
-285 0
-463 -269 0
-253 -260 0
-102 -298 0
321 -297 0
219 -2 0
-204 -457 0
-48 0
-101 0
-225 0
-220 229 0
48 -430 0
-448 0
448 -158 0
99 -74 0
337 -145 0
-231 93 0
-438 -77 0
289 -326 0
-500 0
-93 0
-403 -387 0
-149 0
-106 0
-205 0
-488 485 0
92 -162 0
310 -50 0
-328 0
490 -85 0
-284 0
-230 -179 0
-262 246 0
-153 0
-61 141 0
-286 -178 0
-300 -474 0
-423 0
267 -194 0
381 -227 0
32 -473 0
-324 37 0
-399 0
-1 0
-444 0
-124 0
-177 0
-34 0
-147 -17 0
-333 0
-165 61 0
-34 0
-309 0
-496 0
-367 482 0
196 -91 0
-419 0
-247 0
-85 0
-39 -364 0
-63 165 0
-303 0
-135 0
-119 21 0
-382 0
-139 0
-355 -65 0
-366 -436 0
-148 127 0
-116 -67 0
-436 -179 0
-317 0
353 -159 0
-221 0
-135 -68 0
-195 0
-4 0
-87 -289 0
185 -89 0
-85 -75 0
487 -193 0
-359 12 0
-317 0
-278 372 0
-285 0
-388 0
105 -235 0
-182 0
-468 166 0
-71 0
-183 106 0
-31 116 0
-138 -97 0
136 -132 0
-86 92 0
-429 -125 0
410 -105 0
-320 0
-60 0
-246 0
464 -366 0
-389 0
-126 454 0
-90 0
-181 -314 0
-455 494 0
-235 -250 0
-479 375 0
-348 31 0
-391 0
-309 445 0
323 -331 0
-168 0
-207 258 0
-408 110 0
-158 0
346 -493 0
-14 -435 0
341 -361 0
-437 -467 0
-80 0
-279 0
-234 0
-388 -81 0
60 -51 0
-45 -459 0
-5 -123 0
-159 -252 0
-213 140 0
-284 0
299 -459 0
-77 427 0
-32 -419 0
-435 -235 0
-236 0
461 -290 0
-359 0
-53 -180 0
-376 253 0
-200 190 0
387 -137 0
-100 -257 0
-283 -265 0
-461 78 0
-48 29 0
-160 33 0
-257 0
384 -482 0
-180 -451 0
-327 -68 0
-150 299 0
-214 0
-363 0
-321 0
202 -118 0
-496 293 0
14 -241 0
-447 0
-87 45 0
-267 0
-115 0
-14 0
9 -35 0
-153 0
-291 287 0
-154 0
-264 305 0
-396 197 0
-31 0
-20 0
166 -418 0
-479 -442 0
-435 0
-12 486 0
-18 -97 0
-72 -450 0
-222 0
-448 -253 0
-104 0
291 -452 0
-250 0
379 -154 0
-305 0
-383 233 0
-328 0
-296 0
-458 0
-175 0
-450 -209 0
-352 -500 0
-455 139 0
459 -355 0
-412 -452 0
-439 0
-216 0
386 -409 0
116 -467 0
-482 0
275 -291 0
-178 0
-157 214 0
-156 397 0
-182 -388 0
500 -171 0
-72 -253 0
-308 0
489 -426 0
-66 0
-380 0
234 -11 0
-439 0
170 -394 0
-324 0
-301 476 0
-146 0
308 -18 0
-30 0
-183 0
-87 244 0
-257 0
-77 95 0
-368 0
-80 -12 0
-56 -209 0
-7 -31 0
-329 0
-78 0
-19 415 0
171 -115 0
-167 -135 0
-33 0
-375 -51 0
-411 0
-490 0
-96 -389 0
-16 0
-183 -165 0
-480 133 0
-197 0
-222 -203 0
-175 122 0
-356 0
-308 -220 0
37 -305 0
-438 -50 0
-125 447 0
180 -465 0
-498 0
-127 0
-216 -427 0
-437 0
146 -333 0
-210 0
-139 15 0
-60 44 0
-394 0
-51 469 0
106 -337 0
-276 334 0
-26 0
-391 22 0
-360 0
-44 159 0
290 -451 0
-399 -435 0
-118 0
-84 0
347 -50 0
-240 0
-487 0
-79 -220 0
216 -443 0
-123 -121 0
-382 0
-112 283 0
-371 22 0
-142 -345 0
-350 0
-493 174 0
-136 340 0
-155 0
-181 -131 0
-424 197 0
-14 -49 0
-410 0
-31 365 0
-16 106 0
-339 31 0
-167 0
-136 -19 0
-62 0
-268 -162 0
-327 255 0
-396 0
219 -257 0
-237 0
108 -457 0
-396 0
297 -62 0
179 -195 0
-216 0
-195 0
-440 105 0
-191 0
-144 45 0
-149 302 0
-38 0
-469 0
-435 0
-108 -266 0
-144 266 0
172 -201 0
-29 0
-149 -82 0
-406 -243 0
-97 0
-7 0
62 -401 0
-189 -329 0
-277 0
-117 0
-236 -260 0
-461 -154 0
261 -355 0
-236 0
-14 371 0
-319 155 0
-98 0
-79 0
-293 0
-245 179 0
-134 3 0
-69 14 0
-367 0
-469 -274 0
-477 0
-470 139 0
-254 0
-36 -482 0
-214 0
-111 -148 0
-196 0
-147 0
-32 208 0
58 -300 0
-115 0
-399 107 0
500 -489 0
333 -250 0
-499 -306 0
-97 0
-156 -377 0
-330 0
362 -251 0
-488 196 0
-279 0
-172 -219 0
276 -114 0
-225 0
-47 -52 0
257 -358 0
-380 357 0
-111 0
-122 -274 0
-203 0
-124 -243 0
-289 0
-194 0
-130 0
-272 278 0
-126 0
436 -410 0
-8 -457 0
-222 0
-235 0
-63 316 0
473 -249 0
-352 11 0
104 -391 0
-440 426 0
-226 -25 0
-95 -403 0
-427 -203 0
-419 0
-54 -158 0
404 -33 0
-47 0
-415 0
-461 -353 0
-190 -380 0
369 -438 0
-383 251 0
-484 -337 0
-96 341 0
-208 -367 0
-68 135 0
-23 -457 0
354 -34 0
-495 351 0
-381 0
-454 220 0
-358 0
344 -466 0
-158 0
-168 0
-123 0
-310 462 0
-411 415 0
-298 0
-160 107 0
-14 0
233 -5 0
-435 0
-429 0
404 -419 0
-3 0
-411 326 0
-290 -434 0
-9 0
-473 471 0
-30 0
-415 0
112 -143 0
456 -489 0
-326 0
-159 -63 0
-423 0
-204 0
-99 0
-387 469 0
-270 0
-255 0
-130 0
-326 0
-15 487 0
110 -17 0
-480 166 0
-121 0
351 -417 0
-246 -2 0
-343 0
-131 -107 0
348 -459 0
96 -414 0
-118 -178 0
-307 0
-166 0
363 -467 0
-464 228 0
-487 202 0
-253 0
-486 0
-287 0
-389 0
-94 0
-256 314 0
-278 0
-177 0
-320 0
-472 269 0
-368 353 0
-165 0
-253 -163 0
-375 0
-186 0
-298 0
-318 38 0
-328 -363 0
-494 394 0
-241 0
-431 331 0
-302 484 0
-188 -363 0
-424 0
-145 0
-305 0
233 -113 0
-370 0
-71 231 0
-464 -107 0
-222 0
-488 -418 0
-222 0
-424 -323 0
-101 -435 0
-335 -205 0
-18 0
-245 292 0
292 -162 0
-15 93 0
398 -345 0
-300 308 0
-39 238 0
-257 -33 0
-294 0
131 -337 0
-396 -177 0
139 -233 0
-119 217 0
-486 0
-232 0
-400 349 0
-141 -484 0
-406 42 0
-307 0
-440 0
-204 -170 0
-357 -397 0
-183 -259 0
-293 245 0
-252 -209 0
-481 -329 0
-64 -77 0
-384 89 0
-208 0
-318 0
-253 0
-323 0
48 -288 0
-61 0
-455 -324 0
-119 450 0
-195 -266 0
-75 -489 0
-102 0
-295 177 0
495 -345 0
18 -500 0
-384 489 0
-340 0
496 -243 0
-360 0
474 -285 0
-256 -54 0
-451 0
-62 0
-480 0
353 -6 0
-372 0
-22 -97 0
-174 0
-400 0
-297 0
154 -390 0
89 -377 0
-96 -130 0
-292 -411 0
-206 0
-456 0
8 -225 0
-176 -379 0
473 -390 0
-325 0
-206 283 0
-399 -299 0
-39 -55 0
-181 0
-306 -121 0
440 -251 0
-484 0
75 -316 0
-207 126 0
-91 -129 0
-117 0
-174 0
-55 274 0
-269 0
330 -114 0
329 -342 0
-259 0
-254 0
-77 -317 0
-73 0
-499 0
-259 334 0
-359 0
-331 -106 0
-284 431 0
-442 0
-332 0
-172 0
474 -492 0
-52 -91 0
-492 0
-78 -277 0
366 -153 0
-72 -82 0
-168 0
-352 -437 0
-229 -377 0
122 -18 0
305 -163 0
-244 205 0
-469 0
-24 -176 0
-368 0
-319 151 0
-434 0
-46 0
-119 381 0
-178 0
-305 0
235 -329 0
459 -75 0
-222 403 0
316 -12 0
-176 -253 0
-357 0
-335 333 0
156 -289 0
-291 0
-271 167 0
455 -41 0
-190 0
221 -395 0
-254 -41 0
-347 0
-442 0
-456 0
-300 -20 0
-478 -381 0
-124 0
432 -169 0
266 -316 0
194 -395 0
-59 0
-273 0
-44 0
34 -13 0
-38 466 0
-30 485 0
-146 0
-351 308 0
-399 0
-159 -498 0
-194 0
-63 406 0
210 -101 0
-246 -365 0
-330 0
-324 0
-198 94 0
-346 0
249 -41 0
-83 445 0
64 -166 0
-202 0
-293 292 0
322 -433 0
-211 342 0
81 -91 0
-70 359 0
-78 455 0
-96 21 0
-470 443 0
-485 -467 0
-177 0
-463 444 0
-94 -467 0
-221 311 0
358 -161 0
408 -365 0
488 -31 0
-219 0
321 -34 0
-456 0
-39 0
-48 250 0
-175 393 0
-225 0
466 -169 0
-277 0
-365 -418 0
-483 103 0
-431 0
-101 0
410 -14 0
-334 -323 0
320 -137 0
-468 0
-448 -482 0
-263 -53 0
-239 0
-151 405 0
-85 0
-81 0
-418 0
-468 0
-20 0
-444 -393 0
77 -106 0
-389 -51 0
195 -147 0
-323 0
-453 -428 0
-164 0
-219 191 0
498 -426 0
-384 415 0
-439 468 0
-215 -1 0
-85 -332 0
-39 234 0
-232 -338 0
-407 0
-451 0
-162 0
368 -134 0
62 -209 0
-28 205 0
-38 -446 0
-480 -118 0
-22 -218 0
-213 0
-369 0
-256 119 0
-388 -378 0
-77 0
-274 -473 0
-301 0
37 -129 0
-304 420 0
-86 -490 0
-382 247 0
-300 0
-294 0
-286 0
-18 0
-368 -491 0
-98 0
163 -114 0
-324 302 0
-20 0
-197 276 0
110 -497 0
-397 -25 0
-423 0
343 -25 0
-109 0
-298 0
-413 0
-360 97 0
-437 342 0
-442 0
-164 14 0
-272 -201 0
-48 59 0
133 -314 0
-69 0
-119 0
-168 93 0
-492 0
-422 0
-237 0
-305 0
-74 0
-435 206 0
-294 0
29 -297 0
-488 -483 0
-366 132 0
35 -170 0
-429 -161 0
344 -441 0
-422 36 0
251 -329 0
-498 0
-435 -417 0
-366 -34 0
-193 0
-227 0
-461 0
-152 169 0
-279 68 0
-428 0
-381 199 0
48 -233 0
-384 487 0
-237 -377 0
-408 428 0
361 -498 0
-478 0
-179 0
-120 0
-15 364 0
-465 0
394 -293 0
-127 0
401 -340 0
162 -251 0
-97 0
454 -217 0
-87 0
-278 0
-281 0
188 -386 0
-384 -462 0
-214 -485 0
-178 0
-208 -380 0
-404 388 0
104 -236 0
-263 -301 0
-273 0
-255 0
292 -73 0
-190 468 0
-47 -420 0
-328 311 0
-136 -279 0
352 -362 0
-23 -489 0
114 -338 0
473 -463 0
-125 0
-240 454 0
-94 -25 0
-481 0
-174 0
-64 -153 0
-16 0
-168 56 0
-229 0
-144 -378 0
-244 -361 0
-320 0
-110 399 0
-450 0
-242 0
-242 0
-77 -217 0
-134 -165 0
-167 258 0
106 -489 0
-345 0
-243 0
-51 238 0
451 -465 0
-427 0
-47 0
-463 236 0
-492 -329 0
-478 -363 0
-217 0
-2 0
-208 0
-360 417 0
-236 0
-454 154 0
-411 366 0
-459 423 0
-174 0
-327 140 0
-126 237 0
189 -170 0
-55 236 0
-342 419 0
-238 -443 0
-92 0
81 -491 0
-316 0
-316 0
289 -453 0
-112 -385 0
-497 0
-385 0
-493 0
273 -477 0
-387 0
-420 0
-264 78 0
-2 0
-280 400 0
-301 0
-342 0
337 -414 0
-97 0
-52 0
-302 0
166 -250 0
-374 -445 0
-365 197 0
-278 -309 0
-5 -258 0
-218 -18 0
480 -190 0
-298 0
-469 0
208 -404 0
-406 -417 0
305 -260 0
-415 0
-479 0
-210 0
23 -345 0
-62 -142 0
-257 0
-196 0
-87 0
-34 0
-219 303 0
-180 0
-245 399 0
-40 -315 0
-318 0
-111 287 0
-197 0
241 -174 0
-367 0
-421 0
-75 0
-314 -25 0
-54 335 0
393 -441 0
-450 0
-308 0
64 -175 0
-500 0
-359 0
-158 0
-375 0
-147 0
-462 -491 0
476 -257 0
-284 -145 0
-170 -34 0
417 -78 0
-109 0
-436 103 0
464 -294 0
-72 0
-43 110 0
-136 -186 0
-481 0
470 -385 0
-79 0
-183 0
-337 0
-283 0
-70 -425 0
-40 0
-406 159 0
-175 0
-465 0
-316 0
435 -379 0
-255 0
-414 0
-350 0
228 -145 0
-484 492 0
-415 -293 0
-419 -322 0
-165 0
-486 -212 0
-170 0
128 -339 0
-353 -401 0
-222 0
-93 228 0
-367 0
-359 0
-10 39 0
-467 0
322 -126 0
-127 0
-463 148 0
-68 0
122 -114 0
-125 0
-343 -18 0
99 -372 0
-288 0
-33 0
-155 0
-29 -441 0
-335 174 0
208 -324 0
114 -396 0
-346 -81 0
272 -248 0
-216 258 0
-431 -221 0
-221 -233 0
-406 59 0
-351 0
-338 366 0
-259 -457 0
-83 0
-181 0
-483 405 0
-214 0
-42 0
-268 0
-5 462 0
-382 0
-176 229 0
-28 0
-69 196 0
448 -143 0
-478 -164 0
-390 0
-186 0
385 -325 0
-320 -71 0
147 -283 0
-224 -38 0
-436 -250 0
466 -179 0
-480 0
-102 0
-12 -492 0
-391 0
215 -233 0
-409 0
364 -123 0
125 -186 0
-392 0
-456 353 0
-150 0
-20 0
-117 156 0
-174 0
-358 196 0
344 -51 0
473 -25 0
-282 0
-291 0
-110 0
-69 0
-495 -462 0
-215 -155 0
-142 -307 0
168 -402 0
-488 -326 0
254 -185 0
-348 0
-72 253 0
-397 44 0
-200 0
42 -401 0
-214 -353 0
-344 0
329 -165 0
-190 -82 0
-338 0
-341 -290 0
453 -465 0
-205 244 0
-303 -396 0
-488 0
-346 0
-326 0
497 -449 0
-431 12 0
-492 0
-86 -373 0
-423 -481 0
211 -329 0
-122 0
-352 0
192 -345 0
-287 399 0
-126 0
-55 0
-448 0
241 -341 0
-356 0
-340 0
-293 0
-319 469 0
-458 0
293 -27 0
-464 0
-194 286 0
-192 251 0
370 -114 0
409 -241 0
-206 0
-67 0
442 -91 0
320 -251 0
146 -186 0
-382 389 0
-486 0
-119 199 0
-121 -409 0
-291 0
-60 0
-254 -90 0
-296 369 0
490 -67 0
323 -449 0
-244 -115 0
-286 0
-453 0
178 -140 0
-221 0
-35 223 0
-398 -177 0
465 -4 0
-332 -10 0
-255 0
-393 0
-401 0
293 -466 0
-299 0
-478 0
-319 467 0
-80 27 0
-320 0
-136 -286 0
-451 -449 0
-64 147 0
-351 139 0
-252 0
-168 0
-352 -127 0
274 -193 0
-294 0
-91 158 0
-267 -259 0
-52 413 0
-42 0
-321 0
-48 -310 0
-375 0
-271 -397 0
-144 0
-416 0
-165 -13 0
-255 -68 0
-62 -42 0
-248 25 0
-374 -405 0
-411 -153 0
-350 -149 0
-474 0
-133 -290 0
-213 0
-207 0
232 -303 0
-493 -179 0
-443 0
-346 0
-107 0
-96 194 0
80 -372 0
-328 -393 0
-456 -98 0
-452 0
-235 0
-198 0
-410 0
-24 289 0
-470 0
-416 443 0
-314 0
-297 0
-203 0
-356 206 0
-426 0
-51 0
-150 -307 0
317 -371 0
-88 0
-247 0
-240 447 0
-31 418 0
-190 0
-347 413 0
-275 -466 0
-404 391 0
346 -299 0
-350 34 0
-260 -250 0
-63 0
-134 0
163 -188 0
106 -332 0
-492 -489 0
-271 0
-100 -338 0
-229 -43 0
-87 362 0
-194 0
-306 0
-164 0
-468 0
-114 -33 0
-84 0
-108 0
-253 102 0
-281 0
176 -16 0
-192 0
385 -83 0
-48 137 0
452 -9 0
370 -19 0
-421 0
-58 -322 0
337 -490 0
-227 103 0
217 -377 0
-462 0
-440 -437 0
-264 0
283 -251 0
8 -435 0
-150 5 0
289 -209 0
-226 0
-317 0
125 -297 0
-442 0
168 -475 0
-233 0
475 -267 0
84 -217 0
-47 -89 0
-25 0
65 -481 0
-393 0
160 -427 0
-43 0
-367 238 0
-247 0
-452 382 0
-332 406 0
-126 -356 0
-112 -248 0
-334 -388 0
-391 -50 0
-54 -4 0
-276 0
-56 433 0
234 -194 0
-124 0
-152 -41 0
299 -259 0
-344 -110 0
220 -260 0
-147 -306 0
-227 -347 0
336 -173 0
-247 -415 0
-212 -266 0
-256 394 0
-452 446 0
-339 -89 0
-464 -211 0
-400 485 0
-100 0
-276 0
-361 0
-234 0
-35 0
-294 -417 0
-258 0
-82 495 0
-29 0
-342 -172 0
-23 271 0
-343 0
-414 222 0
69 -73 0
-214 -284 0
-431 0
108 -411 0
154 -460 0
-168 -277 0
350 -481 0
-229 -241 0
-118 499 0
-409 0
-319 0
-174 -300 0
-276 0
-485 460 0
-403 -233 0
-115 -371 0
-308 -444 0
-142 0
-12 -26 0
-229 0
-79 262 0
-196 -385 0
251 -483 0
344 -137 0
20 -441 0
-323 0
41 -269 0
169 -410 0
-418 367 0
-278 445 0
-120 271 0
-303 431 0
240 -333 0
-129 0
-73 0
-448 0
-142 -402 0
-158 0
-249 0
-253 0
-429 -76 0
-498 0
-461 172 0
-390 0
-396 0
-221 357 0
-147 -449 0
-92 0
-268 110 0
-496 0
-246 0
-69 156 0
-148 0
-7 -173 0
-270 -485 0
312 -60 0
203 -325 0
-326 0
-339 159 0
-240 0
-496 0
-333 0
324 -203 0
-144 -68 0
-165 0
-432 0
-342 0
-308 0
-115 454 0
-154 0
-339 0
-57 0
-160 0
-448 -443 0
458 -9 0
206 -26 0
-40 0
216 -253 0
-128 424 0
328 -396 0
-302 0
121 -275 0
-266 0
-248 -311 0
-262 46 0
-141 -489 0
-380 0
-38 66 0
-460 0
-296 67 0
4 -483 0
-412 0
-80 469 0
361 -409 0
139 -74 0
376 -120 0
-123 0
-354 0
-375 0
-267 0
-408 0
278 -345 0
-59 0
-63 268 0
-226 0
-356 12 0
-263 307 0
-221 0
-382 107 0
-359 -367 0
-102 309 0
-303 0
-411 381 0
233 -319 0
179 -434 0
-487 -125 0
339 -172 0
-96 0
-217 0
-261 -370 0
-303 0
-325 -309 0
-375 0
-463 370 0
-398 -437 0
408 -227 0
398 -281 0
11 -123 0
-40 0
-350 83 0
-51 0
-64 -471 0
-277 -162 0
92 -409 0
-315 0
-488 0
-24 0
-415 -138 0
-392 0
346 -154 0
-120 0
-299 -153 0
473 -169 0
-32 -495 0
-306 0
-459 181 0
-350 0
116 -244 0
284 -28 0
-332 0
-256 -469 0
-399 0
-381 -267 0
-328 0
-342 35 0
-127 -380 0
-232 -253 0
345 -437 0
-350 4 0
-133 0
-198 -170 0
-432 -123 0
168 -79 0
-349 47 0
204 -393 0
-286 -377 0
-269 -121 0
-132 0
-44 0
-93 0
-437 78 0
-245 0
-427 -178 0
-226 0
-143 -198 0
-67 0
-279 -276 0
378 -357 0
-220 0
-185 0
-398 -436 0
-94 -413 0
-382 -253 0
-188 0
-49 0
-258 0
74 -163 0
-6 0
57 -134 0
-391 0
-13 31 0
-152 -100 0
-451 0
-343 0
-128 438 0
-495 -468 0
-208 0
-228 0
-308 247 0
-95 71 0
-398 -358 0
-12 0
-266 0
-85 0
225 -68 0
-208 -227 0
-91 -121 0
-13 0
-93 0
-141 -339 0
-317 -427 0
-6 -354 0
-184 310 0
-250 0
-116 -19 0
320 -461 0
-383 388 0
-118 203 0
-461 0
-144 -340 0
-125 0
-405 0
-45 0
-456 0
261 -145 0
-400 0
-431 -401 0
-388 -308 0
-425 0
-96 0
-36 0
-263 0
454 -217 0
-263 15 0
-168 374 0
-119 0
-344 90 0
-246 0
-279 267 0
266 -441 0
-29 -465 0
-260 0
-295 429 0
-308 0
-104 -438 0
-288 0
-400 155 0
180 -444 0
385 -162 0
-190 84 0
-482 0
-471 -109 0
169 -477 0
-406 428 0
266 -417 0
-199 0
-123 -26 0
-343 -433 0
-342 12 0
-103 198 0
-491 111 0
-167 0
-395 0
-294 0
-238 0
482 -35 0
-239 -262 0
67 -85 0
-119 490 0
-309 111 0
-281 0
-439 -398 0
-180 0
-53 -69 0
-80 0
234 -348 0
-466 0
-336 -147 0
448 -433 0
-342 0
106 -129 0
489 -479 0
-63 -117 0
450 -58 0
-336 -413 0
-469 -348 0
272 -403 0
-392 0
-231 0
-97 0
307 -317 0
-108 0
-319 -395 0
-370 -266 0
-58 0
-432 -431 0
-264 0
-151 203 0
-323 0
-120 -430 0
153 -186 0
-140 -172 0
-65 0
-216 238 0
-290 0
-218 0
-462 0
409 -189 0
-463 396 0
-385 -337 0
-44 0
-406 -9 0
-188 0
-20 0
-365 0
172 -434 0
95 -89 0
-338 0
-247 0
-469 0
-480 0
375 -49 0
-440 44 0
-427 397 0
-442 -129 0
152 -13 0
-479 -242 0
-316 0
-398 0
-56 -28 0
-357 -209 0
115 -226 0
-109 0
-302 0
-485 0
-164 206 0
229 -337 0
-476 221 0
10 -386 0
-423 0
-73 0
-16 0
-207 0
-353 0
-146 159 0
460 -226 0
387 -402 0
-408 0
-136 137 0
-125 0
-383 -303 0
-406 0
169 -102 0
-98 191 0
-284 0
-54 0
-117 0
-492 0
-320 -183 0
-410 0
66 -430 0
-88 0
-173 0
402 -395 0
-206 -51 0
105 -98 0
-374 125 0
-15 194 0
-383 0
233 -21 0
-204 0
-428 230 0
-380 196 0
-202 23 0
-9 0
-380 0
-182 0
-122 0
-171 149 0
-146 0
79 -105 0
-488 0
-125 -341 0
-181 -108 0
-133 413 0
98 -277 0
258 -60 0
170 -276 0
-216 0
-19 255 0
396 -346 0
-102 -238 0
26 -467 0
-113 0
-28 0
-458 0
-88 -297 0
449 -451 0
-164 54 0
256 -379 0
-324 0
-207 195 0
-321 0
-83 0
-218 38 0
-363 0
208 -99 0
-198 0
-15 0
-230 0
-244 -227 0
-325 -418 0
-237 0
-342 28 0
-134 0
275 -218 0
-285 -171 0
-53 239 0
360 -463 0
-79 -105 0
-256 -18 0
-295 -19 0
-168 39 0
306 -214 0
-53 0
-456 320 0
-259 261 0
-440 209 0
-400 59 0
-485 0
-138 0
114 -206 0
2 -497 0
-239 0
-4 383 0
197 -113 0
-94 0
24 -223 0
42 -441 0
-489 0
-40 0
-13 -113 0
-451 -306 0
-269 -397 0
-179 0
-493 125 0
-345 0
369 -419 0
-217 -425 0
-473 127 0
-141 -459 0
45 -458 0
-60 0
296 -365 0
-261 0
496 -217 0
-227 0
-69 0
-250 0
-242 0
-71 0
-124 0
-435 0
-141 -82 0
-162 -473 0
-301 0
-452 0
-405 0
-287 0
-112 -263 0
-134 0
153 -334 0
-25 0
-334 332 0
490 -100 0
-491 0
-486 0
-313 0
225 -169 0
188 -307 0
-332 0
-7 0
-298 0
-90 0
-383 102 0
-30 2 0
-6 -153 0
-204 0
371 -100 0
496 -184 0
-360 0
-102 0
-19 0
-341 -457 0
25 -345 0
-51 0
-294 -170 0
-453 0
153 -122 0
-226 151 0
-337 -393 0
-470 0
435 -124 0
137 -203 0
161 -195 0
-349 -330 0
-32 302 0
333 -497 0
-413 -171 0
-430 175 0
356 -466 0
-449 231 0
187 -275 0
-297 0
-493 -306 0
-406 349 0
-125 437 0
-379 -481 0
-121 0
395 -19 0
-98 0
-357 0
-128 325 0
-258 -209 0
-24 0
109 -363 0
-29 0
236 -89 0
218 -146 0
-119 0
-83 374 0
-431 306 0
-451 0
-342 0
-100 0
-318 -177 0
-306 0
37 -290 0
-118 -50 0
-184 54 0
-99 0
-462 0
376 -90 0
-128 0
-463 465 0
492 -291 0
-20 -362 0
-16 -351 0
-326 0
-416 0
-133 -170 0
-285 94 0
-426 327 0
-327 125 0
-218 0
-392 0
-129 0
202 -491 0
-387 383 0
-174 0
-131 0
-491 0
-243 0
-273 0
-214 0
-300 0
-339 0
93 -169 0
-148 0
-432 309 0
-486 -324 0
-480 -170 0
403 -282 0
-264 0
-479 0
-5 0
-256 439 0
-231 0
-135 -413 0
-328 466 0
-108 -105 0
-159 387 0
-248 417 0
500 -266 0
-426 0
-398 0
-145 0
-173 101 0
-48 0
-347 0
-90 374 0
-279 406 0
-5 0
-244 -465 0
-159 0
-383 -393 0
-478 0
-354 -9 0
-316 0
-295 59 0
-406 -414 0
-160 58 0
-364 0
-205 -156 0
-206 0
-427 -138 0
-305 0
-489 0
-291 0
-133 469 0
-109 357 0
-488 217 0
-442 0
-220 -106 0
-136 0
-275 0
-251 0
-349 341 0
-468 0
99 -77 0
-88 0
-462 -321 0
404 -377 0
-30 0
-495 206 0
-482 -401 0
217 -388 0
-275 -114 0
362 -146 0
-197 0
-256 0
-112 -13 0
-440 0
-294 443 0
472 -102 0
-122 0
-31 355 0
-271 0
-464 -16 0
-349 151 0
-38 0
-396 -1 0
-143 466 0
-423 -350 0
-23 -299 0
-270 0
-48 358 0
-309 -252 0
-124 0
386 -299 0
-229 381 0
-120 -370 0
-225 0
427 -132 0
-164 -481 0
-479 0
266 -483 0
8 -10 0
-306 22 0
-296 499 0
-472 0
-96 394 0
-264 0
380 -409 0
-163 0
-459 0
-230 0
-223 294 0
-183 105 0
-412 -201 0
-406 398 0
-299 0
-479 0
463 -297 0
-264 309 0
-335 0
-299 -386 0
314 -497 0
-206 -236 0
-43 0
-189 131 0
-183 0
-376 44 0
-56 0
-70 223 0
-206 0
-353 0
218 -187 0
-158 0
-374 0
-62 -421 0
-411 0
-276 -107 0
-240 -162 0
-499 -154 0
-40 209 0
-399 0
-327 0
-8 498 0
-77 0
-326 0
-104 0
-64 0
-247 0
-447 0
-328 0
-257 0
-364 0
-456 362 0
-456 411 0
83 -301 0
-360 233 0
162 -245 0
32 -238 0
-391 0
-382 0
-256 0
180 -306 0
-100 -385 0
-1 0
-440 0
-293 -19 0
-132 -466 0
289 -36 0
-118 179 0
-403 246 0
187 -203 0
173 -1 0
-7 -380 0
-181 -292 0
-326 68 0
-391 0
-29 212 0
-224 44 0
-37 119 0
-63 -199 0
148 -444 0
-470 0
-208 -347 0
-16 -114 0
388 -130 0
-199 -430 0
-72 0
384 -421 0
-481 0
-346 0
-448 0
-87 -212 0
-480 498 0
-5 0
62 -129 0
-385 -353 0
-366 0
283 -250 0
400 -331 0
-404 0
-51 -433 0
-433 -449 0
-168 -11 0
290 -322 0
-336 107 0
-447 159 0
66 -206 0
-245 0
-244 341 0
-182 61 0
-128 0
-415 -58 0
83 -132 0
206 -457 0
-166 -133 0
289 -173 0
-326 0
40 -80 0
-42 0
220 -490 0
-32 -318 0
-210 0
-178 0
-116 0
-268 85 0
-236 0
-64 -193 0
12 -338 0
-209 0
-47 0
-262 150 0
-160 0
-292 -387 0
447 -465 0
46 -145 0
-303 -349 0
-373 -413 0
-256 -233 0
459 -357 0
-222 227 0
-176 152 0
116 -418 0
-388 -59 0
-287 -180 0
-358 463 0
-213 102 0
-423 -254 0
-173 -308 0
-433 0
-37 149 0
-469 -369 0
-85 0
-495 6 0
-16 51 0
-237 0
65 -220 0
417 -127 0
-157 0
-332 0
-196 342 0
-349 0
-346 0
-328 -103 0
-151 473 0
-288 317 0
-287 405 0
-332 0
-172 0
-393 0
-94 495 0
-490 0
365 -145 0
-304 0
-347 0
27 -387 0
-58 0
-455 -263 0
-495 0
-258 0
-424 -5 0
-200 466 0
-154 0
-323 -370 0
-410 0
-250 -57 0
-72 384 0
-216 -311 0
-121 0
-360 -312 0
-214 -196 0
265 -484 0
-286 0
-271 298 0
-311 394 0
-12 445 0
26 -481 0
-89 0
339 -468 0
-467 -353 0
-214 0
-345 0
-396 0
-262 -418 0
261 -146 0
410 -330 0
191 -473 0
56 -422 0
408 -185 0
-269 -164 0
-279 -494 0
60 -482 0
-23 394 0
-233 0
-71 -188 0
-256 -174 0
-64 0
96 -66 0
-153 0
-349 68 0
-259 0
450 -172 0
-474 0
-418 0
-470 -268 0
-403 22 0
-254 -108 0
-486 0
-439 329 0
-52 0
-340 -299 0
178 -373 0
-87 278 0
-185 0
445 -89 0
-215 434 0
462 -346 0
-71 34 0
-378 0
-411 367 0
-303 250 0
-143 -309 0
-125 0
-402 0
-289 0
-5 279 0
-136 -143 0
-74 223 0
-280 0
-75 -298 0
-362 0
449 -395 0
-237 -108 0
-286 83 0
-227 445 0
-256 459 0
-69 -394 0
-275 -393 0
-132 213 0
-172 -449 0
-52 0
345 -409 0
-366 125 0
-213 0
361 -169 0
-364 -105 0
115 -377 0
-278 -483 0
-328 199 0
-276 0
-197 0
179 -387 0
241 -442 0
-336 -428 0
193 -106 0
90 -242 0
-248 342 0
-410 0
108 -474 0
-97 0
-309 -434 0
-206 -140 0
-382 0
-218 438 0
-118 -234 0
-268 0
-251 0
-78 0
-68 294 0
-438 0
-100 0
-202 -258 0
105 -268 0
458 -109 0
-472 46 0
-80 0
-145 0
-325 356 0
-472 0
-481 0
-231 341 0
-140 422 0
-42 262 0
-56 291 0
-207 0
-102 0
-45 303 0
-411 0
-98 0
-374 0
265 -293 0
72 -138 0
-323 446 0
140 -444 0
331 -405 0
-85 0
-148 0
-80 -327 0
-18 0
-187 -441 0
-75 0
-34 223 0
-485 188 0
437 -49 0
-88 42 0
-476 0
382 -497 0
-433 0
53 -138 0
-492 0
-423 -476 0
-499 327 0
454 -2 0
-482 0
-165 0
-423 282 0
-40 -459 0
-99 55 0
-355 0
-392 -201 0
-231 204 0
56 -316 0
-96 380 0
-264 199 0
179 -259 0
460 -178 0
-314 0
453 -386 0
-437 0
12 -490 0
-72 -173 0
-188 0
179 -217 0
-320 163 0
-272 -196 0
-304 0
-272 0
-118 -301 0
405 -130 0
-274 0
-260 0
-4 214 0
-365 0
-120 336 0
-386 0
154 -189 0
-199 -235 0
305 -46 0
152 -4 0
-13 -123 0
-217 0
-39 0
-9 0
-263 158 0
-13 0
-220 0
-240 -399 0
-331 0
-286 34 0
-421 -106 0
-167 169 0
290 -113 0
-273 327 0
-421 343 0
-139 0
320 -295 0
-472 305 0
-23 -385 0
-464 454 0
-108 308 0
65 -61 0
-452 92 0
-258 0
-38 0
-437 -338 0
-82 351 0
-450 415 0
490 -194 0
-159 0
-213 0
-88 0
-479 404 0
243 -1 0
-455 -13 0
9 -339 0
-440 458 0
-479 0
-287 -389 0
-95 367 0
-264 0
-237 0
-183 0
-494 0
-110 0
-50 0
-280 191 0
-87 -135 0
-222 106 0
-311 100 0
12 -58 0
153 -93 0
-56 -144 0
-248 0
259 -403 0
176 -132 0
143 -161 0
-255 0
-267 -339 0
-462 -409 0
-63 0
-339 0
155 -474 0
-358 -418 0
-327 194 0
-57 0
-477 0
-174 -234 0
-294 0
-56 113 0
-116 479 0
-14 83 0
-224 -152 0
-203 0
-292 318 0
482 -235 0
-369 0
480 -462 0
-404 0
-116 0
140 -404 0
18 -411 0
89 -33 0
-145 0
-182 -91 0
497 -45 0
-52 0
-392 15 0
-151 0
-372 -292 0
-285 -386 0
-291 -241 0
-343 484 0
-149 175 0
-6 166 0
-452 0
138 -497 0
249 -134 0
-99 0
-181 -185 0
-350 -105 0
-364 0
-140 0
-79 0
-480 -135 0
-150 -347 0
-133 -483 0
498 -29 0
-460 0
-349 -97 0
-352 0
-5 0
-431 -207 0
-475 0
-367 0
-446 0
-438 -179 0
-333 237 0
-178 0
-13 0
-239 0
-92 0
152 -149 0
-152 -464 0
-136 -371 0
-168 0
-6 -289 0
144 -426 0
-46 21 0
-13 -373 0
-399 -479 0
441 -427 0
-404 0
477 -73 0
-109 0
-271 354 0
10 -434 0
-406 414 0
-30 102 0
-187 0
-252 0
-176 -78 0
-187 197 0
-293 -20 0
-485 30 0
-117 0
-8 0
-150 -30 0
-2 0
-474 -249 0
74 -209 0
92 -90 0
-368 0
-467 0
34 -494 0
100 -378 0
-14 204 0
-382 247 0
144 -253 0
-474 22 0
294 -378 0
-340 0
-254 0
408 -175 0
-54 -149 0
-137 0
-193 0
486 -329 0
-332 132 0
-409 0
-420 0
410 -84 0
-154 0
-192 -126 0
-100 -337 0
-8 0
128 -341 0
-55 63 0
176 -193 0
-382 0
-295 342 0
288 -202 0
166 -146 0
-380 -92 0
203 -140 0
241 -1 0
-183 426 0
323 -68 0
-95 0
-83 -441 0
-152 -474 0
136 -158 0
144 -267 0
-299 0
-225 0
314 -419 0
408 -393 0
216 -6 0
-116 159 0
384 -492 0
456 -54 0
1 -305 0
-208 0
-472 -356 0
-272 -401 0
281 -165 0
-166 0
321 -415 0
-479 0
400 -217 0
-245 431 0
469 -155 0
-88 74 0
-443 0
-347 -249 0
-165 -397 0
-253 0
-172 0
-37 476 0
-356 0
-327 393 0
340 -427 0
394 -57 0
-359 0
-303 124 0
-9 223 0
-482 -226 0
2 -273 0
-166 -435 0
221 -234 0
-149 102 0
-420 0
-113 0
-72 0
-430 0
-14 250 0
-2 0
-223 291 0
-307 -418 0
-55 0
-435 0
-340 -410 0
17 -108 0
481 -265 0
-352 -79 0
320 -397 0
-413 102 0
236 -275 0
-479 0
354 -237 0
-248 0
-176 0
-350 0
-422 -297 0
-261 276 0
-402 0
-310 0
-62 3 0
-73 0
-183 -396 0
-391 0
434 -358 0
-390 0
-36 326 0
186 -278 0
-207 154 0
444 -162 0
-437 0
357 -314 0
-365 0
-94 -116 0
-500 95 0
-26 335 0
-367 431 0
346 -59 0
-293 -349 0
182 -433 0
-386 103 0
-234 0
-29 -428 0
-64 -388 0
-176 119 0
-85 253 0
112 -64 0
-411 -337 0
-175 -12 0
333 -353 0
-282 246 0
133 -346 0
-117 468 0
-299 0
-136 0
8 -357 0
-324 0
236 -385 0
-239 0
400 -138 0
288 -211 0
-413 0
-453 0
-406 0
-62 174 0
-490 0
-164 0
-14 -233 0
-62 -446 0
-234 0
-93 0
-46 0
-302 0
-427 0
-490 -209 0
-208 301 0
-118 0
-11 -163 0
355 -308 0
402 -18 0
248 -160 0
-308 -434 0
-408 0
-375 78 0
104 -410 0
-451 0
-219 0
427 -277 0
-307 351 0
-114 0
-481 0
-40 0
-142 355 0
-396 -452 0
272 -386 0
94 -393 0
-132 0
-421 -242 0
-396 0
-215 -486 0
-411 -266 0
-270 -41 0
234 -129 0
-360 0
-189 0
-429 -91 0
-462 -365 0
-4 0
-444 0
-322 343 0
-179 349 0
409 -14 0
-22 0
-363 0
105 -387 0
-228 213 0
204 -9 0
-427 0
-3 0
-398 0
-301 0
339 -259 0
-465 0
363 -418 0
-65 0
381 -122 0
-192 233 0
444 -426 0
-292 0
-345 0
-404 -443 0
-351 -126 0
-422 -305 0
28 -419 0
-446 -386 0
-329 0
-71 -38 0
273 -55 0
-316 0
-394 0
-398 -402 0
-38 484 0
-19 119 0
-464 0
-98 0
-348 -465 0
-159 0
-336 145 0
-464 204 0
-5 0
-62 69 0
214 -65 0
-61 -361 0
-227 0
-302 0
-173 -73 0
-79 270 0
-359 -291 0
-103 2 0
-383 0
-155 0
-200 -318 0
-381 -347 0
-319 -20 0
417 -398 0
312 -382 0
440 -494 0
-225 0
104 -19 0
-92 -91 0
-472 18 0
-69 87 0
-200 0
475 -298 0
-278 468 0
41 -437 0
-68 0
-102 -436 0
129 -63 0
-151 0
-157 0
-283 0
-124 0
-167 459 0
163 -372 0
-401 0
-214 0
-284 -106 0
-424 0
-80 45 0
-358 0
-64 476 0
-264 0
-136 -361 0
-240 0
-270 -273 0
-297 0
-327 0
235 -409 0
-492 0
-93 -185 0
-495 -316 0
-55 0
-447 478 0
-474 0
-229 0
-190 -261 0
-469 0
-260 -475 0
-175 0
-469 0
-423 -386 0
-44 -387 0
-184 0
-33 0
438 -473 0
-299 -105 0
-62 0
-167 -228 0
-491 0
-157 0
-80 0
-307 334 0
-55 0
-387 0
-469 0
490 -57 0
-392 -298 0
-286 0
-26 0
-387 -41 0
104 -139 0
-165 0
-395 -227 0
-360 0
-315 0
280 -245 0
-71 0
-394 63 0
-344 407 0
-65 0
-221 -339 0
-77 -194 0
-303 350 0
-102 -305 0
-411 6 0
-104 -423 0
473 -389 0
-256 0
-91 0
-14 0
-187 0
-216 0
-86 0
452 -177 0
341 -25 0
-56 197 0
-338 -81 0
-439 -474 0
-345 0
-82 79 0
40 -452 0
385 -23 0
-179 247 0
-32 405 0
-229 -397 0
-192 0
-117 100 0
-133 0
-387 0
-144 -466 0
-365 0
-88 -251 0
122 -457 0
-170 -193 0
-400 0
-338 0
146 -493 0
-266 0
-48 -443 0
-343 0
-53 0
-175 204 0
-395 78 0
416 -377 0
-138 0
413 -201 0
-33 0
498 -278 0
-39 0
80 -383 0
-288 0
-201 -161 0
-189 412 0
-204 0
-399 0
-14 -203 0
-470 0
8 -147 0
-22 0
473 -101 0
-221 -93 0
313 -311 0
-263 230 0
-172 -451 0
33 -197 0
-240 -476 0
-394 207 0
-213 19 0
-43 0
238 -305 0
-430 -241 0
-8 -14 0
450 -414 0
418 -451 0
64 -370 0
-86 0
-448 0
-378 0
-31 409 0
72 -419 0
-437 -129 0
-29 -490 0
-425 -353 0
-319 -177 0
-289 0
-440 198 0
-207 250 0
289 -147 0
-445 0
-310 0
-398 0
-342 0
164 -306 0
-196 175 0
468 -354 0
-444 -483 0
-429 315 0
385 -307 0
-314 350 0
-359 410 0
-389 -113 0
-422 0
-328 216 0
-333 -355 0
-256 91 0
-61 -234 0
-24 -115 0
240 -271 0
-59 309 0
-256 259 0
-258 0
-455 0
-405 0
-415 0
381 -466 0
-264 473 0
-139 0
-435 0
-237 467 0
-16 0
-252 397 0
323 -99 0
-437 -290 0
-413 -283 0
48 -455 0
-85 302 0
-460 103 0
-231 0
-291 0
-74 0
-471 0
-261 28 0
-14 0
-23 395 0
-136 -77 0
222 -209 0
-114 0
-431 105 0
-30 142 0
-465 439 0
-94 0
-228 0
-16 -215 0
-176 0
-321 0
-464 -382 0
-280 -421 0
97 -34 0
-258 0
184 -50 0
-415 458 0
-339 0
-11 0
408 -181 0
-217 0
-32 210 0
42 -443 0
-264 -262 0
-291 0
241 -371 0
402 -257 0
-469 270 0
-160 0
-4 0
-241 31 0
-294 500 0
-225 0
-48 -87 0
-16 -362 0
-186 0
-368 0
-115 87 0
-466 -177 0
-135 0
105 -465 0
-48 0
428 -457 0
-172 228 0
-6 117 0
-336 0
-235 0
-291 0
-121 399 0
138 -405 0
-71 -202 0
-133 0
-336 161 0
-64 -266 0
339 -290 0
-373 318 0
-491 0
-71 0
-348 -82 0
-379 0
-27 173 0
-93 0
250 -478 0
-11 -313 0
-447 246 0
-303 -348 0
-150 207 0
-496 -108 0
186 -52 0
-424 6 0
-480 0
-358 407 0
-360 370 0
337 -355 0
-437 428 0
62 -242 0
-430 -421 0
480 -393 0
-222 443 0
88 -443 0
-218 0
-388 -401 0
-253 367 0
-261 0
-332 0
-432 0
-399 15 0
411 -154 0
-99 406 0
-180 0
-46 -253 0
-8 58 0
-315 382 0
-29 0
-61 0
459 -465 0
-496 0
-291 381 0
-229 0
-357 0
-236 0
65 -417 0
-93 0
-297 0
-431 332 0
-234 0
-417 0
-339 -386 0
377 -228 0
185 -417 0
-70 -126 0
-272 237 0
-198 0
-111 0
-243 0
193 -202 0
-464 446 0
-132 -249 0
192 -153 0
-321 0
-333 0
-481 0
-251 0
-193 0
-90 0
346 -330 0
196 -68 0
-357 -332 0
329 -364 0
-161 0
-167 0
-129 0
-365 141 0
377 -233 0
272 -377 0
-233 0
-349 -377 0
-254 0
-215 382 0
-190 0
-290 0
-134 -493 0
-116 0
-293 0
-209 0
-307 0
-496 113 0
-480 0
-294 -498 0
-136 -78 0
-138 0
-133 -273 0
-335 -13 0
-382 199 0
-222 0
-188 222 0
-71 226 0
-428 0
-31 0
-470 -309 0
-428 -218 0
-421 0
-244 7 0
-484 0
-452 0
-287 0
344 -180 0
-391 330 0
-183 -127 0
-224 0
-346 0
-483 -442 0
245 -418 0
-22 318 0
-135 -21 0
321 -267 0
-288 -181 0
82 -141 0
-425 0
91 -25 0
-492 397 0
-191 -155 0
-416 -279 0
-421 -489 0
-117 0
-168 150 0
-368 -443 0
-420 0
-348 0
-293 -210 0
-272 -376 0
-424 491 0
-364 0
-95 0
147 -163 0
420 -457 0
-436 -28 0
-23 -490 0
-184 -209 0
-329 0
-428 0
465 -135 0
-228 95 0
284 -107 0
-208 0
-378 0
233 -380 0
-196 0
-286 -253 0
-261 389 0
-432 46 0
-44 85 0
-3 0
-245 311 0
-223 -25 0
-308 0
-419 0
-276 0
-382 0
-18 0
-494 0
-327 0
156 -59 0
-308 0
-123 157 0
-255 -186 0
-143 434 0
-328 -343 0
-37 0
-483 45 0
315 -457 0
-112 280 0
-245 223 0
-247 354 0
-95 0
-325 0
-335 0
-181 29 0
-375 77 0
-344 -95 0
137 -203 0
-279 -399 0
-269 -93 0
-352 0
-359 0
-232 135 0
275 -460 0
-164 0
-497 0
146 -454 0
-25 0
-342 0
-13 340 0
-106 0
-302 -75 0
-8 0
-348 0
-350 -285 0
-79 0
-493 326 0
-280 135 0
180 -90 0
457 -254 0
393 -341 0
-270 -65 0
-301 0
-421 0
-236 0
-21 0
-192 67 0
-225 0
-344 0
96 -95 0
-335 0
-80 0
-25 0
-67 0
356 -473 0
-41 0
-431 0
139 -147 0
-399 0
-444 -459 0
-254 0
-488 0
-176 265 0
-346 0
56 -58 0
-327 0
392 -485 0
-320 -83 0
-472 0
-159 140 0
-438 0
-435 0
-174 262 0
-78 142 0
-380 -43 0
-111 -59 0
-16 142 0
-129 0
-43 0
-290 0
-472 293 0
331 -61 0
-405 251 0
-380 0
-67 0
-301 0
-66 0
-132 0
-262 0
-6 299 0
129 -193 0
-406 -67 0
-184 0
-102 -225 0
-175 0
-250 0
-24 343 0
-188 0
351 -41 0
-68 0
-271 -26 0
371 -203 0
-439 -172 0
-3 0
-150 0
24 -31 0
-32 -180 0
355 -20 0
80 -270 0
225 -27 0
-480 10 0
212 -249 0
9 -490 0
-474 -441 0
276 -403 0
-195 79 0
-89 0
-448 -137 0
-405 0
-245 -29 0
-284 0
-280 -453 0
-203 0
-141 0
-10 359 0
-309 159 0
-74 0
26 -393 0
339 -452 0
-421 263 0
440 -277 0
-498 0
-222 -388 0
-399 187 0
-104 -398 0
-494 0
-64 0
-163 0
-313 0
-231 0
-91 22 0
-221 0
-353 0
-85 0
-267 -83 0
-96 -226 0
-271 -186 0
-499 0
467 -458 0
-397 -457 0
-172 415 0
-175 0
-295 0
240 -35 0
-273 0
-389 0
-447 0
-115 0
-229 0
240 -244 0
-104 -275 0
-245 331 0
-466 0
-325 0
-385 0
-455 29 0
265 -225 0
408 -121 0
-42 0
-238 -355 0
-94 219 0
-478 117 0
-213 327 0
-349 -172 0
-496 466 0
452 -427 0
-376 500 0
-107 0
-246 333 0
-4 63 0
-237 0
451 -403 0
-443 0
220 -481 0
-24 0
-306 0
-89 0
-495 -92 0
-348 180 0
-375 373 0
351 -25 0
-392 -220 0
-221 -388 0
34 -154 0
-200 0
-66 0
-350 195 0
-338 0
-100 0
-408 0
-245 0
275 -1 0
-100 -339 0
-262 0
118 -289 0
-474 0
316 -377 0
-209 0
-264 0
-286 231 0
-239 0
-187 0
330 -396 0
-98 0
-116 0
-370 0
-236 0
-362 0
-239 475 0
-139 0
-470 0
460 -73 0
328 -326 0
377 -174 0
-433 0
-307 0
-384 -447 0
482 -465 0
-76 126 0
-235 0
-445 0
-376 -56 0
-299 -163 0
126 -433 0
354 -206 0
-267 -115 0
-243 0
-343 0
-271 0
-15 0
-280 -102 0
-454 356 0
-199 406 0
369 -51 0
-426 0
-75 -107 0
-256 0
18 -284 0
-437 0
-487 -251 0
-18 0
-12 0
354 -348 0
-461 0
-268 0
-154 0
-78 -211 0
-144 0
-480 461 0
-464 -324 0
-5 0
-247 185 0
-297 0
-276 -67 0
-46 -214 0
-51 0
-184 0
-357 0
-117 0
-267 -314 0
-239 -358 0
-228 0
25 -121 0
-464 0
-164 231 0
398 -242 0
347 -61 0
-62 -217 0
-309 0
-258 0
34 -212 0
-303 370 0
-371 0
-117 -314 0
-201 0
-236 0
-234 0
-383 -363 0
-287 -164 0
-214 0
-126 -93 0
-37 435 0
-228 0
-233 0
-418 -9 0
-87 172 0
-199 163 0
-277 37 0
-416 349 0
-62 199 0
-447 0
-165 -465 0
-299 0
-111 290 0
-79 153 0
-212 -2 0
-454 0
-320 -458 0
-260 0
96 -340 0
-3 0
-130 0
-262 -91 0
-455 0
-153 0
-372 -297 0
-17 0
356 -281 0
-133 191 0
-8 0
-341 197 0
-183 233 0
-318 0
-323 0
137 -499 0
-142 110 0
-311 -340 0
-416 0
-144 -41 0
-320 0
-394 0
-323 0
-494 0
-423 145 0
-388 0
-488 13 0
-432 489 0
-156 0
-188 30 0
-223 0
-493 -249 0
-39 77 0
-312 0
-61 -220 0
-375 0
-275 0
-381 0
-446 0
307 -493 0
352 -438 0
-455 163 0
-268 0
-383 -364 0
473 -399 0
355 -397 0
-285 -266 0
-171 0
11 -434 0
-327 0
63 -441 0
-453 0
-97 0
96 -91 0
-211 0
-276 0
-39 276 0
162 -345 0
-373 0
-358 0
-459 0
-191 0
-304 0
409 -159 0
74 -253 0
-483 86 0
353 -140 0
-184 0
-429 0
-221 37 0
-316 68 0
10 -329 0
-283 0
-112 0
221 -26 0
313 -69 0
-227 0
-316 -212 0
-414 380 0
179 -212 0
-376 0
-456 0
-304 -437 0
-411 0
-16 0
-143 -494 0
-195 -426 0
-447 -146 0
-400 -307 0
8 -454 0
-214 0
27 -218 0
-48 0
-467 -267 0
-70 -30 0
65 -180 0
-303 419 0
-412 -449 0
-151 60 0
-244 0
-232 0
-412 415 0
-287 0
281 -292 0
497 -139 0
-379 0
-471 380 0
-453 0
-160 -68 0
209 -261 0
117 -451 0
-40 0
-447 402 0
-99 0
-456 321 0
-144 17 0
-232 -487 0
-201 -433 0
429 -321 0
153 -46 0
-255 0
-37 173 0
-479 70 0
-163 0
262 -81 0
-413 231 0
-487 457 0
272 -239 0
-249 0
451 -345 0
-116 0
-418 0
321 -159 0
-381 0
-424 0
-85 0
185 -218 0
-368 293 0
-450 0
298 -299 0
152 -302 0
-258 -241 0
-100 0
-284 0
-223 0
-63 -222 0
-356 286 0
-223 0
-407 52 0
300 -275 0
-164 469 0
331 -266 0
-295 -236 0
66 -389 0
214 -265 0
-144 0
-278 0
-296 196 0
420 -186 0
-87 -151 0
-232 -495 0
-325 287 0
-160 0
-125 230 0
-228 0
-262 0
432 -494 0
-477 0
-41 0
-411 0
-119 0
-412 -145 0
481 -212 0
-69 0
-198 -409 0
-484 0
-99 0
-474 0
-348 0
-291 -130 0
-489 0
-246 446 0
-119 -85 0
419 -305 0
-478 0
225 -105 0
-80 0
218 -474 0
-498 0
-205 0
26 -42 0
-64 -354 0
41 -281 0
497 -334 0
-347 -186 0
-370 263 0
24 -480 0
447 -385 0
-364 0
-192 28 0
-310 0
-230 0
-63 -278 0
-429 452 0
-63 0
442 -157 0
-71 0
-269 0
-10 -250 0
-327 0
43 -169 0
-406 -124 0
-493 203 0
-127 -311 0
-226 0
-460 135 0
-56 340 0
-465 0
-272 0
-293 -233 0
314 -380 0
-407 387 0
-298 14 0
-391 0
-226 0
-459 222 0
-343 0
-432 0
-204 389 0
177 -19 0
-203 0
-241 0
430 -2 0
-375 0
-219 0
-300 127 0
-313 63 0
321 -340 0
-247 -127 0
141 -185 0
-396 0
-136 -388 0
-358 0
475 -395 0
-68 0
-403 0
-219 0
256 -339 0
-280 -39 0
-444 -284 0
115 -401 0
-31 0
-375 0
-422 -115 0
75 -370 0
-288 298 0
-265 0
-344 407 0
-475 0
-29 0
-89 0
10 -102 0
-384 293 0
-401 0
-424 0
-486 35 0
-31 0
-170 0
432 -400 0
41 -281 0
-431 0
-13 0
-362 0
-224 -94 0
-280 0
-206 0
-446 -465 0
-150 0
-438 -29 0
-451 -347 0
73 -397 0
145 -117 0
-268 0
-343 0
-178 0
-229 -139 0
-309 -129 0
40 -294 0
-31 0
-52 0
-31 380 0
-55 0
16 -279 0
-355 127 0
-38 0
257 -289 0
-132 0
89 -138 0
-64 -220 0
244 -201 0
-439 -249 0
129 -211 0
-472 459 0
-39 -494 0
-236 279 0
-196 382 0
-392 -176 0
-372 0
-188 -298 0
90 -434 0
-463 0
-305 -169 0
-434 -401 0
-428 495 0
-160 110 0
163 -337 0
-56 334 0
-253 -305 0
-140 374 0
-120 0
-299 0
96 -26 0
-230 0
477 -297 0
-423 283 0
-212 0
-184 243 0
216 -203 0
-365 0
479 -81 0
-116 -211 0
-23 -103 0
-277 110 0
-300 0
-471 -149 0
-136 332 0
-185 0
-320 350 0
491 -217 0
58 -202 0
185 -221 0
-245 0
-194 -234 0
-435 -371 0
-55 0
-376 280 0
257 -259 0
499 -450 0
-240 31 0
80 -419 0
-24 0
412 -146 0
-225 0
-352 0
-366 0
-24 347 0
-255 87 0
-376 -59 0
-430 0
-466 -26 0
-88 0
-309 -349 0
-398 0
232 -224 0
327 -233 0
-445 -418 0
-77 0
260 -210 0
-6 342 0
-186 0
-7 327 0
-230 -378 0
315 -405 0
-497 0
291 -85 0
393 -179 0
-448 -367 0
-338 0
-156 0
136 -324 0
-45 0
-24 0
-316 0
-112 162 0
-275 0
56 -399 0
-236 253 0
-440 -187 0
-431 -356 0
-176 416 0
289 -185 0
-154 0
-481 0
-234 0
332 -219 0
-184 -60 0
112 -422 0
156 -203 0
176 -162 0
-418 0
338 -188 0
-420 -363 0
176 -134 0
-247 0
-320 -340 0
-246 0
458 -33 0
163 -476 0
-175 0
73 -198 0
-113 -321 0
-342 0
-63 245 0
-446 429 0
-15 402 0
-306 0
-36 0
-33 0
-170 0
328 -300 0
-17 0
-388 -123 0
-118 0
129 -33 0
461 -74 0
-280 -192 0
394 -420 0
-12 0
-497 0
-14 4 0
236 -393 0
-180 0
-273 0
-322 0
-210 0
261 -34 0
-140 198 0
-213 0
-114 -481 0
-343 0
322 -132 0
337 -457 0
-78 0
-200 0
-104 86 0
-133 486 0
81 -227 0
-240 -188 0
-482 0
-283 -379 0
-148 0
299 -396 0
-491 0
-432 0
-267 0
-135 -81 0
-296 403 0
-424 -413 0
43 -274 0
-167 -340 0
448 -144 0
-227 0
-486 0
339 -373 0
-366 477 0
-311 0
-1 0
395 -347 0
-463 0
-303 361 0
-68 -164 0
-48 499 0
-45 0
-440 317 0
-424 0
491 -141 0
-1 207 0
312 -293 0
-462 -453 0
-53 277 0
-487 372 0
-92 0
-240 -419 0
-248 -119 0
-374 -307 0
-144 0
-120 -311 0
-202 0
-240 -201 0
-167 381 0
435 -388 0
-327 460 0
408 -305 0
425 -474 0
-482 263 0
-183 -149 0
-36 12 0
-471 495 0
-404 0
-58 -161 0
-436 0
-214 258 0
-377 0
-468 469 0
-156 318 0
-21 0
-432 342 0
-418 135 0
-79 341 0
-292 0
-436 397 0
-303 -397 0
-380 -315 0
-472 134 0
-352 -61 0
337 -323 0
-151 0
-62 262 0
-307 -250 0
-18 0
314 -194 0
-158 0
-272 -194 0
-35 -83 0
-325 140 0
-338 0
-239 222 0
-467 0
-7 -14 0
-140 0
-325 -443 0
-215 239 0
-169 0
-250 -145 0
-28 0
-84 0
97 -49 0
-414 0
-3 0
-383 43 0
308 -99 0
-327 -1 0
-456 431 0
-225 0
-79 482 0
-487 0
115 -378 0
-327 0
81 -297 0
-267 0
-158 0
-165 -226 0
-64 -93 0
-272 59 0
346 -313 0
480 -83 0
-277 411 0
-138 0
-324 7 0
-180 0
-232 -169 0
468 -249 0
-388 0
-352 -427 0
-49 -201 0
275 -106 0
-427 0
393 -457 0
-383 0
-359 273 0
-187 126 0
-150 0
-7 68 0
-248 0
-209 0
-195 102 0
-258 0
-67 -153 0
-478 0
281 -318 0
-392 0
-422 -49 0
-440 0
186 -476 0
-151 441 0
-63 377 0
-48 -56 0
-383 273 0
154 -171 0
-162 0
88 -166 0
-340 0
289 -413 0
-382 0
-279 -347 0
-272 90 0
-197 419 0
40 -129 0
185 -219 0
-375 0
-450 0
-92 0
-350 124 0
-109 0
-285 0
-326 -53 0
-188 13 0
-353 0
-55 -340 0
-362 0
-187 0
-223 0
-238 0
330 -345 0
-277 0
-188 0
-79 223 0
348 -466 0
248 -338 0
-3 0
58 -139 0
-94 -5 0
186 -190 0
200 -471 0
-332 0
-141 -476 0
-122 0
-224 0
-473 0
-319 0
-183 0
-269 0
-320 -268 0
-318 -401 0
-290 0
-263 0
-246 301 0
-349 0
216 -406 0
-328 0
-53 494 0
28 -65 0
-443 0
-180 383 0
-263 -65 0
-213 75 0
-148 0
-194 0
-30 0
-334 0
-219 0
-419 0
-446 -361 0
-191 0
-279 0
-173 270 0
12 -227 0
-485 -43 0
385 -286 0
-15 0
-107 0
41 -389 0
-296 199 0
-431 130 0
-318 142 0
-173 0
-389 -89 0
-346 0
223 -217 0
-401 0
388 -90 0
349 -243 0
-340 0
-32 177 0
-367 -53 0
-14 -162 0
-20 0
-1 0
-242 0
-125 0
458 -100 0
-463 -213 0
-241 0
-159 -458 0
117 -202 0
-323 214 0
-499 149 0
-490 0
-404 0
-360 41 0
178 -213 0
-309 0
-73 0
386 -236 0
139 -27 0
-43 0
-487 0
-134 -317 0
-96 0
210 -322 0
-320 -83 0
-384 0
-491 0
-454 191 0
-121 0
-232 -256 0
-351 -446 0
-468 0
-338 0
-486 0
-183 143 0
-471 300 0
306 -261 0
-135 0
-181 359 0
-164 183 0
-75 0
-82 0
425 -25 0
-58 0
-217 0
-78 0
-319 0
-349 0
-38 0
-151 0
-263 309 0
-219 -297 0
-255 0
466 -44 0
353 -156 0
-198 0
-335 370 0
-216 0
117 -281 0
-96 0
-481 0
-277 475 0
428 -172 0
-170 0
-239 202 0
-140 391 0
-221 -370 0
-462 491 0
-352 295 0
379 -292 0
-80 303 0
-119 0
-231 -35 0
-389 204 0
361 -325 0
-271 0
-85 15 0
-165 0
-219 261 0
-104 397 0
-172 0
-234 0
-271 0
-139 -130 0
-142 0
8 -329 0
480 -326 0
-412 182 0
-208 -12 0
388 -492 0
-79 0
-190 -227 0
-67 -161 0
-52 436 0
-12 292 0
-290 0
-436 -65 0
-406 0
27 -482 0
355 -498 0
-352 -423 0
352 -488 0
-350 0
-354 0
-435 0
-490 0
-233 0
-96 -224 0
-403 0
-163 0
-27 0
330 -339 0
482 -268 0
-61 0
-467 0
-494 -76 0
-264 0
-384 0
-70 403 0
-109 398 0
291 -186 0
-487 210 0
-228 -283 0
300 -452 0
-238 0
-30 -84 0
-80 0
-42 -89 0
-254 357 0
-278 0
-62 -211 0
-250 0
-33 0
-196 0
-45 0
-143 0
-411 -290 0
-463 -148 0
-221 0
9 -490 0
-69 0
-207 -270 0
-246 -438 0
-465 0
-188 0
-48 475 0
-371 -105 0
-46 0
-180 0
-476 -435 0
336 -350 0
466 -411 0
-443 0
-317 -2 0
-435 -17 0
416 -357 0
171 -388 0
-287 -22 0
-240 0
-40 0
362 -97 0
-359 0
-279 11 0
-479 185 0
-206 452 0
-58 0
-340 486 0
-12 0
-483 0
-282 -49 0
259 -69 0
-470 0
-23 51 0
-447 -50 0
-222 6 0
-270 222 0
-134 0
70 -177 0
-423 53 0
-39 11 0
-95 53 0
-286 435 0
228 -385 0
156 -451 0
-295 14 0
-144 0
-14 0
230 -361 0
-245 331 0
-150 203 0
-328 0
394 -316 0
-407 -451 0
209 -411 0
-476 303 0
-205 0
-79 396 0
-367 -225 0
-390 260 0
-175 143 0
-276 -219 0
-41 0
465 -313 0
-248 0
-278 -180 0
304 -30 0
24 -19 0
-41 0
381 -3 0
266 -27 0
-7 -290 0
-132 -115 0
-124 -274 0
-350 0
-480 154 0
-76 0
-366 -316 0
-247 394 0
-492 0
-117 415 0
-260 0
-70 -185 0
-500 -233 0
432 -417 0
-460 0
-381 0
-335 0
-495 -37 0
-30 -177 0
-369 207 0
-97 0
-499 0
78 -234 0
-53 0
153 -67 0
-34 0
-157 -146 0
-37 0
-460 0
426 -9 0
67 -484 0
-111 0
-37 0
-233 0
-354 -258 0
313 -206 0
-207 -94 0
-64 0
392 -443 0
-347 0
-185 0
370 -329 0
145 -131 0
-327 -461 0
-461 -156 0
425 -51 0
-381 -45 0
-331 0
-84 0
-111 0
-212 0
68 -275 0
-30 415 0
-41 0
-320 123 0
-59 0
-460 -257 0
-1 -25 0
202 -422 0
-160 0
-281 0
-351 0
-311 -166 0
-496 83 0
-7 0
-246 0
-316 0
145 -139 0
-429 431 0
-177 0
61 -345 0
72 -428 0
-59 7 0
-346 0
-500 -289 0
-494 -317 0
-240 -35 0
-143 314 0
73 -138 0
170 -108 0
-97 0
117 -289 0
-29 0
-278 147 0
-365 -403 0
-492 0
-487 0
-256 -274 0
248 -342 0
-259 343 0
109 -123 0
-21 -273 0
-294 0
-286 21 0
-57 0
148 -411 0
-139 0
-429 -403 0
-264 0
-81 0
-114 0
-415 0
-49 0
446 -281 0
68 -9 0
-196 0
-437 0
-401 0
-353 0
-128 230 0
281 -218 0
-414 -492 0
-272 273 0
-198 -418 0
-286 0
-167 0
-72 0
-254 -300 0
-207 53 0
-275 0
-80 0
-407 325 0
-387 0
-27 0
-185 0
432 -493 0
-413 -35 0
-222 0
-35 181 0
424 -479 0
480 -428 0
96 -194 0
-430 310 0
-87 13 0
-120 217 0
-411 430 0
-246 159 0
-46 333 0
176 -430 0
-226 0
-248 -357 0
-172 0
-321 0
-418 0
-123 262 0
104 -46 0
-68 0
-218 0
-275 0
-190 373 0
-91 0
-338 0
-424 -207 0
-429 0
-400 -458 0
-288 -67 0
-128 0
-127 391 0
-48 -95 0
-445 0
242 -395 0
-212 0
-42 0
-352 365 0
-422 -156 0
-263 0
-356 0
-304 -70 0
-154 0
-201 0
144 -170 0
-470 0
-68 0
-145 0
-221 45 0
-345 0
-494 -405 0
-366 0
-143 0
278 -233 0
440 -383 0
-493 -123 0
466 -163 0
-107 390 0
42 -333 0
-161 0
-70 -75 0
-380 -4 0
-106 -1 0
-176 82 0
-287 5 0
-190 242 0
456 -194 0
-118 82 0
-58 0
-152 -296 0
-382 0
-157 -35 0
-337 0
-343 0
-406 11 0
-421 23 0
-191 0
-470 0
-240 -156 0
-248 -281 0
-315 0
-136 -435 0
459 -122 0
-304 -36 0
-460 0
-317 0
-190 -369 0
-335 428 0
-307 -410 0
261 -211 0
-264 0
305 -273 0
-264 0
-499 -442 0
-104 0
237 -257 0
-128 0
-43 0
-238 -364 0
-291 0
-131 0
-18 0
-394 0
-15 298 0
-404 244 0
-434 0
361 -236 0
424 -480 0
-303 -321 0
-392 268 0
-486 52 0
346 -17 0
-331 0
-221 0
-263 393 0
116 -410 0
-234 0
-174 255 0
-465 0
-130 0
-227 -307 0
-16 255 0
-210 39 0
-120 0
-192 -371 0
-414 -315 0
-150 378 0
273 -353 0
-303 0
-384 0
-83 0
-166 0
-307 0
226 -306 0
-374 -322 0
370 -97 0
-398 87 0
-182 -412 0
-203 0
-221 111 0
-195 422 0
-367 0
-472 0
234 -217 0
-156 -458 0
-468 0
-274 0
411 -420 0
-452 -1 0
-99 0
-3 85 0
-74 0
-351 55 0
-253 406 0
-82 0
330 -381 0
-397 0
109 -186 0
-422 214 0
76 -418 0
-296 0
-98 0
250 -237 0
-130 0
-359 -429 0
-237 0
-491 0
-484 0
-58 -129 0
-349 388 0
429 -106 0
-140 133 0
150 -161 0
-445 0
-172 0
-161 -49 0
-178 0
62 -418 0
194 -138 0
-167 0
-189 -229 0
-433 0
323 -281 0
448 -198 0
-352 -261 0
-364 0
-129 0
-156 102 0
-135 -239 0
152 -330 0
-194 0
-305 0
-141 0
497 -426 0
-320 183 0
88 -35 0
-64 -283 0
318 -401 0
-141 0
-479 -420 0
267 -452 0
-48 -465 0
299 -141 0
-469 -83 0
-446 0
-256 495 0
354 -106 0
83 -148 0
5 -65 0
-334 -90 0
-260 0
-300 0
-495 -348 0
-146 -201 0
81 -201 0
-318 0
42 -402 0
-494 -497 0
-141 0
-386 0
-97 0
-432 0
-166 0
-317 0
-100 173 0
-434 0
-66 0
201 -478 0
-45 0
-364 0
-144 -473 0
-62 -267 0
-360 -455 0
-176 0
-67 0
-280 0
-214 0
-494 -333 0
-174 0
-485 447 0
-440 -343 0
310 -377 0
-495 134 0
-359 0
-247 364 0
-140 302 0
-185 0
64 -32 0
136 -9 0
-172 0
-184 439 0
493 -418 0
-188 422 0
219 -393 0
-482 0
-181 0
-293 0
-317 0
-342 0
-334 173 0
485 -347 0
450 -98 0
-418 -129 0
399 -41 0
233 -205 0
-377 0
-317 -138 0
15 -81 0
-245 403 0
-121 0
-172 0
-462 -321 0
-334 0
-488 407 0
-1 0
-415 330 0
-158 -218 0
-293 0
-213 189 0
-363 246 0
-275 318 0
-40 382 0
-412 0
-47 -399 0
-437 -466 0
-265 0
-221 111 0
207 -393 0
-373 -194 0
-375 0
-216 0
345 -193 0
419 -171 0
210 -386 0
283 -489 0
-103 310 0
498 -412 0
226 -44 0
457 -292 0
-44 0
-404 -122 0
-256 -435 0
-407 -50 0
-465 0
396 -137 0
-200 324 0
-441 0
-400 0
344 -432 0
-231 212 0
-128 28 0
-421 -76 0
-247 0
-472 0
-27 0
-354 0
-495 0
204 -49 0
-195 101 0
-428 0
254 -217 0
-296 0
-186 0
-478 463 0
-128 -445 0
-276 -211 0
-445 -187 0
-250 0
-210 -241 0
-103 0
-208 0
-288 7 0
-299 0
-52 0
-321 0
-45 223 0
217 -182 0
-171 -227 0
-333 0
45 -34 0
348 -250 0
-181 0
344 -484 0
-179 0
-418 0
-336 -302 0
268 -220 0
-333 -379 0
-45 159 0
-424 -243 0
-350 -161 0
80 -8 0
-432 0
-3 191 0
-151 -311 0
-357 0
-70 0
-242 0
-230 -77 0
-204 413 0
-367 385 0
-476 446 0
-299 -81 0
-173 151 0
410 -484 0
125 -27 0
-141 0
-7 -466 0
316 -345 0
377 -237 0
-188 0
-280 327 0
312 -230 0
360 -316 0
-328 0
-411 0
-16 433 0
35 -4 0
-300 0
-74 0
97 -65 0
-277 0
-491 -290 0
-318 -299 0
-21 0
73 -493 0
209 -422 0
-468 0
-482 0
-411 0
-157 0
-32 0
-474 247 0
-431 0
-290 0
-78 0
-80 0
-62 0
-230 0
-304 10 0
-132 -196 0
-178 0
-29 -362 0
-93 -177 0
-386 0
-415 0
-362 0
-64 81 0
307 -491 0
-348 -427 0
65 -164 0
-349 36 0
-118 54 0
-104 0
-224 -332 0
-381 -322 0
204 -441 0
-424 0
260 -297 0
-127 173 0
-382 366 0
-373 0
305 -260 0
-406 315 0
-331 0
203 -244 0
-85 0
-388 406 0
-70 77 0
245 -34 0
-27 0
458 -49 0
25 -14 0
-359 -285 0
-190 0
-55 -294 0
412 -82 0
27 -91 0
-356 0
-462 0
337 -182 0
-84 0
-16 -243 0
-185 0
-72 38 0
-442 222 0
-286 -99 0
-432 -222 0
-12 -355 0
-274 0
-309 0
-273 0
328 -449 0
-452 0
-89 423 0
-291 165 0
171 -148 0
-399 462 0
378 -460 0
-443 0
-201 0
-64 -52 0
-87 0
-27 7 0
-46 28 0
-311 0
395 -306 0
-359 -244 0
-192 354 0
-200 29 0
352 -271 0
180 -268 0
354 -340 0
-225 0
73 -367 0
-174 51 0
-459 0
-293 0
355 -4 0
443 -372 0
-302 -338 0
-468 0
-124 0
-36 125 0
17 -222 0
-419 102 0
-265 223 0
-256 -189 0
400 -260 0
98 -132 0
-95 147 0
-8 366 0
-116 -300 0
-472 0
384 -371 0
-241 0
-372 -281 0
-253 -274 0
-208 197 0
-443 37 0
-296 0
-123 0
-488 0
11 -57 0
-149 -444 0
-388 0
-70 20 0
-104 134 0
-262 0
-256 0
-186 0
-99 0
312 -317 0
-48 0
-332 0
-32 -72 0
-245 181 0
-349 156 0
21 -314 0
-360 0
-470 0
-104 118 0
-383 -350 0
-233 0
-129 0
-416 0
-228 0
-411 -491 0
-128 0
128 -36 0
-407 0
-32 -222 0
-368 389 0
-323 0
-373 -17 0
-247 54 0
-272 0
-101 207 0
-161 0
-348 0
-207 142 0
-156 0
-409 0
-255 219 0
-333 0
176 -412 0
-365 39 0
-259 0
133 -73 0
-451 0
470 -122 0
-337 0
-359 171 0
-344 -405 0
-142 -270 0
371 -313 0
-416 -455 0
-264 0
161 -324 0
-352 0
-449 0
-419 -50 0
-363 -97 0
-399 0
-192 0
-447 -236 0
-277 0
-496 -202 0
18 -237 0
-326 -133 0
299 -147 0
-131 -50 0
-275 0
-8 140 0
312 -102 0
-271 198 0
27 -148 0
-265 0
-420 0
-27 0
-216 0
-95 -127 0
-303 0
-128 0
-350 476 0
-243 7 0
-303 395 0
69 -242 0
-340 12 0
-332 390 0
-184 23 0
-423 -268 0
-306 -369 0
-234 -305 0
-438 -353 0
161 -395 0
-468 0
88 -451 0
216 -339 0
256 -54 0
-342 0
-112 0
-163 0
-240 -397 0
-200 -197 0
402 -100 0
-90 0
-406 0
-422 317 0
-84 0
-6 0
440 -31 0
-214 0
-409 0
465 -485 0
-336 162 0
-40 487 0
-218 0
-224 92 0
-206 -309 0
377 -161 0
-42 0
340 -129 0
-143 154 0
186 -2 0
-293 0
-104 0
416 -211 0
-55 0
-428 -163 0
-147 0
-344 174 0
169 -441 0
-228 -403 0
-253 0
-287 0
-340 414 0
-461 0
-413 0
222 -18 0
373 -91 0
376 -86 0
-413 325 0
-286 0
-32 483 0
-267 -330 0
-243 7 0
180 -147 0
-405 239 0
-294 0
-366 411 0
-171 0
-320 -471 0
-243 0
-59 0
1 -25 0
-265 0
-75 0
-165 0
-459 0
-484 0
-283 325 0
-168 402 0
-169 0
-72 -41 0
-272 0
-453 245 0
-469 -484 0
-294 0
137 -306 0
401 -85 0
-96 474 0
-185 0
-297 0
-48 0
-209 0
387 -3 0
234 -205 0
-30 0
-177 0
-294 0
-431 93 0
-255 0
-120 54 0
-178 0
-341 -418 0
491 -67 0
-136 0
-432 18 0
-424 -382 0
-376 426 0
-112 0
-118 -68 0
-500 -355 0
-399 -306 0
-450 0
-250 0
398 -353 0
-285 0
-125 0
-349 356 0
-410 0
488 -4 0
-52 126 0
-248 0
-95 0
-95 0
-99 0
-109 0
-290 -345 0
-239 389 0
-390 35 0
161 -46 0
328 -375 0
-86 -185 0
-156 -428 0
363 -27 0
-45 0
-253 0
-390 243 0
-376 -189 0
-235 0
282 -189 0
-277 0
-143 0
64 -46 0
-127 -373 0
-58 0
-306 351 0
-48 -125 0
-56 -386 0
-229 0
-77 0
-48 98 0
-286 0
-157 0
402 -297 0
459 -36 0
-132 -164 0
320 -165 0
-392 -500 0
429 -369 0
-343 -205 0
-236 0
496 -241 0
462 -425 0
72 -241 0
-392 0
-196 151 0
-408 76 0
-202 0
-46 -457 0
-59 309 0
-256 0
-312 0
-174 0
-148 0
-333 341 0
299 -475 0
-18 0
-343 -109 0
122 -204 0
202 -390 0
-494 0
348 -458 0
106 -177 0
34 -348 0
-246 -457 0
-380 71 0
489 -470 0
146 -285 0
66 -341 0
-34 0
-184 103 0
-466 0
-359 -225 0
217 -468 0
-228 229 0
-350 -139 0
-12 0
313 -33 0
216 -177 0
-393 0
266 -130 0
-99 0
-312 -121 0
-392 -335 0
36 -473 0
-223 235 0
-196 0
-205 292 0
-351 0
-45 0
90 -371 0
-480 0
-128 -180 0
-86 -442 0
33 -433 0
-23 0
-120 0
-44 0
-262 -137 0
24 -216 0
-325 -36 0
-299 0
-237 0
-76 0
19 -339 0
8 -298 0
-341 0
-420 0
-162 0
-55 0
-59 78 0
1 -310 0
-23 -446 0
-446 0
-348 -306 0
252 -444 0
-191 -438 0
-313 0
202 -25 0
490 -278 0
-20 0
-56 426 0
-106 0
-228 0
161 -479 0
-75 0
-132 -371 0
-45 108 0
-312 0
169 -252 0
476 -289 0
-366 -177 0
-102 0
-200 0
-17 -97 0
-304 89 0
346 -219 0
224 -429 0
-239 423 0
-154 -26 0
-4 461 0
-23 450 0
-104 0
-441 0
-300 -355 0
-299 -409 0
78 -145 0
-385 0
-463 -295 0
83 -116 0
-314 0
-346 0
-32 7 0
-161 367 0
-423 334 0
-211 0
-180 0
-336 0
190 -417 0
-457 0
-39 476 0
-348 0
-432 210 0
-27 0
-335 124 0
-460 237 0
-479 444 0
-165 0
186 -395 0
-333 0
-95 0
-83 0
-201 0
18 -389 0
-470 0
331 -293 0
-88 0
-348 438 0
-198 -494 0
-68 0
-245 363 0
-18 0
-329 0
147 -339 0
-68 0
-336 0
-427 0
-15 142 0
-235 342 0
-52 -362 0
-277 0
-362 0
-469 462 0
-65 0
-390 0
-431 268 0
-253 0
19 -371 0
-445 -251 0
-148 0
-432 407 0
-211 0
-80 -74 0
-229 -93 0
-263 99 0
194 -245 0
81 -466 0
-302 -265 0
235 -57 0
-321 0
395 -12 0
480 -152 0
-453 174 0
-22 -394 0
-147 0
291 -443 0
20 -122 0
-97 0
315 -468 0
-271 0
-353 0
-134 253 0
-248 0
-244 0
-488 -131 0
-343 0
-82 -209 0
-368 0
-357 -241 0
9 -225 0
-229 341 0
-373 0
-362 0
-356 -234 0
-404 0
-488 0
-71 -113 0
-183 0
-313 -41 0
-131 -42 0
-447 0
-302 0
-89 0
-267 0
-338 0
130 -354 0
-174 0
-252 0
-38 0
-335 346 0
-381 0
-65 0
-327 -363 0
-42 -193 0
-478 -380 0
-157 0
-428 -33 0
-45 28 0
467 -131 0
-344 0
-398 -290 0
-56 0
-21 -345 0
-205 0
353 -85 0
-68 302 0
-165 302 0
58 -457 0
-323 0
-38 0
-101 0
105 -92 0
-192 0
-79 0
496 -97 0
-279 461 0
409 -262 0
-125 239 0
-25 -225 0
-463 0
-355 0
-256 342 0
-429 85 0
169 -180 0
-355 0
342 -145 0
66 -170 0
136 -108 0
-24 69 0
-439 0
-180 -81 0
-367 67 0
-77 157 0
-284 0
-145 0
-477 206 0
-378 0
-175 -218 0
-136 0
-254 0
-112 -434 0
450 -105 0
-346 159 0
-399 0
-16 -138 0
-395 0
265 -187 0
-76 0
-333 135 0
274 -333 0
-456 0
241 -101 0
-472 0
-456 0
193 -51 0
-198 0
-118 0
-80 0
-99 -434 0
-302 431 0
-85 -325 0
-234 0
-208 0
-124 236 0
-392 -268 0
-211 0
-329 0
-188 0
-325 -323 0
-173 -156 0
-72 0
-266 -57 0
-386 -65 0
-332 428 0
481 -2 0
-376 175 0
-297 351 0
-378 214 0
418 -124 0
-368 -103 0
-32 -232 0
123 -282 0
-241 -113 0
-492 0
-472 -341 0
-231 52 0
-257 0
-338 0
-49 0
-370 0
-210 0
330 -69 0
-142 0
-191 -254 0
-343 378 0
-335 491 0
-347 391 0
-446 483 0
67 -68 0
-485 0
-400 -386 0
-108 -292 0
-255 76 0
-44 -489 0
-19 0
329 -423 0
-202 -10 0
-240 -290 0
-14 -286 0
-484 0
12 -346 0
-378 0
-137 0
-320 0
-493 0
-263 463 0
-470 -195 0
288 -22 0
-495 374 0
294 -314 0
-474 -169 0
-42 0
-206 -28 0
-358 260 0
-497 0
144 -294 0
48 -397 0
-472 437 0
-398 492 0
-421 389 0
-341 236 0
-238 0
-19 0
-306 79 0
428 -74 0
-259 0
456 -146 0
-222 0
385 -109 0
417 -478 0
86 -321 0
-87 -453 0
-413 293 0
147 -93 0
-35 0
-472 207 0
-189 0
-109 270 0
-490 0
380 -220 0
-324 484 0
-237 -149 0
-69 13 0
-423 -145 0
-385 0
474 -59 0
-434 0
-12 0
-40 0
-403 -97 0
402 -226 0
347 -65 0
152 -351 0
392 -134 0
170 -185 0
-186 238 0
-278 -17 0
489 -213 0
-67 -58 0
192 -378 0
-310 133 0
-440 0
-420 0
-135 -103 0
-75 0
-198 411 0
1 -281 0
-275 0
470 -154 0
126 -489 0
-92 0
-87 -450 0
200 -241 0
-236 0
260 -297 0
-320 181 0
-105 0
-171 141 0
-357 -386 0
194 -403 0
44 -90 0
-461 285 0
-226 0
265 -57 0
-326 -371 0
-270 151 0
-490 0
-179 0
-252 -451 0
-363 0
432 -135 0
-206 172 0
-163 -10 0
-10 0
408 -203 0
-368 -260 0
-248 -409 0
-493 0
376 -252 0
-81 0
