p cnf 1000 31423
376 -643 0
276 -603 0
-331 0
-86 0
-863 -467 0
-342 -245 0
890 -406 0
-425 0
-600 0
-995 -442 0
-141 -970 0
-120 0
-979 0
514 -213 0
-946 0
-566 0
-152 -665 0
-972 0
-951 826 0
43 -28 0
-383 0
-481 0
-763 0
-510 0
-67 0
-61 -116 0
-341 990 0
163 -626 0
650 -812 0
-728 -574 0
-840 -189 0
-909 -193 0
-848 228 0
-592 0
-113 327 0
-719 730 0
-150 0
-559 -851 0
-563 0
-102 645 0
-354 0
-509 0
370 -961 0
-605 669 0
-115 0
-60 0
99 -409 0
-518 413 0
-930 0
-730 711 0
-85 532 0
-223 0
-447 0
-899 0
-148 0
16 -996 0
-527 0
-111 0
-956 527 0
-365 516 0
-64 0
-573 0
-572 0
-626 -418 0
-354 0
-617 0
-389 0
-505 0
-240 -787 0
169 -174 0
40 -614 0
-848 371 0
-914 -794 0
-396 -220 0
395 -562 0
-592 -843 0
-860 453 0
-339 814 0
-758 76 0
-704 7 0
372 -802 0
507 -700 0
-348 6 0
522 -129 0
-615 0
-768 -154 0
-154 0
-757 -100 0
-879 -158 0
-701 0
-655 0
-386 0
-112 0
-445 0
-11 781 0
-952 394 0
-878 -41 0
-613 943 0
-514 247 0
-947 879 0
-583 466 0
-391 -369 0
-863 0
-780 229 0
792 -881 0
-652 -956 0
849 -6 0
-126 -489 0
-771 0
-304 -805 0
-941 0
-989 534 0
-968 -835 0
-6 0
-180 324 0
-193 0
-896 681 0
-894 0
-271 571 0
-351 0
810 -237 0
-239 814 0
-916 999 0
-567 -204 0
-723 0
-94 935 0
-13 0
-507 0
-886 0
-478 123 0
-705 0
-460 -825 0
-558 -385 0
-555 0
-590 0
-627 0
913 -686 0
3 -754 0
-886 276 0
257 -437 0
-176 0
-212 -610 0
-641 0
378 -234 0
-103 0
-862 -563 0
-748 -785 0
809 -731 0
-120 0
-982 0
-564 718 0
-668 807 0
-48 0
-606 403 0
-628 0
3 -324 0
-836 222 0
-871 0
939 -433 0
58 -753 0
-491 0
-47 0
-461 0
448 -593 0
725 -323 0
-10 0
-208 -343 0
-338 0
-922 0
197 -785 0
-821 0
-647 514 0
-519 439 0
-510 0
809 -459 0
-373 0
-275 -105 0
161 -902 0
-237 0
142 -833 0
-692 0
346 -197 0
-20 -457 0
-163 0
-392 139 0
-230 -388 0
-24 0
-725 0
-134 0
-167 0
-896 0
165 -881 0
864 -944 0
-302 -684 0
-940 -826 0
-901 493 0
-791 364 0
49 -15 0
-353 0
-832 0
-800 -12 0
684 -457 0
-986 0
-486 84 0
-240 6 0
-249 0
-77 -76 0
-910 607 0
-96 0
-644 -185 0
778 -305 0
-709 0
-296 926 0
-622 0
-782 0
931 -66 0
-674 0
-351 0
-434 0
-663 645 0
-22 0
-450 479 0
-565 -474 0
-116 733 0
-401 0
-604 780 0
594 -668 0
-192 202 0
-631 261 0
-995 0
-941 390 0
-599 0
-680 396 0
-823 0
-251 0
-63 502 0
-899 461 0
-718 775 0
-2 0
-597 -457 0
-791 700 0
-555 0
-943 -997 0
-679 -61 0
-823 0
-325 0
98 -405 0
-556 -473 0
-671 0
-829 333 0
-922 0
-424 -179 0
-568 0
-855 -70 0
-710 627 0
-453 0
-265 0
-15 -283 0
-390 0
-147 0
-678 374 0
-97 0
-229 0
-468 0
-58 703 0
-524 102 0
-506 0
-606 0
-254 0
-77 0
441 -142 0
-415 0
-340 0
-322 127 0
-205 0
-635 543 0
-397 0
-73 0
-515 0
-105 0
-404 0
-344 -74 0
-160 0
-460 0
-456 0
-775 -913 0
-109 0
-674 0
-32 0
-344 0
-61 503 0
592 -595 0
-536 362 0
-499 -977 0
-663 0
-927 142 0
769 -497 0
-757 635 0
-704 562 0
-215 0
-800 0
-870 341 0
-240 0
-877 414 0
-440 0
609 -709 0
-19 0
-493 -996 0
-816 0
-818 0
986 -917 0
-806 -124 0
-904 236 0
-941 0
-394 0
433 -323 0
-75 0
663 -433 0
-310 751 0
-813 0
-240 144 0
-965 -914 0
-642 0
-590 0
-162 639 0
-633 0
-702 621 0
-135 315 0
-215 414 0
-4 0
-246 226 0
-242 0
-253 -117 0
280 -336 0
-232 0
394 -466 0
-109 -171 0
-342 0
-517 0
-824 -297 0
55 -465 0
-240 132 0
-705 0
-240 0
-111 -229 0
-233 0
-551 5 0
-200 0
-376 -492 0
-23 562 0
969 -994 0
209 -914 0
-248 430 0
-680 107 0
-51 0
-182 575 0
-8 -556 0
-856 -663 0
-157 0
-909 0
-283 -267 0
-231 0
-837 0
513 -438 0
-175 -453 0
-11 -107 0
-978 0
-129 0
-35 -723 0
331 -138 0
-822 0
-895 771 0
-398 0
-704 0
-209 0
-29 0
-398 469 0
-40 327 0
-815 583 0
-205 406 0
-715 974 0
-392 41 0
98 -409 0
-213 741 0
-400 0
-957 135 0
-360 -52 0
-655 820 0
-846 572 0
-791 516 0
-820 0
-592 -994 0
17 -454 0
-658 0
-485 284 0
296 -704 0
344 -591 0
-808 0
-95 76 0
-620 0
-971 0
-102 -133 0
-711 -858 0
-159 -706 0
-552 0
-872 0
-116 0
572 -538 0
-192 901 0
-146 0
-879 0
-193 599 0
-417 0
-640 0
-984 -487 0
332 -964 0
434 -702 0
-865 0
-772 0
-367 0
-483 0
-712 489 0
-852 47 0
-646 -476 0
-109 0
374 -721 0
747 -211 0
-824 325 0
-602 0
-200 0
-802 0
-60 -723 0
272 -915 0
-561 -697 0
-307 -418 0
-7 0
-280 801 0
416 -269 0
-229 0
-927 0
-494 -113 0
-779 0
11 -859 0
-342 -299 0
-534 -73 0
171 -236 0
979 -45 0
-174 -537 0
-480 0
777 -217 0
-389 0
-715 0
-862 0
-371 -265 0
-245 0
-269 54 0
-111 0
-571 0
-441 0
-432 180 0
-10 0
-974 0
-247 0
-978 479 0
-857 0
-286 -500 0
-715 0
-114 -257 0
-409 0
131 -491 0
-616 12 0
963 -860 0
-248 995 0
-405 613 0
-966 -171 0
-632 0
561 -534 0
-741 -114 0
-805 0
-71 0
-187 759 0
-570 167 0
-143 698 0
-939 0
-295 0
-710 -37 0
-212 -26 0
-275 525 0
-647 0
-389 0
-161 -753 0
426 -13 0
-722 0
-787 -115 0
-89 0
252 -819 0
-288 0
-830 0
-329 0
530 -444 0
-90 -17 0
-336 -819 0
-446 -597 0
-826 462 0
296 -636 0
-691 0
-911 -13 0
-402 -754 0
-319 98 0
-694 -514 0
-592 0
-232 0
-276 190 0
-344 709 0
25 -182 0
-507 -754 0
121 -369 0
-601 0
-653 719 0
-495 737 0
-670 0
-938 350 0
-67 0
-997 0
771 -939 0
-479 -399 0
-757 868 0
-462 742 0
-655 -244 0
-66 0
955 -931 0
-682 0
-281 0
-264 -517 0
200 -341 0
387 -100 0
617 -558 0
741 -915 0
-902 -542 0
-690 0
-134 0
-128 0
-446 430 0
-377 0
-546 -577 0
-438 0
510 -713 0
-438 -657 0
-603 231 0
-336 0
-129 0
-207 719 0
-283 -250 0
-205 0
16 -577 0
-289 0
-460 0
-142 18 0
-64 0
621 -291 0
-485 0
-293 0
-103 102 0
-325 804 0
-418 0
-670 -523 0
-960 0
-536 89 0
51 -852 0
-489 0
-495 0
-411 173 0
824 -877 0
363 -420 0
-706 0
-744 950 0
-184 239 0
-791 -509 0
-288 -339 0
-798 0
756 -41 0
-232 56 0
-219 0
479 -961 0
-904 280 0
-1000 -303 0
-375 502 0
409 -981 0
98 -330 0
-461 979 0
587 -963 0
-797 0
-671 -956 0
-726 0
-662 325 0
-462 895 0
745 -211 0
297 -662 0
-265 0
-279 602 0
-642 0
-744 -532 0
-45 955 0
-462 -349 0
-61 0
-421 563 0
242 -67 0
-236 -722 0
-505 0
-437 -897 0
-504 69 0
-846 0
-544 0
-380 764 0
-436 0
298 -425 0
-614 0
-13 0
-834 574 0
-230 -332 0
-104 0
-742 0
-576 -661 0
-174 0
-864 0
646 -362 0
61 -993 0
-351 0
-510 0
-901 0
-791 0
-941 0
-327 0
-398 223 0
-559 0
-606 0
-758 -701 0
-635 0
-633 0
-941 31 0
-524 0
-54 -254 0
232 -753 0
-527 242 0
-515 0
-60 645 0
-26 0
-508 0
-803 0
938 -372 0
-696 968 0
-240 0
911 -713 0
-362 0
-304 0
-576 -882 0
-800 0
-902 0
-863 0
-846 0
291 -394 0
-23 -308 0
-502 0
59 -500 0
-729 0
-138 0
-224 -317 0
-600 118 0
-490 0
-613 540 0
-854 0
-208 -116 0
-400 0
-40 -51 0
-813 886 0
-869 0
-224 0
-740 -178 0
-385 0
-190 -874 0
785 -788 0
-172 0
-882 0
-1000 889 0
-575 -303 0
560 -803 0
-84 894 0
-641 0
-30 859 0
-143 444 0
-403 0
69 -265 0
-111 303 0
-860 0
969 -987 0
-938 0
-901 0
-984 0
789 -25 0
-737 0
-115 0
-299 973 0
-359 138 0
-951 829 0
-372 0
-68 566 0
-427 0
-407 -862 0
-336 -28 0
-307 510 0
-526 0
608 -784 0
-101 0
-500 0
550 -33 0
-264 475 0
-552 -991 0
716 -601 0
-947 0
-930 0
-903 0
-131 -467 0
-610 0
-677 0
605 -715 0
764 -297 0
-102 142 0
741 -202 0
-660 86 0
-657 0
-480 -410 0
-47 0
682 -140 0
-122 0
-980 0
-571 0
-38 180 0
-844 0
-95 0
-767 0
-765 455 0
482 -436 0
338 -994 0
757 -899 0
-683 0
425 -446 0
-576 0
154 -274 0
-39 740 0
809 -556 0
580 -988 0
392 -505 0
-344 0
-746 0
-880 0
-453 187 0
-270 0
-846 -75 0
-632 591 0
-255 754 0
740 -857 0
272 -178 0
625 -630 0
-654 -803 0
-727 -657 0
-175 -324 0
569 -676 0
-80 0
-324 0
488 -882 0
-149 0
-805 -557 0
796 -473 0
-700 0
-267 0
-583 102 0
-746 -313 0
-952 0
-519 838 0
-175 -289 0
-174 0
-445 420 0
-723 0
-701 0
-581 0
-399 891 0
-788 0
-392 0
846 -945 0
-971 782 0
770 -651 0
-550 0
-110 331 0
-936 810 0
-847 852 0
-696 0
-840 -64 0
-486 -130 0
-431 0
-324 0
-231 690 0
313 -570 0
168 -280 0
-855 -283 0
439 -889 0
-909 -602 0
-287 327 0
-474 0
191 -65 0
106 -53 0
-549 781 0
-229 934 0
-229 0
-486 -596 0
-740 0
-795 0
-143 -515 0
-404 0
-446 -707 0
-160 378 0
294 -34 0
11 -106 0
-795 -594 0
594 -443 0
-924 0
-320 922 0
307 -193 0
-768 963 0
-792 0
-531 -930 0
-96 867 0
-932 -417 0
-479 -452 0
851 -9 0
-471 142 0
-496 -22 0
857 -942 0
-23 -638 0
358 -114 0
-823 -694 0
-378 0
660 -588 0
-547 638 0
626 -460 0
-181 0
74 -162 0
-359 -113 0
-67 0
-605 723 0
-354 271 0
-512 0
-210 0
-120 -94 0
-959 -215 0
-427 0
168 -755 0
-317 0
-396 0
-412 0
-313 0
-935 0
-524 0
-529 0
553 -915 0
-896 681 0
-194 -369 0
-94 -652 0
-568 0
-600 81 0
-362 0
456 -792 0
-112 -990 0
592 -995 0
-420 0
-598 0
-420 0
-769 0
-486 444 0
-6 0
-38 205 0
-989 -492 0
-105 0
-934 0
-519 0
-808 518 0
61 -897 0
-255 0
-662 0
-904 543 0
-977 0
-970 -377 0
-159 -499 0
-91 0
-789 0
537 -46 0
-904 -613 0
-542 725 0
-167 49 0
-23 508 0
-470 0
-232 572 0
249 -675 0
-9 0
-871 0
-745 0
-426 679 0
-174 -10 0
-328 -62 0
-685 0
-710 723 0
-130 0
-91 0
-688 -737 0
-93 207 0
-650 0
-557 0
-449 0
-162 0
-144 -426 0
107 -699 0
-325 0
-373 0
-899 341 0
-744 213 0
-414 719 0
-663 -906 0
-117 -11 0
-291 0
-178 0
-254 131 0
-80 -106 0
-295 372 0
-529 0
345 -891 0
-87 0
149 -146 0
-271 934 0
-475 -875 0
-751 -389 0
-864 -310 0
-991 0
170 -482 0
-177 0
-309 -946 0
-156 470 0
-182 151 0
-39 0
-551 820 0
786 -345 0
-571 199 0
-624 51 0
48 -735 0
964 -978 0
-838 -739 0
-135 898 0
-894 0
-747 -403 0
665 -171 0
-774 365 0
-89 0
-959 -481 0
-91 0
840 -428 0
-200 0
-470 -210 0
-334 0
-180 -468 0
-469 -132 0
785 -145 0
-142 0
-145 263 0
801 -660 0
-247 -625 0
-661 -881 0
-904 0
-190 0
-421 -345 0
-813 950 0
-221 -740 0
-366 851 0
-728 721 0
-991 357 0
-564 0
-821 0
347 -658 0
-738 295 0
-528 0
-416 0
-894 -380 0
-26 0
642 -89 0
-439 178 0
-284 350 0
-209 0
858 -601 0
827 -691 0
-818 903 0
-125 -252 0
793 -927 0
696 -283 0
613 -409 0
-932 846 0
-76 0
-407 -10 0
-50 0
-582 0
-714 0
-347 0
544 -76 0
-109 203 0
-448 909 0
-48 -196 0
-440 991 0
-484 0
-52 0
-447 745 0
-668 0
-447 0
-61 0
-282 0
1 -996 0
-91 0
-303 -858 0
885 -626 0
-595 0
442 -757 0
-185 0
482 -501 0
-584 187 0
-16 -215 0
410 -458 0
-334 0
-574 0
-70 0
-444 0
-15 -587 0
-430 0
-677 -921 0
-340 580 0
-439 -114 0
-438 -859 0
-914 0
-164 0
-838 475 0
760 -428 0
205 -107 0
-583 981 0
841 -591 0
-265 0
-272 0
-112 1000 0
-758 -626 0
-182 0
-747 0
-807 -441 0
428 -306 0
-112 358 0
-546 0
-223 0
770 -381 0
-940 750 0
-690 0
10 -194 0
-650 0
-349 0
261 -345 0
-420 0
-427 903 0
-735 196 0
-847 -530 0
-477 0
817 -500 0
-391 891 0
-112 54 0
-707 -137 0
130 -259 0
-380 -305 0
-621 662 0
-471 0
-100 830 0
-547 575 0
-966 300 0
-924 0
-662 0
472 -707 0
-592 329 0
-349 0
-715 0
-995 0
-613 -524 0
650 -190 0
-218 0
-373 0
-166 0
-38 373 0
369 -374 0
-566 -588 0
-373 0
-15 -356 0
-449 0
-130 0
498 -276 0
869 -186 0
-487 -949 0
-597 663 0
849 -926 0
-13 286 0
-803 0
-77 0
662 -354 0
675 -667 0
-731 383 0
-142 0
-145 0
-54 0
-198 338 0
-718 0
-834 0
992 -642 0
-271 719 0
644 -195 0
112 -895 0
-106 0
-467 231 0
-104 -506 0
-266 -161 0
-946 -314 0
-843 -594 0
-982 0
-312 0
-887 -36 0
673 -218 0
-759 -244 0
-832 737 0
-591 0
-125 0
-720 -555 0
-89 0
-760 996 0
-510 735 0
-391 -50 0
-287 373 0
-514 647 0
-452 -42 0
-374 -731 0
-58 0
957 -697 0
-862 0
-753 0
75 -154 0
-814 0
-953 0
-152 -493 0
-911 0
-242 0
-583 0
-373 -555 0
387 -521 0
-941 975 0
-389 404 0
-571 0
845 -98 0
-644 0
-302 0
-814 0
-714 0
-822 221 0
-653 -476 0
-563 342 0
-826 0
-827 -625 0
-926 -572 0
745 -611 0
-333 0
-887 0
-519 852 0
-677 -285 0
978 -90 0
-629 0
-955 223 0
-773 -595 0
-132 365 0
-136 0
-639 -269 0
405 -226 0
-389 0
632 -859 0
-803 0
842 -877 0
-366 142 0
481 -981 0
-287 -163 0
-328 159 0
-367 0
-799 0
-715 0
-948 0
-255 0
-148 0
-998 0
-246 -252 0
-136 652 0
-685 -234 0
232 -990 0
584 -299 0
-990 -244 0
-568 0
-883 0
-128 0
-320 -937 0
-588 95 0
-715 -962 0
-58 0
359 -945 0
-837 -388 0
-102 0
806 -401 0
-936 -473 0
-784 -458 0
-968 0
-6 -205 0
-972 0
-36 0
-922 0
-154 0
-205 -859 0
56 -489 0
-16 0
801 -212 0
-640 0
-256 -99 0
-302 0
-295 -44 0
-39 0
243 -938 0
-493 -434 0
168 -879 0
-943 0
664 -169 0
-299 0
-260 0
-2 455 0
-162 0
884 -411 0
-557 0
-615 0
192 -3 0
-557 -793 0
359 -265 0
-197 0
-744 -13 0
-51 567 0
-330 0
129 -492 0
-297 0
-688 0
-242 0
466 -364 0
-558 0
-216 -773 0
-421 -524 0
618 -634 0
-573 13 0
-779 0
-254 390 0
-716 39 0
-180 -835 0
341 -923 0
336 -860 0
-240 197 0
-478 -150 0
-64 0
-542 0
-222 627 0
-63 0
-813 0
736 -104 0
-969 0
-705 0
-132 839 0
-142 -762 0
-253 0
387 -969 0
-984 -196 0
-252 -281 0
352 -885 0
-55 -833 0
-824 -70 0
864 -328 0
-621 -628 0
-318 406 0
-565 -371 0
-211 0
-710 -393 0
377 -219 0
-713 927 0
-873 0
-385 0
-693 0
-933 -635 0
-616 0
-942 0
-380 0
-351 0
912 -966 0
368 -42 0
571 -789 0
-805 0
-682 0
347 -780 0
304 -953 0
-860 0
-341 324 0
-792 -372 0
-623 804 0
-790 0
84 -730 0
-203 0
-206 0
-189 839 0
-285 -387 0
-379 775 0
-257 0
-230 303 0
-976 948 0
-694 0
-151 383 0
-211 614 0
-184 0
659 -565 0
-344 670 0
-232 424 0
-242 0
-221 -787 0
-118 0
-279 -393 0
-885 477 0
784 -409 0
-33 0
-283 0
-61 0
-690 0
-118 998 0
-904 355 0
-84 0
-6 0
-810 0
-598 854 0
-16 -697 0
-236 0
856 -332 0
-573 484 0
-974 0
753 -933 0
-888 876 0
-350 0
-133 0
242 -805 0
357 -233 0
-400 -797 0
-991 -110 0
-788 0
-1 0
-792 -877 0
-958 -195 0
-334 283 0
-361 0
499 -794 0
-684 182 0
-708 -490 0
592 -31 0
-909 0
-150 -660 0
-559 0
682 -969 0
-348 645 0
-839 0
-999 43 0
-893 0
-472 -437 0
-26 0
-921 0
-143 -273 0
-559 -445 0
-171 733 0
170 -803 0
-900 326 0
-14 -130 0
-808 618 0
866 -681 0
-319 -115 0
818 -90 0
-989 517 0
537 -99 0
-459 -617 0
-374 -26 0
-258 0
-85 -585 0
965 -362 0
-222 -141 0
-531 0
-743 694 0
-437 0
-852 863 0
-175 178 0
-8 922 0
-933 221 0
808 -465 0
209 -255 0
-416 -313 0
660 -675 0
-796 -331 0
-898 0
768 -657 0
-630 893 0
-818 0
345 -436 0
-400 0
-160 0
728 -454 0
-548 -979 0
-374 -315 0
-434 0
-610 0
-725 487 0
-786 0
-152 -591 0
-696 791 0
-538 0
-584 0
713 -276 0
-35 0
-398 108 0
889 -722 0
-278 795 0
752 -150 0
-574 0
856 -100 0
-757 181 0
-70 -638 0
544 -261 0
-202 0
-605 -923 0
-380 70 0
-496 0
876 -923 0
490 -731 0
-396 0
392 -685 0
-237 -205 0
-509 -89 0
-199 862 0
339 -421 0
-735 476 0
859 -499 0
-770 0
-24 0
-125 388 0
-611 -778 0
-543 -897 0
388 -729 0
-550 -969 0
-128 0
-172 398 0
-697 0
-467 0
-328 609 0
451 -108 0
-684 -202 0
-835 0
-315 0
191 -281 0
-624 166 0
-960 -508 0
-572 365 0
-505 0
-412 0
-393 0
-728 184 0
-460 349 0
-365 -331 0
581 -931 0
210 -852 0
-627 0
-315 0
771 -826 0
-710 0
-588 278 0
594 -58 0
-490 0
544 -855 0
-538 -865 0
835 -949 0
-391 937 0
-830 0
-173 -581 0
-86 0
-261 0
-180 0
-643 679 0
644 -753 0
-277 -858 0
384 -76 0
616 -162 0
320 -424 0
-616 206 0
-626 0
-148 445 0
-944 -819 0
-175 -702 0
-564 236 0
-319 694 0
-52 373 0
-24 594 0
-84 -516 0
505 -543 0
-761 0
-442 -186 0
-409 335 0
-180 117 0
498 -466 0
-162 0
-838 810 0
843 -587 0
-390 821 0
-913 0
-30 0
-574 -398 0
-850 0
-928 -792 0
-558 0
-507 662 0
-683 -177 0
-562 0
-349 -321 0
-456 -995 0
173 -985 0
-606 0
746 -699 0
-510 0
-213 -273 0
716 -450 0
-127 -835 0
-764 407 0
632 -653 0
-564 -513 0
-613 671 0
-986 0
-621 0
-37 -610 0
-458 0
-383 0
-992 198 0
-594 0
-621 997 0
-383 642 0
-972 0
-214 -52 0
-776 280 0
-280 0
-741 0
-145 0
-94 479 0
-624 0
-280 -811 0
-959 -770 0
-680 797 0
-70 0
-864 191 0
438 -809 0
-779 0
152 -749 0
-542 -763 0
-854 859 0
912 -391 0
-407 -197 0
-310 -337 0
-491 0
-654 -737 0
-40 -695 0
-744 240 0
-236 -225 0
-706 175 0
-137 0
-504 0
26 -805 0
-405 693 0
-437 503 0
308 -609 0
-167 891 0
-254 -689 0
128 -474 0
204 -931 0
-523 0
-581 0
201 -546 0
-591 509 0
-988 278 0
-923 510 0
-648 -365 0
-266 0
241 -826 0
-84 0
-499 693 0
-894 902 0
-558 0
-650 0
-185 0
-148 -268 0
-230 0
-107 0
-250 0
189 -465 0
-381 0
-901 932 0
201 -506 0
-474 0
872 -789 0
-530 0
715 -572 0
-288 39 0
-456 172 0
-893 614 0
-730 0
178 -482 0
-750 0
-600 0
-577 0
27 -850 0
243 -277 0
-839 -161 0
212 -481 0
-300 685 0
-896 99 0
832 -851 0
-141 0
115 -122 0
-270 78 0
-651 0
-453 421 0
-566 0
-267 0
-294 -234 0
-228 0
-856 0
152 -66 0
-774 691 0
-912 0
-173 -764 0
50 -955 0
-378 0
-727 0
-324 -130 0
-876 0
-584 0
-776 0
-397 845 0
632 -469 0
-495 -289 0
-315 0
-393 0
-975 0
-865 0
-569 0
724 -971 0
-365 -569 0
-485 0
-513 0
-90 0
-322 487 0
592 -996 0
-30 0
-958 15 0
-888 0
-152 0
-197 637 0
-727 611 0
-454 0
-161 0
900 -276 0
-184 870 0
-968 0
-874 0
369 -715 0
-497 0
-572 886 0
212 -692 0
912 -457 0
992 -100 0
347 -308 0
777 -542 0
-177 0
-829 0
577 -217 0
-499 -619 0
-711 0
-168 329 0
-766 0
-380 831 0
-22 -419 0
592 -258 0
-617 0
-415 0
945 -508 0
-230 0
344 -206 0
-616 484 0
-612 0
-879 -621 0
906 -974 0
-550 -797 0
-638 -978 0
-615 0
-776 342 0
-362 0
-561 0
-347 -970 0
-550 0
-176 0
-647 470 0
-221 -370 0
-169 0
-373 630 0
-324 0
-556 0
692 -163 0
-116 0
251 -731 0
-729 0
-900 0
-971 0
349 -442 0
-142 -817 0
-942 471 0
-203 0
-977 0
-661 -19 0
-739 0
-741 0
-760 0
-528 0
-733 -293 0
-748 0
-186 0
-352 0
-702 0
-800 -347 0
-23 231 0
616 -281 0
297 -370 0
-56 0
-230 0
-822 0
-890 0
-78 0
-400 0
275 -305 0
84 -401 0
713 -965 0
-827 0
-808 327 0
-326 631 0
148 -411 0
-398 0
-711 -516 0
-295 0
-505 0
-745 0
-127 0
-651 0
-295 -268 0
-773 0
-373 0
-574 0
-144 0
-817 0
-223 -254 0
112 -957 0
-157 406 0
-462 -60 0
-134 0
-84 29 0
-911 0
484 -129 0
298 -774 0
-883 0
-44 0
-734 0
577 -743 0
-840 0
187 -369 0
-914 0
-944 0
-631 0
-9 0
921 -195 0
-893 0
-618 0
-769 -609 0
-104 -83 0
-784 0
-568 0
-831 0
-66 879 0
-198 574 0
-554 -657 0
812 -875 0
-126 0
731 -866 0
56 -706 0
-89 287 0
-894 0
-116 838 0
-248 -930 0
-128 0
-418 0
-976 0
-758 0
-420 93 0
-403 62 0
-430 0
-202 550 0
-337 0
-425 0
-578 0
-346 894 0
-150 -222 0
-764 -697 0
817 -554 0
378 -385 0
642 -130 0
-366 -405 0
-239 251 0
-361 23 0
-429 0
-65 0
-398 -425 0
104 -682 0
-67 -250 0
-377 -801 0
-784 0
180 -827 0
-928 -358 0
-69 869 0
-243 0
-602 -874 0
-250 855 0
-1000 -275 0
-63 0
259 -673 0
-934 0
-581 -220 0
-951 308 0
-323 -146 0
-856 970 0
900 -732 0
-993 0
-127 -718 0
-184 0
449 -87 0
-360 0
-355 0
460 -27 0
-234 0
242 -497 0
-775 0
-304 709 0
-839 0
233 -878 0
-163 0
-186 0
-517 389 0
105 -803 0
-992 -835 0
49 -355 0
75 -357 0
-935 -913 0
-11 -858 0
-931 0
-894 805 0
-264 98 0
-127 338 0
-673 783 0
-772 0
-727 62 0
-105 407 0
-302 0
426 -540 0
-28 766 0
-166 0
-271 -405 0
234 -193 0
-213 0
-896 -330 0
408 -591 0
-183 74 0
-554 0
-980 5 0
-608 0
-26 103 0
-56 966 0
-528 -363 0
-711 -299 0
-809 311 0
-711 0
-469 0
-287 342 0
-841 0
-594 0
-98 0
-478 -131 0
-997 0
-776 908 0
-876 0
-669 -788 0
282 -561 0
-932 -186 0
-790 0
-984 391 0
714 -292 0
-863 0
-729 0
-286 -1 0
170 -857 0
-980 55 0
937 -457 0
-185 0
-416 963 0
-445 -362 0
-611 0
-604 0
-858 -722 0
-341 29 0
-784 711 0
-912 0
882 -185 0
-215 0
-34 0
-783 190 0
-874 0
-88 -957 0
-112 991 0
-855 697 0
670 -169 0
197 -897 0
936 -487 0
-714 0
-516 591 0
-124 0
-911 0
604 -811 0
-103 -89 0
140 -969 0
-328 0
-57 0
-905 0
-47 607 0
-418 79 0
265 -750 0
-743 0
-296 -413 0
726 -729 0
-31 457 0
-411 0
104 -446 0
185 -748 0
-155 0
-173 -321 0
-495 206 0
-41 0
-945 0
688 -41 0
202 -707 0
-111 -610 0
-829 -876 0
-838 0
-549 0
-270 667 0
-701 -84 0
-759 0
-942 -346 0
-237 795 0
-310 443 0
946 -257 0
-181 0
-279 0
-428 823 0
-507 0
595 -693 0
-421 919 0
73 -89 0
-504 550 0
-797 -365 0
-859 -650 0
-68 0
-764 -19 0
51 -705 0
897 -845 0
-815 -283 0
-723 0
-236 0
-607 269 0
638 -130 0
318 -457 0
-499 0
-758 -828 0
-172 0
-351 -343 0
-239 -780 0
-561 0
-924 -891 0
-834 0
-352 -504 0
84 -633 0
-286 694 0
-165 0
-600 -583 0
-504 259 0
-501 77 0
398 -266 0
67 -609 0
-134 0
-271 462 0
-461 463 0
571 -993 0
152 -390 0
184 -133 0
-513 0
-279 661 0
-311 -589 0
265 -18 0
106 -545 0
-974 -507 0
201 -882 0
896 -437 0
-580 0
-314 0
-229 0
484 -35 0
-666 694 0
-830 0
200 -509 0
145 -617 0
-798 0
-421 0
-362 495 0
-980 0
-964 0
820 -347 0
-882 -2 0
-229 -897 0
-300 293 0
-440 0
-608 0
-707 -219 0
-136 383 0
-743 501 0
168 -138 0
-483 893 0
436 -818 0
-183 0
-509 -329 0
-821 0
-471 0
540 -219 0
833 -878 0
-915 -338 0
-701 851 0
276 -993 0
-31 519 0
-492 0
-792 -988 0
-938 0
462 -194 0
-258 0
-896 258 0
-816 492 0
-514 0
-506 0
-672 0
-735 59 0
96 -477 0
-56 450 0
-84 0
-257 0
-641 0
-187 661 0
-782 6 0
269 -547 0
-331 0
65 -308 0
320 -63 0
-534 0
-71 0
-971 0
-743 0
-819 0
-500 0
-648 -852 0
-431 -396 0
-496 0
-20 0
-349 -323 0
-8 0
-693 -403 0
137 -822 0
-9 0
-907 0
-158 715 0
-743 390 0
-655 0
-85 0
-842 0
-404 0
-189 -874 0
-191 437 0
-131 0
385 -19 0
-341 0
-394 0
-516 0
261 -315 0
-312 -356 0
-152 0
-453 0
986 -331 0
-736 0
-169 583 0
-183 758 0
-196 887 0
-752 339 0
-686 819 0
637 -770 0
186 -155 0
752 -387 0
-393 367 0
-360 0
-531 246 0
-847 -35 0
-864 -713 0
-625 0
-367 754 0
160 -61 0
170 -708 0
-812 -131 0
-60 0
-860 0
-6 0
-198 0
-123 0
-656 -644 0
-894 275 0
-530 0
-778 0
412 -172 0
-333 915 0
-384 0
-990 684 0
-560 -523 0
-287 -878 0
-805 0
-258 0
-369 0
-550 0
934 -105 0
-785 0
-572 94 0
-558 -42 0
-536 0
-304 0
-471 874 0
-852 0
-485 0
-186 0
-512 -137 0
840 -682 0
-86 0
-31 0
-561 0
-790 685 0
-711 -65 0
-277 844 0
-848 -237 0
-184 -162 0
-50 0
713 -750 0
-508 -275 0
-80 875 0
-112 679 0
-863 -465 0
716 -795 0
-38 302 0
-469 -387 0
438 -610 0
-928 303 0
-887 0
-230 499 0
-712 0
-714 0
-479 0
433 -866 0
-807 0
-829 901 0
-365 -452 0
321 -915 0
-988 -153 0
-811 415 0
-798 523 0
-904 -843 0
-159 -345 0
-269 -972 0
-796 934 0
-950 499 0
-663 87 0
-709 0
385 -862 0
-523 0
-367 281 0
-15 0
-342 -237 0
-588 0
-208 0
-639 606 0
-845 404 0
-472 -212 0
276 -835 0
-57 0
-233 0
-257 0
-518 630 0
-255 0
-69 0
-504 121 0
-638 -715 0
275 -953 0
-368 -342 0
-422 915 0
-522 0
-943 -1 0
-128 981 0
-623 0
-789 -84 0
-150 0
-494 0
-518 500 0
-7 0
-297 31 0
-56 0
-460 493 0
346 -83 0
-418 0
-346 0
-150 -693 0
-446 0
-826 0
-928 -286 0
-712 606 0
842 -931 0
788 -521 0
-13 -301 0
-585 0
723 -177 0
-471 0
726 -482 0
-416 417 0
90 -698 0
-648 -593 0
-655 781 0
-552 -74 0
-452 0
-111 0
-986 0
-197 0
-279 0
-707 0
-920 0
-691 0
-27 167 0
-501 0
4 -867 0
-824 -806 0
506 -852 0
139 -386 0
-916 309 0
-267 663 0
-696 0
-25 0
-187 0
-439 0
-510 -18 0
-520 -296 0
-148 0
-292 0
-940 -801 0
-280 -250 0
-958 0
773 -425 0
-845 0
923 -515 0
-428 966 0
220 -834 0
-7 0
-942 517 0
-317 964 0
-879 -955 0
-381 -329 0
-458 0
-48 0
-400 0
333 -490 0
-582 0
-229 542 0
-952 549 0
633 -769 0
-678 691 0
-331 0
-186 0
465 -179 0
52 -323 0
-304 843 0
-146 510 0
312 -617 0
-421 382 0
-446 383 0
-573 -893 0
-701 0
-727 900 0
-775 0
-784 509 0
-920 0
-917 -277 0
275 -490 0
-194 0
640 -449 0
-164 0
-74 0
-631 778 0
-455 0
945 -445 0
-343 0
-32 808 0
450 -36 0
-746 0
-197 0
-786 0
75 -906 0
283 -137 0
-267 0
-320 0
-939 0
-860 -796 0
-231 0
-391 434 0
-11 -545 0
-831 -894 0
-510 0
-543 417 0
-959 0
-605 767 0
-953 0
-814 594 0
-910 0
944 -166 0
-731 0
835 -37 0
-926 0
-718 -907 0
-995 383 0
-85 540 0
-215 239 0
-451 0
-174 0
-852 0
-902 0
600 -837 0
-934 -268 0
328 -314 0
553 -389 0
-470 659 0
-21 548 0
882 -178 0
129 -601 0
-118 -748 0
-608 -437 0
-578 0
-613 0
-655 0
185 -569 0
-391 0
-251 0
-135 -227 0
-775 548 0
-763 158 0
-760 0
-15 -428 0
-522 0
-968 934 0
-536 -293 0
-936 -579 0
-288 0
-62 -169 0
-532 0
989 -571 0
-86 0
236 -217 0
-71 99 0
-869 -138 0
-132 -107 0
-698 0
-509 883 0
-657 0
829 -794 0
-677 -833 0
-504 501 0
-553 0
-208 0
-330 0
-711 154 0
-174 0
884 -890 0
-947 0
-706 0
-848 445 0
811 -979 0
-943 -532 0
446 -793 0
-766 333 0
-137 0
-217 0
-48 714 0
-554 -225 0
-783 -978 0
-527 -298 0
-435 0
-748 -34 0
-728 0
-214 -549 0
810 -980 0
393 -841 0
-952 756 0
176 -631 0
-314 0
-448 0
-358 -244 0
-819 0
897 -39 0
-534 845 0
-86 644 0
-661 0
522 -371 0
-341 -100 0
-840 0
-314 0
-446 0
-435 0
-551 845 0
-203 0
948 -553 0
420 -850 0
521 -95 0
-14 534 0
-708 359 0
-200 819 0
-821 -285 0
-679 -310 0
-7 644 0
550 -650 0
-25 0
761 -493 0
-238 119 0
-88 0
-782 242 0
-230 -866 0
904 -490 0
684 -377 0
646 -410 0
-62 -789 0
401 -702 0
-253 0
-423 0
-192 578 0
-517 852 0
894 -714 0
-824 0
-828 0
-308 0
104 -649 0
-536 665 0
970 -19 0
-237 0
-338 -97 0
-277 -789 0
408 -769 0
-629 503 0
-976 -406 0
242 -781 0
-923 -249 0
-768 -889 0
-104 -318 0
-461 0
-674 0
-134 -213 0
473 -227 0
-109 558 0
-960 0
160 -181 0
-941 435 0
-97 0
537 -940 0
698 -926 0
-125 0
-229 0
-493 -108 0
-913 0
-889 0
-240 0
-27 0
-200 -498 0
969 -786 0
-430 0
-199 0
-697 0
881 -782 0
-487 -946 0
-23 0
-672 0
-392 280 0
-717 484 0
-160 625 0
-138 0
709 -146 0
-553 0
-404 -403 0
-976 -177 0
-904 0
741 -369 0
-222 -805 0
-345 0
-906 0
-495 164 0
-704 0
-134 0
-166 917 0
-853 365 0
618 -374 0
-461 0
-218 591 0
-41 151 0
-622 621 0
-932 0
-902 0
-411 -401 0
-389 0
-262 63 0
-676 -58 0
-620 532 0
-454 0
-242 375 0
-487 76 0
-47 0
-351 0
796 -641 0
877 -474 0
-199 0
-828 0
-741 259 0
-262 0
44 -233 0
-574 -838 0
-348 222 0
-494 -467 0
-528 0
555 -627 0
-296 852 0
922 -777 0
-492 0
-660 0
-531 0
-943 86 0
960 -538 0
-870 0
-917 -801 0
945 -354 0
-342 0
-934 -998 0
-931 -35 0
-92 0
-378 0
-645 -825 0
979 -708 0
-29 -161 0
-512 0
-718 0
386 -915 0
-806 799 0
617 -997 0
-197 -978 0
-654 -825 0
990 -753 0
-204 933 0
-131 0
-386 0
-575 0
-245 126 0
-166 683 0
-696 -871 0
-428 0
-528 -583 0
-397 0
-859 -370 0
-877 6 0
-725 0
-243 0
-696 445 0
918 -241 0
-468 0
752 -722 0
-610 0
-519 0
-179 0
-587 54 0
-342 0
-407 0
-102 783 0
728 -291 0
-14 0
-771 0
-406 0
-619 0
-557 380 0
-167 -631 0
-155 0
-323 0
832 -214 0
-942 0
-122 0
-537 -721 0
-640 -814 0
-245 0
-84 0
-876 0
-39 -851 0
-364 335 0
72 -971 0
-215 -657 0
114 -251 0
-520 0
-355 0
-253 655 0
814 -522 0
-514 0
-341 0
-796 645 0
-21 271 0
516 -321 0
-918 -971 0
-877 0
657 -450 0
-205 0
-222 0
-28 -284 0
-68 0
-248 583 0
-137 0
-219 -713 0
-831 -508 0
-952 0
-315 151 0
124 -435 0
723 -281 0
-204 -49 0
-215 637 0
-871 891 0
-148 0
-74 0
-284 -970 0
-670 125 0
777 -273 0
-792 -678 0
-340 0
-344 0
-584 -239 0
-709 0
-503 -930 0
-340 0
-638 -857 0
-416 0
43 -956 0
-549 -260 0
-792 155 0
-70 0
-309 0
-359 -622 0
827 -523 0
-125 -732 0
-699 0
-632 135 0
-729 0
-839 -141 0
-446 0
-141 -602 0
-665 735 0
812 -75 0
-64 0
-826 -529 0
-192 0
-910 0
-911 0
-827 0
-151 -949 0
-510 -654 0
-446 591 0
-297 0
-222 -971 0
-188 -386 0
-407 -5 0
-87 -310 0
-917 0
-911 -219 0
-319 -540 0
-309 0
456 -347 0
-966 -805 0
-776 -75 0
778 -305 0
-961 0
-373 0
-696 985 0
-485 -196 0
-57 0
-459 0
-213 581 0
-556 334 0
-845 679 0
113 -54 0
-197 367 0
-38 -489 0
-273 831 0
-140 -524 0
924 -619 0
-452 0
552 -521 0
-558 284 0
-622 917 0
322 -418 0
-624 628 0
-901 197 0
-965 -65 0
-230 631 0
-973 -179 0
-7 0
-814 0
-138 334 0
-869 -955 0
-405 0
-727 965 0
-768 309 0
-3 -145 0
-550 -385 0
-559 0
-1000 -694 0
-559 -913 0
874 -836 0
-72 523 0
-338 -801 0
-379 0
-312 0
-194 0
-893 187 0
721 -946 0
-411 0
-663 0
-789 0
-808 -94 0
-129 -273 0
-294 163 0
-339 -97 0
-875 0
-735 405 0
-472 0
-925 0
-695 0
-336 29 0
-554 0
37 -825 0
-657 0
-639 -23 0
-551 702 0
-189 0
-301 -994 0
-66 0
-742 0
754 -924 0
-320 -735 0
-95 -309 0
-8 -993 0
-598 0
312 -319 0
-679 0
-174 543 0
-294 -521 0
-112 506 0
-337 0
-529 0
-320 0
-216 348 0
-758 0
-256 91 0
-910 0
-775 847 0
-864 0
-498 -673 0
-180 268 0
-238 563 0
560 -252 0
-497 0
-86 -350 0
-821 -108 0
-426 0
868 -884 0
-24 -847 0
-774 359 0
-598 877 0
-275 0
33 -644 0
-665 0
432 -746 0
-55 0
-806 0
-74 38 0
220 -986 0
-591 -783 0
-718 -914 0
-406 -588 0
-19 0
-238 0
404 -427 0
-464 0
725 -3 0
-295 233 0
-808 -222 0
896 -622 0
-461 94 0
-24 -864 0
269 -787 0
-192 49 0
194 -347 0
-704 -89 0
-369 0
-290 0
-279 751 0
-937 199 0
-484 -746 0
273 -681 0
-887 -257 0
-340 0
-375 0
-316 -737 0
640 -243 0
-913 0
508 -675 0
-128 -605 0
234 -482 0
-351 564 0
923 -915 0
624 -423 0
-44 -275 0
-424 139 0
-565 0
-730 -409 0
-257 0
-471 -625 0
-424 0
-364 -108 0
-893 -394 0
-642 0
257 -245 0
-821 -185 0
-16 0
-341 -979 0
-683 0
-87 106 0
-424 525 0
-288 513 0
336 -686 0
-249 0
-694 0
721 -467 0
-447 0
-794 0
-397 0
-427 0
782 -553 0
-563 0
-6 -748 0
904 -889 0
-267 854 0
-318 959 0
-491 0
-586 0
-144 177 0
-790 819 0
-450 0
-399 -60 0
-379 -825 0
-582 0
932 -377 0
19 -618 0
-272 0
-564 0
128 -215 0
-111 -937 0
-576 564 0
-967 0
152 -673 0
-703 155 0
865 -574 0
-800 0
-95 0
575 -177 0
-597 -379 0
937 -85 0
-592 -190 0
-672 0
-453 0
-375 -146 0
17 -674 0
-211 -473 0
-206 0
883 -373 0
-399 0
-644 0
-387 0
-131 0
-862 3 0
-937 0
-538 0
-718 -858 0
-679 458 0
702 -849 0
-736 641 0
-695 0
-46 106 0
-735 403 0
-788 0
162 -977 0
-40 -771 0
-410 0
-719 86 0
322 -965 0
-95 0
-823 0
-615 -308 0
-378 0
-27 703 0
596 -89 0
-224 0
620 -20 0
-739 813 0
-656 0
-327 0
-140 0
-355 0
-642 0
-868 245 0
-120 -601 0
-235 0
828 -689 0
-598 877 0
-656 -782 0
-206 703 0
-792 0
170 -700 0
-980 215 0
-45 0
11 -658 0
545 -190 0
-935 429 0
-38 0
483 -18 0
344 -124 0
-184 -338 0
-751 -630 0
-176 0
-984 844 0
-565 -372 0
-893 -993 0
-30 0
-541 0
-779 -361 0
-205 0
-435 0
492 -323 0
-576 978 0
-515 350 0
-46 0
-205 853 0
-446 0
-893 0
-221 0
-441 0
21 -602 0
-651 -241 0
979 -881 0
-924 0
-617 0
-195 830 0
-382 -251 0
-114 0
-231 0
783 -345 0
-700 294 0
-348 0
-413 591 0
123 -99 0
-996 0
-868 285 0
779 -283 0
-592 0
-895 -820 0
-163 0
557 -473 0
-605 427 0
-253 0
-85 494 0
-108 -996 0
-790 0
-295 0
-830 510 0
-34 151 0
-625 0
-561 0
665 -479 0
664 -401 0
-790 0
-967 0
753 -297 0
-409 0
705 -52 0
-950 -761 0
-108 0
505 -913 0
811 -309 0
136 -967 0
-589 -187 0
-426 711 0
808 -535 0
-385 407 0
-232 -316 0
-200 805 0
-141 0
-784 -721 0
754 -209 0
-999 -340 0
-686 -658 0
-903 773 0
-138 -930 0
-823 0
179 -627 0
610 -521 0
-386 0
-760 -235 0
-857 0
-391 503 0
-666 262 0
-636 0
-520 0
-4 0
-580 981 0
-953 0
-211 335 0
-632 -583 0
-950 471 0
-835 0
571 -483 0
-146 0
-855 -627 0
-613 903 0
232 -416 0
-348 0
-688 0
-929 0
-938 0
-648 0
-464 374 0
-118 0
-897 0
-121 0
910 -738 0
350 -338 0
-486 -269 0
-213 246 0
-416 0
-231 -174 0
-853 995 0
-283 0
-620 0
440 -457 0
-10 0
-214 0
652 -90 0
-219 0
-477 0
204 -425 0
-504 0
-322 0
-253 0
-868 -26 0
-618 0
-671 271 0
-428 0
-590 0
-806 -540 0
864 -758 0
-50 0
-790 -661 0
-712 308 0
600 -516 0
-306 766 0
-804 0
-879 243 0
-86 0
-480 583 0
-256 0
-321 0
-736 578 0
-537 0
396 -219 0
-499 -930 0
-389 0
-288 0
-821 644 0
-3 0
-647 -782 0
849 -541 0
768 -108 0
-454 0
-744 940 0
-997 -597 0
-94 -925 0
-784 0
-334 0
888 -940 0
-400 279 0
-688 872 0
-747 -289 0
-587 -634 0
-664 -288 0
-530 0
-927 901 0
211 -996 0
-449 0
-130 551 0
-791 661 0
-518 0
-484 0
-317 0
528 -824 0
306 -371 0
-707 143 0
-821 0
-928 362 0
-119 314 0
-557 0
-88 805 0
425 -131 0
-307 -946 0
-956 -137 0
-637 -489 0
-33 0
-432 175 0
-12 0
953 -722 0
-173 783 0
395 -500 0
428 -172 0
995 -252 0
102 -41 0
-379 0
963 -634 0
-565 0
860 -97 0
-863 -181 0
51 -841 0
-990 853 0
-883 653 0
-799 229 0
-72 0
-516 0
-943 497 0
246 -249 0
-451 0
-528 0
-187 0
-583 410 0
-878 -929 0
-501 0
-182 0
-396 -603 0
-308 0
-693 0
-48 169 0
749 -755 0
949 -986 0
-732 -443 0
-149 263 0
-67 743 0
-541 -290 0
-328 -734 0
609 -557 0
-731 0
256 -934 0
520 -55 0
-370 0
-908 454 0
450 -84 0
-357 -628 0
124 -729 0
-723 0
-600 0
-636 0
-846 0
-427 0
-246 300 0
49 -821 0
-735 685 0
-761 -49 0
-275 0
-267 0
-685 0
698 -483 0
-835 -153 0
-380 524 0
-790 0
-445 -521 0
-845 0
355 -721 0
-180 165 0
-96 0
-117 -644 0
-538 0
-859 -585 0
-502 -490 0
-789 0
448 -982 0
-950 803 0
-712 0
385 -546 0
-777 0
-313 0
-160 337 0
-425 0
-80 0
-728 -255 0
-94 -11 0
910 -953 0
-245 -627 0
950 -113 0
-20 0
-235 -369 0
-403 0
-664 -229 0
-337 0
-499 -626 0
-199 0
-958 0
424 -942 0
394 -683 0
-383 -569 0
-607 -502 0
-132 0
-70 0
-782 0
-806 0
-448 -662 0
784 -266 0
-664 -633 0
-973 0
-240 -626 0
-108 -876 0
-903 0
-743 443 0
-972 0
-415 0
-350 884 0
-761 0
-30 -309 0
-54 0
-909 398 0
332 -826 0
274 -643 0
-781 0
-813 0
-858 -577 0
-998 0
-894 643 0
868 -811 0
-206 -137 0
-932 0
-948 -956 0
-484 285 0
-479 0
-552 0
-868 0
-420 0
-523 -578 0
553 -150 0
-695 981 0
-527 -539 0
-429 0
-840 50 0
-156 -209 0
-158 0
-572 -673 0
-633 0
-600 441 0
-964 -395 0
683 -193 0
302 -922 0
-636 0
462 -753 0
-790 469 0
-694 0
-836 692 0
322 -716 0
-338 191 0
348 -707 0
-535 -942 0
322 -657 0
-188 0
-362 495 0
846 -257 0
-634 0
-533 0
-598 -929 0
-855 0
-735 0
-965 741 0
43 -325 0
-351 163 0
-701 0
-523 799 0
-923 0
-631 271 0
-169 0
-308 0
-405 -556 0
754 -502 0
-269 0
-811 0
852 -194 0
-22 0
-832 -203 0
-708 918 0
-445 63 0
-893 -122 0
898 -76 0
-44 111 0
-831 -76 0
-62 -684 0
-158 -867 0
-183 861 0
-238 -142 0
-52 174 0
-600 -970 0
881 -261 0
-272 -146 0
400 -276 0
-219 0
-552 0
496 -577 0
-582 0
-840 -658 0
-758 0
-365 0
-230 0
-660 118 0
354 -913 0
-225 0
-587 390 0
-595 951 0
-557 0
-711 -817 0
292 -940 0
-30 0
245 -250 0
-833 0
-440 783 0
-232 0
-684 -219 0
920 -181 0
-783 791 0
683 -106 0
-921 0
-129 0
275 -930 0
-442 0
-623 -196 0
-437 0
805 -939 0
761 -834 0
357 -51 0
-56 228 0
696 -538 0
-867 0
517 -706 0
-894 855 0
-790 -946 0
-821 134 0
-934 0
-537 0
-872 0
882 -521 0
722 -4 0
-690 -850 0
817 -683 0
-248 27 0
-314 -81 0
850 -916 0
-927 0
-781 0
-496 -970 0
-801 0
-445 0
769 -229 0
-471 -938 0
-149 0
95 -73 0
-549 0
-518 0
-635 0
-796 0
-537 0
-565 -105 0
-90 0
657 -500 0
-849 0
-403 -514 0
162 -498 0
-167 373 0
-350 0
418 -217 0
827 -35 0
-173 235 0
785 -700 0
-881 0
-511 -63 0
-349 0
-206 0
120 -164 0
-453 543 0
-525 0
-900 0
-747 0
449 -599 0
-455 -106 0
69 -409 0
84 -979 0
-479 0
-484 0
-250 767 0
-984 662 0
-887 -575 0
368 -624 0
738 -43 0
-886 0
-979 0
-612 0
282 -57 0
-517 0
-987 0
-701 436 0
-158 0
-667 0
-729 0
-976 372 0
475 -857 0
-152 601 0
-806 0
-742 0
141 -265 0
328 -393 0
-717 -964 0
-173 0
-880 23 0
-832 -933 0
-56 769 0
-382 0
-136 -920 0
-958 0
-558 -26 0
-661 -777 0
-896 453 0
-364 230 0
-544 154 0
-308 -67 0
736 -997 0
-879 -235 0
-111 366 0
-808 0
272 -461 0
-801 -273 0
777 -310 0
920 -909 0
-56 -574 0
394 -301 0
345 -13 0
-7 -252 0
-37 -809 0
-672 0
688 -599 0
-42 0
-552 0
-997 -228 0
-725 0
-126 -789 0
-512 0
-912 0
296 -606 0
-240 -265 0
-900 687 0
-427 0
-143 101 0
-285 0
-78 -989 0
-485 557 0
-47 121 0
-628 0
786 -145 0
-787 0
145 -846 0
-735 236 0
855 -569 0
-872 0
-696 86 0
-117 591 0
-387 0
-953 0
-100 0
21 -250 0
-176 -624 0
-911 -9 0
-589 -100 0
954 -553 0
940 -12 0
-688 0
-824 0
-929 0
820 -547 0
-524 0
-875 0
-883 669 0
-307 0
905 -141 0
-411 0
-569 0
-142 -308 0
-703 971 0
-176 0
-260 0
141 -50 0
-383 869 0
-197 -164 0
-516 -579 0
-472 0
922 -65 0
-381 0
-876 -867 0
98 -425 0
-782 683 0
360 -733 0
-790 -628 0
806 -545 0
-342 0
-333 0
-710 -387 0
-594 647 0
698 -901 0
-250 0
-291 0
-472 0
-588 47 0
-66 0
-147 0
-199 853 0
761 -945 0
-970 0
584 -193 0
-782 340 0
400 -276 0
-904 0
-782 0
-799 -313 0
-160 0
-127 -714 0
-25 0
-483 463 0
-118 -434 0
-636 749 0
-366 0
-909 -500 0
-413 950 0
-655 -646 0
786 -810 0
-103 0
-210 0
8 -827 0
-708 -922 0
-615 0
-702 838 0
-749 795 0
737 -604 0
-712 299 0
-555 447 0
-228 0
-152 835 0
936 -76 0
-904 0
53 -257 0
290 -254 0
-671 0
-734 0
-621 0
-271 -84 0
21 -785 0
-64 -767 0
963 -9 0
-29 0
-512 957 0
-280 -368 0
-629 -868 0
957 -185 0
-502 0
-663 -355 0
-279 0
-454 164 0
-527 0
-907 0
-515 -802 0
-298 0
-743 -881 0
645 -363 0
81 -452 0
-296 444 0
810 -433 0
-189 213 0
-229 495 0
-663 -419 0
450 -147 0
-57 0
-92 0
-399 0
-183 452 0
140 -906 0
-804 447 0
-284 -930 0
-488 0
-916 0
-687 -663 0
-817 0
-621 0
-701 0
-880 0
374 -418 0
-995 510 0
-764 0
-628 751 0
-237 -829 0
-767 0
-888 0
-25 0
-213 62 0
-767 151 0
-516 0
763 -594 0
-391 -654 0
-339 238 0
817 -619 0
818 -571 0
-486 0
985 -689 0
-56 908 0
-755 565 0
544 -434 0
642 -306 0
10 -209 0
-344 154 0
-232 0
651 -379 0
-757 0
-384 0
-37 0
-20 0
-910 -497 0
-902 0
-933 0
-471 -356 0
-605 -465 0
-605 -803 0
-30 973 0
-244 0
20 -225 0
-736 0
-517 548 0
-312 -133 0
-989 0
-320 0
-47 -802 0
-887 790 0
-639 164 0
613 -123 0
966 -938 0
-394 0
-667 0
-290 0
-610 0
-852 -994 0
-614 -965 0
117 -49 0
636 -689 0
353 -774 0
-712 -787 0
-38 -746 0
-682 0
-40 -382 0
-538 703 0
-502 0
-32 857 0
-455 -777 0
-101 0
-324 0
565 -417 0
-80 -391 0
-549 271 0
-949 588 0
-523 -2 0
-141 0
536 -567 0
-559 -756 0
-870 348 0
617 -764 0
-435 0
-564 927 0
833 -459 0
156 -723 0
-493 -826 0
-414 0
-328 -918 0
-347 0
-608 379 0
170 -164 0
-245 0
-152 -731 0
-239 540 0
-771 0
-900 -809 0
-334 -14 0
-48 -476 0
-181 -321 0
-144 -843 0
-307 0
158 -978 0
96 -127 0
116 -449 0
-294 612 0
200 -942 0
-927 0
-361 0
-919 191 0
424 -254 0
-759 -710 0
-707 -529 0
-583 -652 0
-325 -604 0
-470 0
-597 -593 0
60 -385 0
1000 -251 0
-648 0
-327 -100 0
-402 0
-388 0
-818 0
-726 0
-102 973 0
-362 0
-375 299 0
-235 0
-349 0
-805 743 0
275 -355 0
-611 0
-775 0
132 -529 0
-538 0
-267 0
-499 0
-333 0
-530 0
-86 -277 0
-131 0
-281 0
-623 -127 0
-976 469 0
-300 0
417 -987 0
-983 0
-596 0
-652 0
-998 0
-96 0
-363 0
-829 0
665 -599 0
-215 545 0
241 -817 0
-869 -394 0
-270 980 0
-815 0
-983 0
-246 0
-711 236 0
-168 0
-551 915 0
-766 0
-647 0
-47 0
-852 79 0
-32 0
-240 80 0
860 -305 0
395 -276 0
-607 -325 0
-452 -289 0
-280 370 0
-336 951 0
-198 214 0
13 -578 0
-864 -404 0
-187 0
-619 0
-559 0
-280 -340 0
-955 -739 0
-194 0
-125 0
170 -570 0
-636 -754 0
-927 0
-210 0
-141 0
-133 0
82 -749 0
-174 -442 0
-421 0
-248 0
-273 0
-75 0
560 -692 0
-460 -834 0
496 -455 0
-691 0
-387 0
127 -761 0
-108 0
-23 -202 0
955 -235 0
-436 -362 0
-38 0
-359 78 0
968 -296 0
690 -579 0
27 -706 0
-73 0
-412 -84 0
-981 0
-309 0
-542 -281 0
-648 486 0
-169 0
-354 0
-141 518 0
-375 0
-413 0
-924 -945 0
-497 0
-378 -841 0
-918 932 0
755 -284 0
-739 -379 0
-674 150 0
-591 0
-819 909 0
-754 -601 0
954 -165 0
-181 861 0
-82 -482 0
-210 0
-306 -249 0
953 -812 0
-59 0
-614 0
-526 0
412 -483 0
-166 -916 0
-539 0
-256 0
-92 0
-171 -546 0
-957 0
-902 486 0
-89 95 0
-951 -674 0
468 -497 0
-726 0
-170 0
-959 -668 0
-524 799 0
-367 114 0
186 -348 0
-167 -34 0
-997 292 0
473 -259 0
846 -145 0
-880 0
-362 0
411 -739 0
-206 -445 0
-320 0
-349 0
-6 -841 0
-693 0
-544 0
-775 -691 0
-621 0
-157 0
-413 -802 0
-801 0
-615 811 0
-62 -145 0
-111 0
-931 0
-335 837 0
822 -681 0
-216 595 0
-938 919 0
520 -425 0
129 -874 0
-680 0
-792 711 0
-145 0
-839 186 0
-800 0
392 -226 0
401 -297 0
-880 0
369 -666 0
-296 0
-800 -475 0
-79 0
40 -916 0
-109 935 0
-608 620 0
-756 -810 0
705 -34 0
563 -269 0
-813 884 0
-525 0
-391 -902 0
-85 0
-96 902 0
-311 877 0
-140 0
-494 844 0
-205 -617 0
-303 945 0
-530 0
-123 0
-155 0
-739 0
-719 -555 0
794 -987 0
-115 0
-197 -837 0
-534 0
-263 0
-293 -730 0
-241 0
-471 246 0
-743 -461 0
125 -627 0
-771 0
-214 997 0
-521 0
-640 0
368 -868 0
403 -138 0
-742 0
-152 -755 0
-530 0
-171 0
369 -994 0
-924 -674 0
-570 0
-623 -535 0
-934 -66 0
931 -789 0
-12 0
-443 0
-624 0
-926 0
-117 0
-605 0
-339 0
-228 -627 0
-560 275 0
576 -338 0
833 -569 0
-332 0
864 -952 0
906 -702 0
-367 0
-107 847 0
-414 580 0
-53 0
-802 0
-32 471 0
-256 0
-655 -371 0
785 -100 0
-246 375 0
963 -978 0
-65 0
-799 0
93 -593 0
-266 0
-816 0
80 -799 0
-191 0
-715 0
-432 0
-349 -211 0
-965 943 0
-249 0
-330 0
-128 0
-115 0
-998 -787 0
-442 0
-720 148 0
-374 0
-744 994 0
-744 0
-686 -989 0
-136 0
-959 770 0
-770 0
-908 -881 0
-125 597 0
810 -973 0
-576 0
328 -37 0
-319 796 0
-340 0
-10 0
162 -985 0
995 -233 0
-335 0
-440 -120 0
-119 -346 0
-403 0
896 -689 0
-968 -273 0
-743 0
-370 -225 0
-371 -169 0
-205 0
169 -701 0
-177 0
-447 -877 0
537 -785 0
-943 -953 0
-360 0
836 -931 0
-669 -948 0
202 -883 0
-852 -747 0
-440 521 0
-363 -737 0
-316 0
-131 0
321 -380 0
-728 185 0
796 -913 0
-175 -346 0
-838 0
-413 -379 0
-612 -891 0
-495 378 0
-717 -941 0
-752 864 0
157 -321 0
-80 758 0
387 -452 0
-357 -11 0
-325 469 0
-647 -329 0
-433 0
-637 0
-139 895 0
-127 0
-691 -194 0
-664 491 0
-402 0
-943 -324 0
-946 0
-390 0
554 -5 0
-409 0
-151 0
-870 18 0
616 -6 0
-932 0
-424 -766 0
188 -260 0
70 -922 0
-683 0
-834 0
-415 -54 0
-193 0
-365 847 0
-824 306 0
-547 630 0
-949 7 0
-821 0
-828 -802 0
-727 -902 0
365 -883 0
-888 0
-744 150 0
-288 0
-997 -141 0
-157 0
-632 -999 0
-664 920 0
-462 -586 0
-829 0
-959 0
-528 0
-914 -33 0
-338 0
-450 0
448 -221 0
-544 465 0
411 -699 0
259 -497 0
-400 -111 0
-830 0
-839 0
-820 0
-664 755 0
-495 47 0
-238 916 0
781 -58 0
-195 749 0
-757 0
-598 402 0
-794 0
187 -83 0
-816 0
-415 -332 0
-391 0
-567 0
-990 0
-947 0
-133 0
-423 0
-862 762 0
971 -802 0
-743 159 0
-388 0
-166 870 0
-389 -347 0
-182 18 0
-2 0
-585 0
-806 0
-848 0
282 -670 0
-886 0
-856 301 0
-896 114 0
153 -996 0
-235 0
-256 449 0
-495 -708 0
-559 -764 0
-426 0
-837 0
-614 0
-844 0
-407 0
-750 -274 0
-684 0
808 -737 0
-589 605 0
-984 968 0
-853 541 0
-606 540 0
697 -268 0
-166 0
-131 -762 0
-418 0
-256 559 0
625 -131 0
-616 0
40 -306 0
304 -71 0
-319 782 0
-263 612 0
-22 -729 0
-39 0
442 -805 0
-719 0
139 -89 0
-865 0
-716 213 0
-316 0
-804 -298 0
-759 0
-895 -713 0
216 -715 0
-56 -830 0
-536 0
-51 0
-680 -273 0
-440 -648 0
-964 0
825 -601 0
-55 0
-624 0
-510 -217 0
-449 0
-119 -467 0
-409 0
-297 0
981 -26 0
-328 0
-839 0
-822 -165 0
-416 0
165 -258 0
-284 0
-807 941 0
835 -537 0
155 -426 0
-341 269 0
-458 0
-423 -999 0
-988 0
-284 766 0
178 -404 0
80 -217 0
460 -209 0
-565 207 0
-512 0
-941 -817 0
938 -812 0
-878 795 0
-419 -249 0
-783 0
540 -513 0
-270 0
-863 0
-599 -309 0
-248 0
-434 -250 0
-664 -318 0
-383 270 0
-980 0
938 -171 0
-280 0
-820 5 0
-852 0
809 -46 0
-522 0
-373 -707 0
-295 0
-807 -322 0
-862 -449 0
113 -579 0
-651 0
-947 21 0
-767 0
-384 0
-35 0
376 -79 0
-288 -270 0
-265 0
-751 -762 0
-519 -716 0
-704 -574 0
-627 -97 0
-552 0
-396 0
-926 -321 0
-896 -85 0
-413 -739 0
633 -306 0
-251 0
-624 366 0
930 -214 0
-1000 -326 0
-106 0
-562 0
-214 -785 0
-855 0
-312 0
-995 542 0
-470 -236 0
-130 -642 0
-501 0
-790 687 0
-149 -243 0
-865 0
-968 21 0
931 -186 0
441 -329 0
-995 -994 0
249 -483 0
-164 0
-701 0
-587 0
-199 0
-882 -890 0
-403 0
-864 0
-918 0
-623 0
-423 0
-52 207 0
-974 0
-800 799 0
-833 0
-173 413 0
-164 0
460 -641 0
-276 0
-703 -631 0
-501 789 0
-753 0
-425 0
-614 645 0
-567 0
-333 0
-872 -413 0
-72 0
-325 0
-405 -397 0
-591 -571 0
-688 152 0
-30 0
-248 910 0
-704 470 0
-360 300 0
795 -292 0
-346 0
-895 0
136 -600 0
-47 242 0
-126 0
-758 0
-651 847 0
-590 373 0
717 -139 0
-620 0
715 -269 0
-389 -931 0
-363 -513 0
940 -428 0
881 -13 0
1000 -406 0
-539 -169 0
-157 637 0
-473 127 0
-450 0
472 -396 0
-14 732 0
-207 693 0
-399 -726 0
-198 0
-460 335 0
-187 918 0
364 -451 0
-67 0
-549 460 0
824 -356 0
-145 0
490 -562 0
-279 210 0
-42 -530 0
-243 -305 0
-191 -186 0
-76 814 0
289 -503 0
-85 -2 0
514 -156 0
-463 0
-468 519 0
-465 -649 0
-516 726 0
408 -638 0
-380 0
-518 0
-74 0
-575 0
-636 -833 0
-310 174 0
-192 -686 0
631 -569 0
645 -921 0
-680 273 0
-980 0
-35 -874 0
-291 -1 0
177 -171 0
136 -502 0
-504 0
520 -841 0
520 -19 0
-963 0
-263 735 0
-82 0
-13 893 0
-694 -219 0
-18 0
-260 0
-464 0
-364 343 0
-221 0
-971 0
-259 0
681 -44 0
-554 687 0
-264 -787 0
-550 -278 0
-635 0
-619 718 0
-733 189 0
-901 0
-158 34 0
-687 0
-638 0
-188 -585 0
-903 142 0
393 -332 0
-452 0
397 -513 0
-627 0
-685 -85 0
-253 0
708 -393 0
-210 118 0
266 -690 0
-162 0
259 -642 0
-194 0
-629 -283 0
-38 -534 0
-843 71 0
-367 858 0
-151 0
-887 0
-797 -681 0
-147 0
-8 -2 0
-270 0
-566 482 0
-295 -498 0
-750 -428 0
-722 0
-631 0
-432 713 0
-477 0
-304 0
179 -355 0
-881 0
363 -476 0
-834 0
-644 622 0
-442 0
216 -668 0
-878 0
-770 0
-934 -388 0
-263 -38 0
-186 0
-991 -147 0
-646 0
-126 259 0
-167 -682 0
-209 0
-247 0
962 -980 0
75 -817 0
-507 951 0
-548 0
-613 0
-656 -74 0
117 -577 0
714 -68 0
-502 0
-671 0
-676 0
-212 406 0
-230 711 0
-912 0
-869 -995 0
-51 0
-648 0
-757 0
-284 0
-184 0
-111 -61 0
-828 0
418 -457 0
-904 123 0
-388 0
-829 22 0
-39 950 0
-744 -479 0
-224 -150 0
824 -507 0
-375 252 0
211 -899 0
-673 223 0
249 -310 0
960 -225 0
-876 0
568 -390 0
-661 0
-308 0
-548 575 0
161 -626 0
-897 0
-625 0
-918 587 0
-20 0
-316 0
-219 0
-497 0
344 -645 0
-335 -618 0
-252 0
136 -468 0
-728 0
953 -45 0
547 -593 0
-864 314 0
658 -541 0
-717 -867 0
-587 0
-143 -348 0
-604 278 0
-411 -571 0
-583 18 0
841 -467 0
-472 362 0
-649 0
497 -556 0
-494 0
-111 0
-115 0
-767 0
-155 887 0
-768 146 0
-848 0
-109 0
-636 -379 0
-86 -754 0
-463 -81 0
-528 843 0
-135 738 0
-566 742 0
-699 0
548 -521 0
-724 0
-808 -146 0
-806 295 0
-216 -526 0
-447 53 0
-70 0
496 -494 0
-304 641 0
573 -970 0
986 -137 0
-842 0
-141 438 0
-836 989 0
-485 0
810 -646 0
771 -481 0
-599 0
-77 0
-855 -990 0
-999 -850 0
-889 0
-899 0
-889 0
-484 0
-934 0
-701 -553 0
-468 999 0
-214 -997 0
-228 0
-270 -203 0
-677 0
538 -507 0
-778 0
306 -418 0
-672 569 0
-595 79 0
-214 -977 0
-679 -1 0
700 -596 0
-308 791 0
-900 902 0
-974 -189 0
-272 741 0
-855 0
-567 162 0
-47 -581 0
-759 0
-727 0
-485 -73 0
363 -51 0
-295 -86 0
970 -834 0
-176 0
-990 316 0
169 -406 0
-831 0
-947 0
-699 0
-614 0
-926 0
314 -762 0
-430 -690 0
-239 -900 0
-521 -97 0
-125 0
-286 0
-288 213 0
-176 0
-308 0
-288 -838 0
-215 -298 0
-243 0
-635 0
-214 0
-303 -710 0
258 -849 0
-725 0
-527 -263 0
832 -227 0
624 -276 0
-30 691 0
-199 0
-944 -32 0
337 -202 0
-920 -735 0
-456 -543 0
648 -577 0
-484 -602 0
-134 0
224 -503 0
-580 0
60 -890 0
-954 0
-374 0
-391 0
211 -18 0
-212 0
-44 0
-712 -291 0
626 -836 0
592 -621 0
-600 -718 0
-172 0
-261 0
-316 0
-584 0
-453 0
464 -969 0
-312 -391 0
-980 302 0
-278 0
986 -486 0
-537 0
-152 569 0
316 -473 0
793 -780 0
-714 127 0
306 -827 0
-699 -962 0
-742 -885 0
-311 -569 0
-926 990 0
-932 -747 0
877 -849 0
-758 0
338 -273 0
369 -879 0
-494 -774 0
-211 -715 0
-791 562 0
-221 0
-793 0
281 -259 0
-254 711 0
-765 -881 0
-799 690 0
-93 0
-266 -817 0
-31 299 0
-242 0
-449 967 0
-780 -178 0
-840 0
78 -441 0
-902 323 0
155 -541 0
-144 -227 0
-762 0
-670 -300 0
-406 0
451 -433 0
-117 0
-658 0
-966 -988 0
-593 0
-640 0
587 -353 0
-824 -589 0
-366 306 0
-392 727 0
-550 -934 0
-250 0
-453 790 0
-23 -271 0
-785 0
-876 0
-358 0
-205 46 0
-968 0
-40 0
-181 -123 0
-934 0
-934 -603 0
-428 -171 0
-429 0
592 -416 0
-293 879 0
702 -242 0
-619 0
864 -167 0
-498 0
-887 -557 0
-909 14 0
-15 -903 0
366 -945 0
-439 297 0
-101 15 0
-951 459 0
-730 0
409 -610 0
-769 0
813 -761 0
-855 286 0
-739 182 0
-14 95 0
804 -763 0
89 -628 0
425 -993 0
-261 0
-883 615 0
-959 -475 0
-394 0
-446 -988 0
473 -379 0
-397 0
-412 -418 0
-344 293 0
-576 842 0
-892 510 0
-980 0
305 -580 0
-407 0
-833 0
-488 347 0
-731 0
-647 -733 0
-135 -563 0
-282 0
-208 0
673 -78 0
-504 -265 0
-224 -484 0
-771 918 0
-357 111 0
-719 795 0
-966 0
-882 0
-742 0
-5 -676 0
331 -169 0
-615 797 0
-326 699 0
667 -371 0
-388 0
-991 0
-1000 -559 0
-405 -339 0
256 -166 0
-717 0
-777 0
296 -326 0
-271 140 0
462 -594 0
52 -17 0
-168 -552 0
-596 -364 0
307 -253 0
-675 0
-444 0
-155 0
-933 -153 0
161 -694 0
-672 -875 0
-663 970 0
-521 0
636 -268 0
-417 0
-607 940 0
-744 0
-79 358 0
-683 -482 0
-483 0
-145 0
-343 821 0
-524 165 0
-21 76 0
-637 0
-404 223 0
-472 0
-65 0
-504 0
-312 777 0
700 -882 0
-952 547 0
942 -385 0
-744 -902 0
-880 0
-566 -361 0
616 -173 0
-109 694 0
-303 0
48 -855 0
-462 0
-949 356 0
-838 726 0
-508 540 0
749 -602 0
-22 269 0
-688 -908 0
-628 55 0
-777 0
-268 -962 0
81 -428 0
-935 667 0
-271 444 0
-662 -364 0
-375 643 0
-940 133 0
-265 -945 0
-621 -715 0
-711 -259 0
-967 241 0
-182 -193 0
-317 -420 0
-37 0
676 -249 0
-838 0
-219 0
-628 0
528 -718 0
-427 0
-572 0
-783 -316 0
273 -909 0
-418 0
-556 0
434 -694 0
-599 0
521 -502 0
-371 0
-101 0
-596 0
-558 251 0
-978 895 0
-527 0
316 -67 0
258 -205 0
-147 998 0
265 -650 0
-654 -748 0
-950 -748 0
-32 -103 0
747 -89 0
-631 0
-423 0
-304 0
-606 -932 0
-248 -880 0
264 -185 0
-380 -929 0
-21 0
-115 742 0
-806 517 0
321 -46 0
720 -311 0
513 -740 0
-176 0
-926 806 0
-509 -345 0
-204 974 0
-312 0
-43 0
-777 0
-897 0
-219 0
-22 0
-57 0
11 -69 0
-269 0
-342 0
-807 0
-983 358 0
-685 -308 0
-295 193 0
-48 -977 0
243 -420 0
-11 0
650 -170 0
272 -9 0
-988 0
-396 0
-507 0
-71 -847 0
-902 -217 0
-349 -235 0
-562 0
-452 -425 0
-626 159 0
-61 -996 0
-591 -989 0
-260 -436 0
-383 0
-361 0
-412 0
-144 0
238 -489 0
-1000 0
-808 -118 0
-663 330 0
-810 0
754 -817 0
-235 -793 0
131 -923 0
-954 255 0
-824 -262 0
-916 0
-394 0
-256 585 0
-14 915 0
-39 -119 0
-16 0
249 -671 0
-713 0
57 -258 0
728 -900 0
-434 0
-465 0
-389 0
-55 263 0
-694 -324 0
-823 0
-177 0
-669 -459 0
-627 0
-945 0
-12 750 0
-51 0
-469 0
746 -257 0
454 -314 0
-212 0
-844 61 0
-343 -452 0
-869 319 0
-538 0
-704 -789 0
28 -769 0
-697 0
-200 249 0
37 -714 0
-930 0
-206 0
-751 -881 0
434 -409 0
-656 -582 0
-968 0
182 -362 0
481 -395 0
-935 454 0
-439 427 0
-80 908 0
-958 -966 0
-149 -659 0
-342 0
-687 724 0
-628 0
-309 0
-703 571 0
-29 0
-269 0
-775 -279 0
-293 0
293 -106 0
-575 0
-365 -738 0
412 -284 0
-617 0
-643 0
-851 0
-840 281 0
26 -597 0
161 -293 0
-113 0
-87 509 0
-627 -145 0
-909 0
-695 0
-311 -876 0
867 -297 0
-764 989 0
-436 0
-469 0
-845 406 0
-161 0
-964 0
-878 0
424 -850 0
-243 669 0
-384 714 0
-465 327 0
-789 556 0
-297 0
-916 0
-831 969 0
-9 0
-441 0
-135 -629 0
713 -317 0
-165 -477 0
-430 -385 0
-842 0
-906 0
578 -84 0
-304 371 0
-568 0
89 -683 0
-73 -265 0
-895 0
714 -33 0
-6 -371 0
-103 84 0
-213 0
-383 0
-45 0
-189 0
-296 -83 0
315 -827 0
-813 757 0
-685 -570 0
-985 0
-952 -633 0
-316 -20 0
-165 495 0
-656 -491 0
-303 -877 0
242 -650 0
-959 0
-136 -887 0
-838 -12 0
986 -966 0
-224 -865 0
-624 401 0
-103 0
-10 -530 0
-790 -989 0
217 -675 0
-999 195 0
-872 -295 0
-763 0
-352 -335 0
-882 0
85 -130 0
-621 0
-580 0
-140 -11 0
-63 858 0
-971 455 0
-535 669 0
-829 0
-526 243 0
-446 0
288 -116 0
-971 0
-862 -348 0
113 -146 0
-113 0
948 -298 0
127 -177 0
-32 -943 0
-897 -753 0
-896 -131 0
-945 0
-496 -236 0
-234 0
-899 158 0
-159 -305 0
-228 151 0
-608 0
-856 519 0
-533 -363 0
-723 -282 0
830 -409 0
-108 0
533 -266 0
-274 0
-206 0
-188 527 0
-488 667 0
-280 773 0
-63 -849 0
705 -253 0
-444 -443 0
-207 887 0
881 -459 0
-988 -818 0
-831 527 0
-637 -364 0
-812 783 0
-416 -230 0
-36 95 0
-833 0
-634 903 0
-192 0
-953 0
-328 0
-504 -425 0
-63 -694 0
-693 0
665 -566 0
-295 651 0
-815 466 0
-5 -612 0
-149 437 0
-792 0
-288 -606 0
-856 0
-250 111 0
-312 69 0
642 -110 0
-102 0
-907 0
-36 0
-423 0
-39 0
-554 0
-966 14 0
-545 455 0
-613 195 0
876 -972 0
-500 -145 0
-886 302 0
-112 0
-508 623 0
-814 0
-496 272 0
-796 0
-824 109 0
-127 -354 0
-670 591 0
-783 -830 0
482 -109 0
-84 199 0
-494 228 0
518 -561 0
-651 -849 0
-522 0
-542 -779 0
-459 0
-499 0
-146 -113 0
-809 0
-626 0
-696 0
952 -608 0
-816 0
-724 0
786 -36 0
-465 -121 0
753 -173 0
-873 0
288 -734 0
837 -281 0
-248 -859 0
-838 -377 0
-558 -138 0
248 -666 0
-363 0
-249 0
-485 382 0
-187 63 0
-511 -354 0
328 -53 0
-978 0
-446 234 0
-179 0
146 -843 0
-100 0
513 -990 0
-355 511 0
752 -169 0
-918 259 0
889 -166 0
-736 0
-707 253 0
-326 524 0
92 -746 0
-208 0
-78 -53 0
340 -666 0
-824 -530 0
-698 0
-695 -732 0
-901 0
-488 0
-774 -92 0
-974 0
-117 -371 0
-725 -147 0
-933 -587 0
-979 0
-205 0
-47 0
-729 0
-661 820 0
481 -906 0
-775 -903 0
-248 0
360 -844 0
720 -77 0
-537 0
-293 0
-574 307 0
-86 0
-337 0
-657 -881 0
-174 -857 0
-706 0
-192 602 0
-3 0
-537 0
869 -153 0
922 -772 0
-268 0
-171 0
8 -200 0
-248 -591 0
-909 0
-502 0
372 -67 0
-81 463 0
-391 -721 0
-701 676 0
-716 0
-874 -890 0
-205 -157 0
354 -491 0
-84 941 0
-946 526 0
-448 0
666 -627 0
-806 0
-389 0
-745 0
-215 0
888 -36 0
-127 -772 0
778 -595 0
664 -317 0
25 -965 0
-195 0
616 -893 0
-920 790 0
-70 0
-119 730 0
777 -485 0
-923 0
-599 -572 0
115 -892 0
441 -142 0
-847 738 0
-377 0
-725 -505 0
-240 -299 0
-724 0
256 -57 0
222 -153 0
-766 0
-939 0
-752 86 0
-812 -450 0
-128 0
-50 0
-303 -201 0
-15 0
-776 216 0
-439 0
-560 -349 0
641 -137 0
-740 590 0
-597 0
-971 -762 0
-635 0
-221 0
-4 46 0
-88 70 0
-370 0
-819 0
66 -993 0
-603 0
-518 -604 0
-437 0
760 -546 0
-923 0
-266 0
489 -898 0
-935 875 0
-861 0
-859 0
-584 -537 0
-142 373 0
-493 831 0
-21 -25 0
-709 0
592 -437 0
-622 0
-588 197 0
-175 -253 0
-127 -438 0
-562 0
-456 -933 0
-277 0
-38 0
-615 743 0
-23 758 0
67 -161 0
-478 0
-519 523 0
-797 0
757 -427 0
-839 0
-992 57 0
-640 670 0
-207 0
-474 0
290 -651 0
-380 797 0
-483 0
-334 0
-134 0
-936 0
-88 -242 0
-71 180 0
-462 -293 0
-803 0
-958 587 0
-576 75 0
-3 53 0
-526 0
-685 430 0
-720 -113 0
-753 -41 0
-980 0
-77 79 0
739 -498 0
-554 -193 0
-877 0
-133 -675 0
-747 0
-920 334 0
-146 0
-255 0
-846 498 0
-648 0
-261 -517 0
-91 326 0
-56 494 0
-750 623 0
768 -862 0
-808 0
-496 245 0
-622 0
226 -770 0
-678 -242 0
-544 -805 0
993 -563 0
379 -363 0
-432 165 0
-204 -971 0
-238 -761 0
-201 0
-584 0
-110 644 0
-944 856 0
-798 0
-160 0
-81 0
723 -27 0
-971 0
-782 375 0
-392 734 0
-382 -565 0
-269 0
-103 0
-372 -500 0
-346 -833 0
-484 0
-775 0
-292 -756 0
592 -258 0
-399 0
938 -782 0
-842 735 0
-508 0
-703 0
-197 -117 0
-667 -571 0
-365 0
392 -717 0
-631 971 0
-40 0
-19 0
-648 533 0
-296 302 0
-607 0
-192 177 0
-439 0
-829 0
-510 -747 0
-982 868 0
-497 0
-844 -802 0
-759 0
-376 -800 0
-391 316 0
-425 0
-519 0
-137 0
-135 0
-128 -455 0
566 -242 0
-109 0
433 -970 0
-207 -357 0
-620 -714 0
312 -827 0
-679 0
-617 0
-162 0
-296 833 0
-622 -613 0
-799 -249 0
-468 0
-828 326 0
-687 0
372 -706 0
-864 990 0
-952 0
-165 215 0
-414 0
-711 919 0
-876 598 0
-220 0
-760 712 0
-829 333 0
-599 565 0
-108 0
-181 276 0
209 -705 0
133 -817 0
696 -979 0
-125 0
-788 0
-640 0
-136 0
340 -930 0
-238 0
-448 942 0
-416 -514 0
-614 -18 0
-283 0
-55 906 0
-342 -868 0
-310 709 0
-954 0
-1000 0
-11 0
345 -502 0
888 -577 0
-841 0
810 -146 0
-43 0
148 -924 0
817 -353 0
879 -441 0
-719 -923 0
962 -580 0
-136 0
-29 -507 0
-183 0
-324 76 0
-950 -156 0
-12 0
250 -203 0
692 -281 0
-445 0
-765 0
-10 0
-106 0
-788 0
-144 0
-965 931 0
931 -260 0
294 -233 0
137 -284 0
-194 0
-748 0
-948 0
-975 0
-685 0
-813 -330 0
-426 0
540 -466 0
-993 0
117 -849 0
-875 0
-36 0
-153 0
-167 36 0
465 -11 0
-103 0
588 -105 0
64 -756 0
-344 -524 0
565 -818 0
-979 103 0
-400 33 0
-79 0
370 -397 0
-319 0
-384 306 0
-317 0
-22 -355 0
947 -652 0
-610 -738 0
-599 -746 0
-616 142 0
-720 0
904 -374 0
489 -811 0
-218 0
-510 0
-556 0
-285 -963 0
809 -802 0
-469 -363 0
833 -883 0
-588 0
-142 -812 0
-846 0
-272 614 0
-426 742 0
-249 0
-631 494 0
-329 0
233 -643 0
-523 405 0
-347 -83 0
-192 943 0
-940 -538 0
-617 0
969 -89 0
-967 0
-864 0
-642 -369 0
-298 0
-20 0
-886 0
-402 0
-26 0
-528 0
-268 638 0
-743 0
-739 -810 0
-520 905 0
-722 0
-142 0
-758 939 0
-403 957 0
-111 0
-936 0
75 -226 0
-430 221 0
-566 901 0
-823 -665 0
-576 702 0
-540 324 0
-983 -358 0
-738 0
-562 0
873 -953 0
670 -857 0
-207 145 0
-293 254 0
-33 0
-168 -468 0
-489 0
-795 526 0
-344 -765 0
-334 358 0
-118 103 0
-117 399 0
99 -132 0
-634 0
-384 317 0
-176 368 0
-939 0
-799 0
-727 711 0
-120 148 0
437 -490 0
-528 74 0
92 -33 0
113 -841 0
243 -738 0
60 -242 0
-137 0
-953 0
680 -43 0
-384 0
37 -514 0
-886 -621 0
-338 0
189 -123 0
-894 -883 0
-424 -538 0
-425 0
-676 0
-201 0
875 -845 0
-162 566 0
-380 0
-38 -602 0
-847 -727 0
-867 54 0
-926 148 0
-327 -450 0
145 -743 0
-300 -402 0
-688 -551 0
-438 -909 0
-700 -850 0
-704 0
-475 0
-509 -652 0
-420 -433 0
-959 490 0
-240 218 0
-789 0
-663 -766 0
-256 187 0
2 -885 0
-571 350 0
-412 0
-527 -670 0
-839 -107 0
568 -394 0
-87 307 0
267 -625 0
-278 -13 0
-107 -266 0
-471 -308 0
-200 -489 0
-83 878 0
-982 949 0
-189 -25 0
-566 -225 0
-990 668 0
-319 -506 0
969 -514 0
-614 581 0
-945 0
507 -410 0
-200 0
-105 0
-465 0
-132 0
-82 -745 0
-391 850 0
-959 0
-643 0
156 -979 0
-923 0
-806 106 0
890 -761 0
509 -755 0
194 -449 0
-190 -387 0
-118 990 0
-137 0
168 -569 0
-95 7 0
-101 -859 0
-560 -306 0
820 -282 0
-964 -642 0
-271 0
-819 -34 0
-480 -85 0
-734 614 0
-215 0
-597 0
-558 675 0
-161 0
586 -604 0
443 -692 0
-458 -10 0
-536 -65 0
-88 0
-128 0
-462 931 0
-300 0
-616 -176 0
-322 0
-382 269 0
-987 0
-616 -193 0
370 -706 0
-565 -76 0
792 -840 0
-342 -75 0
-869 0
-958 878 0
307 -365 0
699 -460 0
-90 0
-190 -993 0
-929 0
-511 571 0
-957 -397 0
-510 0
-670 -221 0
-594 0
737 -566 0
-735 695 0
867 -186 0
-24 -102 0
595 -369 0
50 -557 0
-836 0
194 -573 0
-580 0
-27 -473 0
512 -587 0
-110 0
952 -390 0
-660 0
636 -747 0
-274 0
-229 542 0
-450 0
-868 0
-148 284 0
-829 223 0
400 -218 0
-362 0
-212 0
-97 0
-145 0
-868 0
-756 -234 0
-248 0
-383 870 0
-473 0
-349 0
465 -405 0
-830 0
227 -306 0
-687 0
-142 826 0
-964 -194 0
720 -851 0
-636 0
-728 0
-988 45 0
-914 0
-750 0
259 -93 0
-212 701 0
-10 0
953 -98 0
-13 -51 0
-866 -473 0
-330 0
-492 0
102 -193 0
-630 0
-684 214 0
-976 0
-960 50 0
347 -907 0
-513 0
-537 0
-270 0
-835 0
-551 0
893 -706 0
-648 -631 0
-199 -12 0
164 -594 0
617 -573 0
740 -275 0
-40 0
331 -338 0
-579 0
-439 0
-635 0
125 -314 0
-150 -865 0
-8 0
-550 -174 0
-431 836 0
-847 338 0
-106 0
-475 0
-805 0
-965 117 0
-895 -970 0
-783 282 0
-144 300 0
-423 0
-880 529 0
-468 118 0
-636 -25 0
-519 -845 0
568 -776 0
738 -450 0
-551 70 0
-208 -352 0
-198 -286 0
936 -750 0
-28 0
-950 0
-122 0
720 -328 0
-578 0
-243 942 0
-124 -851 0
-811 518 0
-739 0
457 -396 0
-365 -11 0
-656 0
-567 590 0
-70 0
-6 0
-765 -283 0
-841 0
-41 0
-312 -311 0
462 -561 0
-301 743 0
-759 686 0
-773 -33 0
-342 -980 0
-671 0
705 -837 0
780 -603 0
344 -915 0
-254 -884 0
-311 0
-598 -214 0
-78 0
424 -33 0
-241 0
-727 -947 0
-297 0
158 -818 0
-541 934 0
-264 0
-303 -44 0
-183 811 0
-868 -210 0
667 -515 0
-904 0
472 -829 0
-470 611 0
-15 -3 0
-887 0
643 -939 0
772 -515 0
-67 0
210 -794 0
-567 -667 0
-47 -126 0
-166 -965 0
-480 -889 0
-348 -571 0
-565 -564 0
-224 -863 0
-939 -777 0
-217 247 0
-678 0
-551 -955 0
-967 0
-441 0
-221 -809 0
-409 0
-28 0
-815 0
-882 775 0
-517 -652 0
208 -826 0
-899 -841 0
24 -513 0
-437 605 0
-243 0
190 -321 0
-902 0
168 -187 0
-864 0
-846 -475 0
-835 0
-919 0
-915 0
-127 788 0
-940 901 0
593 -236 0
-394 -633 0
-608 281 0
-753 0
-729 0
-60 519 0
-496 0
-685 78 0
-288 0
-984 339 0
-14 0
-865 0
-54 -882 0
-240 92 0
-268 -65 0
-718 823 0
-296 -352 0
-792 567 0
299 -426 0
592 -373 0
-630 0
-414 0
681 -865 0
-391 0
-186 0
-579 0
-646 -565 0
-737 0
-92 0
-496 -873 0
666 -148 0
-493 0
-973 -554 0
-745 0
-792 0
-235 414 0
-221 758 0
-278 134 0
-352 988 0
-83 0
-890 0
-126 0
-543 394 0
-701 0
-605 -338 0
-256 -163 0
-610 0
-258 399 0
869 -10 0
-653 110 0
-917 0
-354 798 0
881 -783 0
-413 723 0
272 -672 0
-397 0
-518 0
571 -529 0
-252 471 0
907 -533 0
-360 0
-828 0
-194 -530 0
-643 614 0
-67 0
-920 -8 0
-312 0
-535 -809 0
-679 0
-723 0
-381 710 0
-887 0
737 -118 0
-918 0
-621 0
-534 0
-31 0
-959 0
-287 124 0
-791 0
-503 -398 0
-286 0
-669 -810 0
-72 0
-96 686 0
-410 47 0
-412 -276 0
-918 6 0
825 -533 0
336 -838 0
-867 0
-976 926 0
-778 0
418 -341 0
-192 0
305 -926 0
-303 0
-192 -18 0
-602 0
826 -420 0
945 -538 0
-246 171 0
-604 -371 0
-507 -745 0
-469 0
713 -498 0
-863 0
-52 -289 0
-137 0
-938 0
-384 -553 0
458 -686 0
235 -666 0
651 -805 0
-751 0
-427 381 0
-71 0
-211 0
-781 383 0
-928 747 0
-709 0
-634 0
-989 0
-193 0
-960 -558 0
-618 -490 0
-657 0
-896 -678 0
-472 892 0
-79 0
-360 35 0
-55 0
824 -849 0
-374 0
955 -196 0
-860 693 0
-203 159 0
-235 0
490 -17 0
-297 0
-495 0
-841 0
-616 -667 0
-707 0
450 -721 0
-174 -852 0
-68 0
-421 0
-232 319 0
-450 0
29 -922 0
651 -17 0
-873 0
422 -506 0
781 -465 0
-954 0
273 -166 0
820 -433 0
-40 259 0
-496 0
-702 -10 0
661 -169 0
819 -869 0
-170 0
96 -276 0
577 -955 0
-500 572 0
-558 0
-144 -697 0
362 -317 0
937 -477 0
-679 -551 0
-797 -843 0
-983 291 0
736 -668 0
-134 -546 0
-629 -404 0
-319 -826 0
676 -633 0
-1000 -392 0
-431 -556 0
618 -964 0
-946 0
-952 -787 0
-406 0
-80 -887 0
-674 -209 0
-842 0
-456 -395 0
-468 831 0
-625 -185 0
-332 0
-956 0
-69 -33 0
-154 0
-924 319 0
-960 0
-915 0
-398 0
-474 0
65 -799 0
464 -513 0
-500 669 0
-404 0
-273 0
835 -99 0
-708 0
-400 0
-216 298 0
-677 892 0
-496 0
28 -913 0
-316 0
-940 0
825 -794 0
-96 -418 0
-918 -561 0
916 -202 0
-310 -634 0
-999 215 0
898 -300 0
-650 0
-561 0
649 -958 0
979 -337 0
-607 0
-717 0
-827 -26 0
-494 0
-30 -977 0
-576 -518 0
-551 0
-370 0
-953 0
-298 -561 0
-236 -562 0
-942 0
-246 0
963 -468 0
-984 0
-299 77 0
250 -106 0
-83 0
-839 879 0
-616 290 0
-916 0
627 -66 0
-699 -41 0
-557 -953 0
-854 -865 0
-667 0
-183 -811 0
851 -730 0
-95 471 0
-166 0
-543 -84 0
708 -497 0
-617 0
-195 -91 0
-27 718 0
-845 0
-101 -556 0
-969 0
-176 -111 0
-46 0
-383 902 0
-667 0
898 -789 0
-178 -793 0
-326 -486 0
-656 829 0
-881 751 0
600 -18 0
-22 -387 0
-162 0
-606 -10 0
87 -393 0
864 -387 0
-967 -708 0
-149 0
827 -603 0
-473 0
-617 0
-500 -810 0
-304 -622 0
972 -83 0
-226 0
-118 0
-107 639 0
-591 834 0
-360 0
-18 0
-304 424 0
-483 -26 0
-536 0
393 -771 0
-792 -819 0
786 -434 0
-7 -979 0
-140 29 0
-351 0
-693 0
832 -819 0
-506 0
737 -994 0
-912 255 0
-768 0
-318 578 0
1 -465 0
-568 0
-850 0
12 -801 0
946 -306 0
-318 0
-262 0
-674 -970 0
177 -533 0
-549 252 0
-47 -666 0
-844 -980 0
-972 0
-697 0
417 -173 0
-342 0
-271 0
-976 510 0
-163 78 0
-878 0
648 -233 0
-12 -321 0
488 -332 0
-137 0
-668 0
-640 -489 0
-834 0
-335 0
696 -86 0
-485 268 0
-880 87 0
-501 -580 0
-667 0
528 -630 0
884 -467 0
-951 -734 0
-858 0
934 -241 0
-679 -332 0
-978 0
-984 0
-408 691 0
-207 0
-659 0
-119 0
-552 0
-251 0
980 -164 0
-718 578 0
-793 0
-895 0
-92 -915 0
-266 0
-26 0
-935 637 0
-629 0
-730 911 0
-175 802 0
-984 964 0
-681 0
-23 -44 0
-138 -890 0
-78 914 0
-659 -129 0
-392 631 0
396 -60 0
-707 231 0
-888 0
-35 0
953 -823 0
312 -911 0
-479 0
881 -435 0
-154 0
79 -953 0
-933 0
-483 871 0
-454 0
-771 0
-442 0
-867 0
-71 0
-970 0
-574 -51 0
-902 0
-473 -505 0
-353 0
-981 -201 0
-589 95 0
-413 -533 0
896 -842 0
520 -107 0
-255 0
-136 0
-447 -671 0
-79 589 0
-662 -437 0
-845 -980 0
-765 0
-671 0
712 -286 0
-279 -753 0
-334 0
-511 365 0
-57 0
-169 0
-82 0
-314 0
744 -815 0
-11 0
-626 0
-511 -93 0
-926 469 0
-622 0
-577 0
-469 0
-664 -700 0
760 -782 0
-337 0
-163 0
-862 -324 0
-989 -108 0
-343 0
787 -459 0
585 -139 0
-259 0
-609 31 0
-813 0
-158 901 0
-198 654 0
993 -29 0
-147 0
-326 0
-244 0
-748 -107 0
312 -947 0
-694 -570 0
-746 0
-92 -370 0
-448 0
-81 0
-703 0
-994 0
856 -679 0
225 -157 0
-680 0
-395 0
-505 0
-119 254 0
-956 0
-126 811 0
-320 0
-100 175 0
-8 710 0
155 -554 0
672 -271 0
-28 -105 0
-636 -948 0
834 -681 0
-815 436 0
-61 0
956 -188 0
-176 501 0
33 -844 0
-342 0
-46 -36 0
883 -803 0
-625 0
-79 -265 0
88 -685 0
-150 0
-847 666 0
-929 -801 0
560 -768 0
-736 995 0
-536 -185 0
-431 -170 0
-276 941 0
-432 -713 0
-946 0
-923 0
978 -324 0
-937 0
-665 0
-125 0
-111 271 0
-406 -340 0
770 -939 0
509 -930 0
712 -907 0
-411 0
-920 -654 0
-279 541 0
-996 -650 0
904 -387 0
-584 238 0
-355 0
-93 0
-901 -491 0
-4 0
-474 0
-693 -9 0
689 -204 0
916 -252 0
-50 0
-553 0
-641 0
-552 0
-118 -755 0
-8 -660 0
-51 0
-562 0
-714 0
-57 0
-864 -935 0
956 -833 0
-45 300 0
-956 0
-11 0
760 -247 0
-768 181 0
-659 0
-630 -209 0
-250 0
-208 558 0
-37 0
-165 0
-31 0
-964 0
-92 655 0
-8 -109 0
-87 0
-180 0
-61 0
-233 0
308 -201 0
-716 350 0
-512 0
-51 0
-528 878 0
-385 0
-346 0
-107 0
-387 0
-848 868 0
883 -1 0
-500 93 0
-832 -981 0
-320 0
-917 -643 0
-740 -633 0
-528 -352 0
-935 873 0
-277 716 0
-540 -633 0
-295 -383 0
-344 0
-589 0
-460 0
-215 -753 0
-461 950 0
-785 0
962 -331 0
-262 131 0
-782 0
-426 0
-502 -82 0
-387 0
456 -826 0
-287 -629 0
-203 0
643 -778 0
-724 0
-248 -155 0
-354 0
-711 -57 0
-1000 0
49 -494 0
-893 0
345 -826 0
-346 0
-749 -738 0
814 -386 0
-743 0
-779 -291 0
-767 -702 0
-655 886 0
234 -918 0
824 -446 0
87 -777 0
-471 0
1 -842 0
-303 438 0
-573 -849 0
-589 0
432 -186 0
-958 803 0
-135 -483 0
-332 542 0
-604 0
-520 801 0
-933 0
-239 943 0
-236 197 0
-613 -97 0
-437 -509 0
-429 0
764 -409 0
-342 0
-629 -425 0
-410 0
-303 107 0
-775 0
709 -451 0
-213 0
202 -813 0
-207 -734 0
467 -452 0
-989 959 0
-279 767 0
-998 0
-268 134 0
-139 870 0
-527 -681 0
-721 0
-823 0
-46 -273 0
-235 0
-974 0
-56 -28 0
-647 60 0
-966 -474 0
-361 0
-551 0
-343 -393 0
121 -179 0
-518 0
-744 0
-92 894 0
-118 189 0
-118 382 0
606 -953 0
-432 0
-745 0
-429 0
-89 0
-506 0
-464 -224 0
-751 0
-959 -510 0
-368 -917 0
-610 0
94 -889 0
259 -859 0
-487 -694 0
-45 -117 0
-138 518 0
-646 70 0
-57 0
8 -213 0
-296 698 0
-200 0
-82 0
-754 0
-588 -962 0
-482 -33 0
-220 279 0
-7 260 0
-205 -595 0
-86 0
-872 0
-696 414 0
-292 -218 0
-7 -569 0
-718 271 0
-854 -141 0
59 -17 0
-412 -922 0
-710 -858 0
-341 428 0
-810 -849 0
-661 -779 0
587 -261 0
-781 0
283 -155 0
-599 -11 0
-900 669 0
-334 0
-979 0
214 -26 0
-398 0
-471 0
-683 0
-168 -105 0
-880 260 0
8 -974 0
-360 -914 0
-383 -852 0
553 -438 0
217 -969 0
-128 176 0
-855 -954 0
-348 0
-445 0
-412 0
328 -357 0
-867 -410 0
863 -505 0
-914 471 0
-979 30 0
840 -701 0
-26 0
-455 0
-544 0
-520 0
-249 0
-268 -699 0
-142 -427 0
-773 175 0
-13 0
-680 971 0
-827 0
-3 0
-338 0
922 -618 0
-59 703 0
-433 0
-936 129 0
-535 -118 0
-188 0
476 -28 0
-502 -610 0
-51 671 0
-481 0
-436 0
-440 348 0
-754 0
796 -371 0
-280 0
-303 0
-246 -93 0
-698 911 0
426 -142 0
-213 0
-952 -887 0
-412 0
-470 0
569 -428 0
744 -632 0
-736 0
626 -555 0
856 -378 0
-550 322 0
156 -641 0
-952 821 0
882 -106 0
-212 174 0
-210 0
-376 -587 0
-595 0
-727 0
-155 758 0
-33 0
-732 166 0
-967 52 0
-512 614 0
-324 0
-915 -641 0
-669 0
-581 -851 0
-705 0
-346 0
475 -642 0
-905 0
-147 -611 0
-2 0
-448 0
-95 829 0
-37 -369 0
785 -492 0
58 -429 0
-187 342 0
686 -242 0
2 -885 0
-982 295 0
49 -218 0
-217 0
-731 62 0
93 -562 0
-712 -295 0
-907 0
-219 935 0
-455 -724 0
-333 118 0
-126 -222 0
-743 25 0
-92 399 0
-576 -991 0
907 -316 0
-951 0
-552 646 0
-992 -761 0
-16 0
-328 429 0
-71 0
-462 0
-5 -380 0
-283 61 0
432 -835 0
208 -827 0
-780 0
205 -497 0
-124 518 0
337 -738 0
217 -684 0
-900 0
-2 0
-33 0
-868 0
-515 0
-268 0
-43 543 0
-278 70 0
652 -17 0
-725 -321 0
208 -413 0
-239 523 0
539 -313 0
-946 0
-735 -916 0
-535 -197 0
-200 0
-573 0
945 -693 0
-638 851 0
-222 -837 0
-380 709 0
-895 -87 0
-14 301 0
-215 4 0
652 -33 0
-348 588 0
-351 913 0
146 -900 0
-819 -186 0
-860 0
-87 -173 0
-486 751 0
-17 -137 0
-263 0
-360 -999 0
-483 0
-914 0
885 -130 0
-61 839 0
-641 0
-607 0
-711 0
-17 0
-548 0
-723 -634 0
-508 0
-65 0
906 -353 0
10 -596 0
-783 0
-71 5 0
-896 -301 0
-944 0
-856 0
-694 231 0
-645 0
112 -803 0
50 -477 0
-983 63 0
-390 0
-124 0
-996 -193 0
700 -387 0
-85 0
-253 971 0
-932 701 0
-894 -242 0
458 -522 0
-872 0
-518 138 0
-38 0
-771 0
-180 -811 0
-919 -401 0
-155 0
-228 0
-656 0
-200 0
-360 57 0
-910 0
306 -433 0
376 -822 0
-924 190 0
-139 0
-600 -514 0
529 -445 0
-710 0
-534 -966 0
-942 -565 0
-418 0
-11 -354 0
697 -397 0
-591 0
-482 0
-379 0
-799 0
-767 0
-580 -682 0
-695 -22 0
568 -380 0
-850 0
536 -961 0
-699 0
-888 0
-216 748 0
398 -137 0
-97 0
-888 0
-113 0
-418 0
-44 758 0
-376 -165 0
-257 0
-70 0
-771 0
-983 0
-749 -877 0
-115 0
637 -306 0
-597 -924 0
51 -748 0
-85 557 0
-755 0
-38 748 0
-414 909 0
-967 556 0
-729 0
-59 0
-164 -499 0
-182 -13 0
385 -740 0
-437 95 0
-128 413 0
-91 -257 0
250 -418 0
-943 0
-103 0
688 -78 0
-239 0
-343 -353 0
356 -907 0
536 -263 0
-624 886 0
-150 0
-992 0
-96 -531 0
25 -627 0
-197 -250 0
-571 0
-807 0
-984 0
-280 533 0
-970 0
-507 0
714 -948 0
356 -153 0
-904 -480 0
384 -937 0
-949 0
-840 0
-872 538 0
-803 733 0
-549 0
393 -379 0
-200 0
-677 -660 0
438 -825 0
96 -226 0
-951 -422 0
-650 0
-147 0
-634 -538 0
-859 0
-135 0
-735 158 0
-601 0
-308 -516 0
-992 -18 0
-941 -473 0
-912 274 0
-200 0
-40 -123 0
-548 -769 0
-204 -83 0
-58 0
-333 0
227 -393 0
-508 375 0
-989 0
-134 -777 0
-230 892 0
-154 0
-465 0
945 -33 0
-564 -817 0
-234 0
-213 0
-259 0
-869 54 0
-716 -137 0
-244 -922 0
-752 161 0
-453 0
-876 0
-344 821 0
-270 -845 0
-757 0
-945 0
-778 0
-122 246 0
-711 0
-508 0
-799 0
-505 0
-239 -414 0
-18 0
366 -305 0
-957 0
-7 0
760 -37 0
41 -186 0
-232 0
-286 -554 0
-278 122 0
-947 919 0
-822 -37 0
44 -531 0
-970 -609 0
-545 0
-191 0
424 -988 0
-281 0
-75 0
-42 0
-112 809 0
-775 -4 0
-510 0
984 -685 0
-791 -516 0
-949 0
-33 0
-658 0
-773 581 0
-277 116 0
281 -315 0
-71 -434 0
-655 0
835 -285 0
-68 445 0
33 -420 0
-485 750 0
-895 -676 0
-550 0
-807 0
-31 -450 0
-726 0
-915 -931 0
-385 0
-380 0
874 -137 0
-756 750 0
602 -499 0
-946 -537 0
-554 0
-431 -522 0
-647 0
896 -702 0
-304 435 0
-200 243 0
-874 0
499 -913 0
-677 518 0
-993 0
-88 -165 0
-120 0
-979 382 0
-804 0
-345 0
395 -627 0
-434 783 0
-375 0
-180 0
-548 0
-978 0
-1000 0
-873 0
-836 0
-608 702 0
-788 -891 0
-837 612 0
-871 0
-819 0
-756 0
-848 713 0
-876 0
-539 0
-991 0
-671 0
-477 0
-134 -916 0
-633 0
-563 0
-336 0
-229 0
-453 0
-723 941 0
-389 0
864 -511 0
-821 597 0
-84 597 0
-495 0
-481 0
881 -156 0
-108 0
-888 862 0
-297 0
792 -741 0
-105 0
523 -459 0
-294 -226 0
-53 756 0
-209 0
-603 0
-854 0
-331 38 0
-626 0
-538 790 0
-220 0
986 -939 0
-427 -266 0
-446 414 0
-998 0
-201 0
-643 0
-854 0
-346 0
-576 -809 0
-558 -18 0
496 -84 0
-110 0
-444 0
-682 -521 0
-814 628 0
-134 0
-748 -284 0
-88 0
-348 0
-185 0
-166 541 0
-224 617 0
-352 -685 0
-668 540 0
764 -259 0
-568 -821 0
-416 0
-354 0
-487 -861 0
-367 0
-324 -756 0
820 -321 0
-262 0
-861 852 0
-536 0
-248 161 0
-98 0
-86 0
-774 190 0
-61 0
-132 461 0
966 -785 0
-492 0
307 -779 0
-540 -930 0
-696 0
-806 934 0
-781 0
-424 0
-368 749 0
259 -181 0
-342 0
-688 -412 0
-635 0
-327 330 0
-493 0
-116 0
-221 822 0
-279 0
576 -311 0
-168 49 0
-77 -10 0
-94 277 0
-583 0
-997 -865 0
-646 -870 0
-974 -300 0
-389 0
-445 0
-475 0
-946 0
-422 0
-712 413 0
-573 0
907 -299 0
-484 0
-96 870 0
907 -34 0
267 -180 0
-784 -779 0
272 -219 0
885 -371 0
-535 935 0
-699 959 0
-324 -354 0
-765 798 0
-771 -499 0
-488 0
-430 838 0
172 -185 0
-869 214 0
-597 806 0
-377 0
-136 0
-110 0
801 -497 0
360 -358 0
32 -129 0
-96 -316 0
620 -122 0
773 -41 0
-72 0
-991 -276 0
-433 0
-452 0
-979 0
-366 0
-472 -554 0
-190 0
-49 0
252 -731 0
-843 0
-754 0
873 -658 0
434 -929 0
60 -171 0
-50 0
-789 -28 0
904 -261 0
-798 0
-407 0
-453 0
-604 0
-206 267 0
170 -369 0
-85 -20 0
-857 -265 0
-293 0
-807 -356 0
947 -75 0
-315 527 0
-224 0
-340 0
624 -606 0
-146 0
-893 0
-215 -357 0
379 -554 0
-592 0
461 -881 0
-821 559 0
-152 0
-927 -508 0
498 -508 0
-121 0
-10 -17 0
-200 367 0
-421 0
-64 959 0
573 -497 0
-116 -860 0
460 -210 0
-566 -14 0
-328 61 0
-15 564 0
-645 756 0
553 -123 0
-340 590 0
-959 548 0
-949 100 0
680 -160 0
-703 -206 0
-532 -529 0
696 -526 0
-16 -663 0
-510 589 0
815 -753 0
-471 0
-632 0
-651 0
-24 443 0
-701 0
362 -595 0
101 -185 0
-359 -276 0
729 -427 0
-675 0
-248 63 0
-399 -181 0
-783 235 0
-792 0
-726 147 0
-231 227 0
-105 0
-511 0
-505 0
-268 -740 0
-684 0
-7 450 0
-247 0
570 -74 0
-707 -649 0
-909 453 0
-31 -563 0
-535 967 0
61 -115 0
-942 142 0
220 -529 0
-555 0
315 -777 0
707 -802 0
-531 559 0
-215 10 0
-359 0
-388 -267 0
-747 221 0
-208 0
-894 901 0
-298 0
-904 169 0
-331 0
592 -214 0
-430 646 0
-266 0
-655 457 0
-495 0
-538 0
-560 601 0
357 -946 0
-526 772 0
-56 -533 0
-239 0
-558 -713 0
458 -697 0
-729 0
186 -339 0
778 -493 0
-381 0
-912 844 0
-950 831 0
928 -429 0
251 -644 0
-541 0
197 -826 0
-608 -887 0
-931 974 0
-894 -43 0
-768 640 0
-167 268 0
-759 -899 0
-113 0
604 -748 0
-278 806 0
-109 0
-646 795 0
-47 -537 0
-1 -41 0
-888 0
-291 0
-118 0
-987 0
-518 237 0
664 -455 0
-773 -35 0
-126 205 0
-324 213 0
-497 0
-224 0
-9 0
-912 0
-687 -630 0
-925 774 0
-845 0
-262 244 0
-232 39 0
-494 0
-963 0
-981 863 0
-72 0
609 -455 0
-487 0
-34 0
-176 629 0
-523 431 0
-996 0
388 -331 0
-336 0
-791 898 0
-308 -587 0
-844 -74 0
-752 0
-982 0
-781 0
-219 0
451 -785 0
-564 0
-56 -178 0
-626 -273 0
-463 0
-483 0
786 -987 0
465 -145 0
-10 0
-524 967 0
-304 0
-244 0
-542 598 0
-316 0
-637 -379 0
-78 -203 0
-534 0
-181 -476 0
-944 613 0
-984 233 0
-607 708 0
-677 247 0
182 -625 0
-284 -739 0
-99 0
-797 183 0
-416 28 0
-842 0
-166 0
-822 -835 0
-129 0
-29 0
-18 0
-773 -346 0
-268 0
985 -444 0
-638 0
932 -858 0
-560 985 0
-921 0
-924 0
-446 -490 0
56 -871 0
-442 0
554 -988 0
-852 917 0
-294 0
-722 415 0
697 -29 0
-722 0
864 -55 0
-454 0
-885 0
504 -92 0
-470 195 0
268 -642 0
-198 0
-213 -653 0
-43 -561 0
-501 117 0
955 -141 0
-320 0
-682 0
218 -649 0
-47 -927 0
651 -753 0
610 -596 0
-340 -964 0
-351 -787 0
651 -716 0
-136 -234 0
-753 0
447 -745 0
-695 889 0
-570 0
-239 -297 0
-807 -981 0
476 -25 0
603 -797 0
-184 -598 0
-70 0
-816 0
584 -116 0
-546 0
-379 0
-631 -130 0
-696 739 0
628 -35 0
-880 898 0
-213 0
-895 -372 0
884 -602 0
-40 0
-621 300 0
-974 0
914 -219 0
-853 0
-318 0
-566 0
-179 0
-266 967 0
-619 0
-265 0
414 -194 0
-277 0
-146 782 0
-47 0
652 -26 0
-24 98 0
93 -857 0
513 -524 0
-58 0
445 -762 0
629 -554 0
-194 0
72 -9 0
-766 0
-550 0
-116 951 0
-478 0
-38 -635 0
731 -612 0
-495 -155 0
574 -665 0
-79 -293 0
-717 943 0
545 -603 0
-656 653 0
-470 0
-967 0
-741 907 0
-611 0
961 -555 0
-649 0
433 -374 0
-975 -380 0
-125 60 0
-231 -275 0
305 -430 0
-247 365 0
-744 580 0
-245 892 0
-240 0
-615 0
-597 877 0
-364 0
-152 904 0
-187 0
-734 0
-455 0
834 -404 0
-432 580 0
-413 0
-256 0
-206 0
-996 0
-571 0
-894 507 0
-164 342 0
-692 0
-665 0
-848 -546 0
-832 0
-86 0
-40 92 0
-663 182 0
-251 -67 0
-183 -140 0
-510 132 0
-611 0
-630 0
-552 537 0
-157 0
304 -419 0
969 -970 0
-57 0
-391 0
-767 583 0
-808 0
272 -942 0
-974 0
-235 935 0
-628 910 0
-893 0
745 -902 0
-392 -524 0
-503 -10 0
-91 0
-823 -693 0
-610 0
-621 -804 0
-336 0
-565 631 0
-851 942 0
-137 0
-270 -794 0
-548 -17 0
-45 0
-301 0
179 -817 0
-47 -377 0
-904 -750 0
-127 582 0
-661 197 0
970 -196 0
-44 695 0
810 -257 0
-346 0
-918 742 0
-607 -73 0
-36 -530 0
-311 0
577 -958 0
-954 0
-589 -651 0
440 -221 0
77 -146 0
210 -461 0
-30 317 0
-205 -411 0
19 -426 0
-755 0
744 -566 0
664 -308 0
-263 -306 0
-328 534 0
-578 0
-358 0
846 -881 0
-290 -585 0
-768 635 0
-650 0
-800 0
-632 -689 0
-420 -835 0
348 -107 0
-593 0
-484 0
-475 -322 0
-821 -467 0
209 -981 0
-553 0
-525 0
-28 615 0
595 -419 0
41 -460 0
-310 955 0
-95 910 0
309 -497 0
-10 0
-881 0
-378 0
-306 0
11 -809 0
-783 890 0
-395 -986 0
-595 310 0
802 -817 0
-911 0
570 -69 0
-705 0
-392 0
656 -854 0
905 -51 0
-616 243 0
432 -404 0
-180 231 0
-610 0
-678 0
-974 667 0
-850 0
-764 0
-517 -297 0
-997 -705 0
-544 0
-408 0
-958 998 0
-196 -507 0
-576 3 0
-53 0
-388 580 0
-56 -140 0
-657 0
-135 532 0
-490 0
-212 0
-752 0
541 -537 0
-798 -913 0
-308 0
811 -636 0
-10 230 0
-734 -614 0
-537 0
-18 0
-591 -938 0
857 -734 0
952 -649 0
-742 82 0
-365 0
-347 0
-678 -850 0
-760 0
-110 0
-85 279 0
13 -841 0
229 -401 0
-772 -321 0
-557 -259 0
-920 0
-333 -529 0
-672 -304 0
-511 0
-856 -787 0
-532 0
-728 812 0
-788 -268 0
-907 0
-314 0
-336 -299 0
-671 0
640 -969 0
-4 -858 0
-652 -571 0
-13 0
-653 213 0
-428 0
370 -522 0
-996 -164 0
-561 0
-525 -130 0
-44 0
-544 -79 0
-383 732 0
171 -225 0
-124 0
-783 0
-487 -374 0
527 -657 0
-974 0
-550 3 0
-9 0
-533 540 0
-275 0
-168 150 0
-515 479 0
-703 -111 0
656 -639 0
-613 0
-663 941 0
8 -809 0
-952 0
-736 312 0
994 -729 0
-384 0
-933 926 0
-295 -550 0
322 -914 0
-544 0
617 -162 0
-523 -827 0
-632 171 0
684 -803 0
-645 757 0
128 -912 0
-717 -555 0
-340 359 0
-381 63 0
-397 0
-534 0
-957 4 0
264 -846 0
-134 964 0
-834 0
-158 588 0
-569 0
-930 0
-493 -978 0
-581 -619 0
-661 0
-163 0
-88 0
-75 0
-695 374 0
80 -32 0
-611 0
-245 -269 0
-21 -706 0
-423 -364 0
701 -738 0
-562 0
-666 0
-312 706 0
-29 0
-42 0
-966 -595 0
69 -579 0
-87 -282 0
-126 -817 0
-475 150 0
-154 0
72 -627 0
-951 -526 0
-608 -546 0
-228 0
-951 0
-783 842 0
-357 0
-349 0
123 -219 0
88 -613 0
-12 877 0
-736 0
403 -210 0
-136 0
-146 0
-894 813 0
-760 -303 0
-936 170 0
664 -219 0
-759 0
-614 -954 0
-896 -236 0
-536 0
-737 0
-383 0
-603 215 0
-888 -724 0
-309 900 0
-676 126 0
754 -653 0
-52 0
-136 391 0
-585 0
984 -442 0
-235 702 0
536 -180 0
-848 102 0
-846 679 0
-950 -1 0
-630 146 0
456 -113 0
331 -564 0
-949 0
-930 0
-48 0
-839 0
-796 645 0
-869 0
-904 -246 0
-112 -26 0
459 -130 0
-631 207 0
-861 -553 0
135 -89 0
-104 -540 0
-284 -681 0
-52 0
-320 0
-643 0
-894 -522 0
796 -434 0
-756 284 0
-124 853 0
-303 0
-778 0
-487 -77 0
334 -473 0
-1 0
-323 934 0
-445 0
179 -273 0
-549 -754 0
656 -174 0
537 -254 0
-794 0
-778 0
484 -561 0
-134 594 0
-895 -957 0
-592 0
-515 0
-404 -732 0
-763 135 0
-264 0
-534 -158 0
-327 -819 0
-832 0
-168 -510 0
-224 871 0
922 -676 0
45 -754 0
-372 965 0
-667 -290 0
488 -283 0
-423 0
-657 0
-245 0
-925 22 0
-435 0
-315 301 0
56 -9 0
-532 0
-916 -593 0
-802 0
-998 -153 0
-552 -316 0
256 -211 0
-163 0
36 -547 0
-82 0
20 -465 0
-240 847 0
-148 0
-30 0
-607 393 0
-513 -81 0
-996 0
-663 -878 0
-614 -869 0
-371 -290 0
-686 -801 0
112 -459 0
-831 0
-708 0
538 -809 0
-270 0
978 -634 0
-95 207 0
-668 0
-486 0
-730 0
-419 0
-267 870 0
-394 0
-328 0
-729 0
-382 0
-326 -101 0
-251 -963 0
-936 583 0
-264 659 0
-858 0
784 -685 0
906 -923 0
-756 567 0
-421 -349 0
-903 0
-527 83 0
-122 0
-644 -954 0
-980 0
-187 743 0
-703 489 0
-878 0
-239 -269 0
-520 0
-703 0
-855 -854 0
102 -521 0
-298 0
-336 -325 0
18 -674 0
-198 755 0
-885 0
-776 0
-44 -337 0
-684 -842 0
186 -801 0
-691 974 0
-579 0
636 -788 0
-669 0
650 -25 0
-716 439 0
-476 389 0
-515 0
-335 -369 0
-501 -972 0
-613 -577 0
456 -518 0
-231 228 0
-51 0
-503 -971 0
-229 830 0
-3 181 0
-103 -889 0
-888 -313 0
292 -603 0
-885 757 0
-904 727 0
-139 0
-533 476 0
-536 0
-182 -121 0
-764 -659 0
-199 413 0
616 -730 0
-561 0
-358 -610 0
273 -67 0
-585 0
-365 0
-539 -338 0
-981 0
-458 671 0
-727 0
-143 -631 0
-508 -897 0
-183 -860 0
-78 0
-852 -986 0
-301 93 0
-315 0
-585 0
-100 0
-164 781 0
611 -805 0
-510 308 0
761 -578 0
-101 77 0
-192 -994 0
-565 -467 0
-215 0
-411 0
-34 0
624 -29 0
408 -17 0
-854 -545 0
-122 919 0
880 -419 0
-423 -266 0
817 -777 0
-584 -200 0
-822 -770 0
-484 0
688 -771 0
-856 0
442 -985 0
289 -153 0
235 -419 0
-927 -865 0
-692 0
-278 -852 0
121 -739 0
-16 0
-789 0
-259 447 0
40 -290 0
-64 0
-850 0
-119 0
-944 -839 0
162 -524 0
-725 454 0
-71 0
-740 5 0
619 -779 0
197 -339 0
-479 -490 0
411 -861 0
-814 764 0
-425 -321 0
-12 -683 0
-439 -597 0
-636 0
-766 0
450 -42 0
-270 -33 0
-903 875 0
772 -193 0
-907 0
-637 -716 0
-841 0
-45 987 0
160 -154 0
-78 -809 0
-567 -28 0
-144 901 0
-44 0
-440 0
-145 0
426 -174 0
-392 967 0
-605 0
-344 0
-670 130 0
-352 582 0
-209 0
-711 0
-371 534 0
-126 91 0
707 -85 0
-957 0
-892 -794 0
-8 977 0
704 -395 0
-206 0
-712 0
-238 0
-946 0
-333 0
-786 0
-740 0
-70 445 0
-647 0
-611 0
-259 0
-744 -940 0
-24 -612 0
-974 -857 0
853 -674 0
485 -427 0
441 -421 0
-86 818 0
896 -316 0
-75 -362 0
-990 0
-214 -381 0
-423 0
-613 0
-750 0
-472 658 0
-13 414 0
-649 0
-149 4 0
-534 0
-464 126 0
-140 0
-389 0
-981 0
-263 0
-459 0
-765 0
105 -204 0
640 -702 0
34 -947 0
673 -450 0
-264 0
-447 0
-675 -739 0
-550 -674 0
-503 0
-929 0
-676 0
294 -602 0
520 -337 0
-548 -652 0
-472 474 0
739 -801 0
745 -181 0
-578 0
-606 750 0
869 -977 0
-439 -865 0
368 -900 0
-782 716 0
-540 -939 0
452 -761 0
-568 0
112 -208 0
616 -731 0
-716 0
-55 820 0
-354 0
-408 0
-382 0
-530 0
-428 0
-932 0
-800 563 0
-204 0
-262 -236 0
-72 0
-860 197 0
-223 -710 0
-454 479 0
731 -345 0
-840 -354 0
857 -421 0
-280 0
-410 0
493 -10 0
928 -635 0
-266 0
-752 881 0
-2 0
-66 0
-135 -53 0
-613 0
-766 0
-743 108 0
-204 -497 0
177 -565 0
-151 0
-694 -818 0
-234 0
-461 -850 0
-597 316 0
-748 0
-960 0
-8 -127 0
-766 7 0
-173 0
-347 0
-457 0
520 -577 0
-120 0
-116 0
600 -882 0
-907 0
-930 0
-666 0
-313 0
-287 0
-149 -620 0
-526 965 0
-666 0
347 -274 0
-362 -242 0
553 -303 0
-953 0
208 -677 0
-623 139 0
-645 0
-153 0
-788 0
123 -668 0
-863 0
-942 719 0
-272 -153 0
-80 710 0
-331 598 0
-433 0
-106 0
-551 347 0
-700 0
569 -7 0
360 -186 0
-38 0
-919 0
-78 0
26 -963 0
840 -51 0
483 -745 0
-5 0
-954 0
-988 -617 0
-46 0
-619 0
-534 0
-31 -861 0
-528 -277 0
422 -818 0
610 -810 0
706 -590 0
-605 -1 0
627 -380 0
292 -906 0
76 -379 0
-31 0
-60 700 0
200 -688 0
-449 0
-536 0
-849 0
-671 623 0
-451 -721 0
-518 164 0
-235 0
-364 -177 0
-846 43 0
521 -564 0
-740 0
-255 502 0
689 -475 0
-416 -947 0
-685 0
-679 0
-828 -649 0
-406 903 0
-990 -485 0
-405 -738 0
-842 0
-960 0
-398 -377 0
-904 0
-940 -154 0
-517 915 0
-820 0
-221 997 0
636 -1 0
-844 -786 0
-488 900 0
2 -958 0
-350 0
-496 0
-985 0
-581 -354 0
-869 -770 0
338 -395 0
-282 0
-357 -740 0
536 -84 0
378 -963 0
708 -65 0
-535 0
-235 -529 0
-605 975 0
-607 726 0
-54 0
-404 0
-560 -269 0
-892 -297 0
-428 511 0
657 -563 0
-352 -261 0
-881 0
513 -970 0
-712 -268 0
-318 0
611 -580 0
454 -873 0
-581 -139 0
-277 -298 0
-1000 0
-559 -166 0
-132 -913 0
508 -305 0
-398 0
86 -466 0
-527 -26 0
-896 842 0
-974 -538 0
-214 517 0
-769 0
-836 575 0
-584 876 0
-669 0
-211 0
-949 0
-55 -731 0
1000 -500 0
-294 -235 0
-317 397 0
-416 583 0
-176 0
-378 0
-320 0
-173 -969 0
-960 -373 0
-217 0
204 -851 0
-593 0
-37 823 0
-871 605 0
-532 0
-805 302 0
-728 -285 0
-717 179 0
-507 0
-479 0
-336 0
-823 941 0
337 -765 0
283 -244 0
-560 239 0
772 -378 0
-404 741 0
-780 -817 0
-925 -97 0
-820 0
-506 0
-518 411 0
-996 0
766 -994 0
738 -789 0
-303 0
-148 0
-621 0
96 -521 0
-303 -498 0
-590 0
-983 26 0
-102 0
872 -644 0
-551 -711 0
-432 273 0
-662 0
-669 527 0
-822 84 0
465 -185 0
-54 0
-440 -805 0
-456 -540 0
-117 0
-263 -185 0
-606 579 0
-921 0
866 -179 0
-512 66 0
-454 0
-651 0
-364 0
-867 0
-363 0
-681 0
-687 -154 0
-504 -747 0
-134 -658 0
579 -362 0
-747 0
-499 958 0
314 -193 0
-551 349 0
114 -929 0
-997 -213 0
-686 0
-353 263 0
-793 0
-324 0
-744 796 0
-143 0
-868 -412 0
754 -51 0
-147 0
-498 719 0
392 -874 0
432 -329 0
-608 116 0
-63 -689 0
-654 -21 0
-987 78 0
-399 -883 0
-782 796 0
-420 0
350 -657 0
-927 -413 0
-259 0
136 -637 0
-80 0
746 -150 0
-302 298 0
-534 0
-124 0
-88 813 0
-16 473 0
-614 964 0
-732 717 0
-388 805 0
329 -587 0
-632 0
-974 0
-445 0
-4 0
-279 -12 0
-774 111 0
-725 0
-247 -578 0
-870 0
-105 383 0
-274 0
617 -234 0
-292 0
-124 -762 0
-86 538 0
49 -799 0
-868 471 0
-142 -412 0
-903 -562 0
617 -393 0
328 -333 0
896 -597 0
699 -338 0
-744 -87 0
-728 0
-24 0
-681 0
416 -753 0
-3 0
864 -450 0
-551 791 0
-639 0
-48 -359 0
-981 -801 0
-829 0
-551 -651 0
-230 -772 0
632 -161 0
402 -650 0
-308 0
-477 365 0
-717 0
-5 0
-989 0
-896 0
-299 0
-392 0
-39 -387 0
26 -746 0
-789 -705 0
-284 0
-548 -105 0
330 -748 0
-32 -484 0
50 -484 0
769 -596 0
-64 0
-326 694 0
-455 -369 0
-870 -18 0
-978 0
-658 -753 0
-954 543 0
-821 0
-294 -290 0
-400 0
-724 -402 0
-77 0
-945 0
221 -555 0
-13 0
-884 0
812 -786 0
-527 359 0
-128 0
-684 -41 0
171 -212 0
-136 -967 0
-651 0
-415 0
-917 0
-742 0
82 -413 0
-350 0
-560 -259 0
-84 0
50 -141 0
-78 -445 0
618 -20 0
-826 0
-772 446 0
-16 486 0
-619 -625 0
-928 214 0
-946 0
-525 310 0
-441 0
-196 0
-670 -572 0
-149 0
-839 460 0
-751 84 0
-764 0
-269 -443 0
-583 351 0
557 -465 0
-39 0
-164 -787 0
-218 -113 0
-637 181 0
-351 0
-520 757 0
-546 0
-162 -202 0
-688 0
500 -474 0
-535 0
-905 0
-166 0
-962 -42 0
584 -252 0
313 -45 0
-623 0
-519 0
-35 0
-527 2 0
-672 580 0
-845 -969 0
707 -250 0
-199 0
-879 -585 0
-622 0
-956 0
-704 2 0
612 -818 0
-707 919 0
505 -647 0
-919 0
-52 0
-205 -715 0
-54 -902 0
-591 -233 0
-455 -766 0
-112 0
-403 0
-351 -878 0
866 -362 0
-241 0
-10 0
-67 734 0
-60 0
-969 0
-497 0
-563 0
-270 335 0
-155 0
-192 510 0
-402 -793 0
267 -899 0
-256 0
-835 0
718 -482 0
-258 0
260 -970 0
-311 0
-658 0
-1000 0
-194 -442 0
-792 252 0
53 -835 0
-21 0
-391 0
100 -827 0
160 -912 0
572 -162 0
-508 -1 0
-656 833 0
-169 0
689 -274 0
-679 0
422 -153 0
-680 -852 0
-424 -252 0
-458 0
-47 0
-457 0
-79 -747 0
-426 -545 0
-674 -225 0
-800 0
-136 598 0
-37 295 0
-74 0
961 -517 0
-36 0
330 -101 0
613 -226 0
-494 0
-295 -374 0
-463 941 0
481 -501 0
-1 0
-653 -234 0
377 -276 0
-63 -803 0
-593 0
-664 -589 0
-304 -154 0
-74 0
981 -530 0
-121 0
-865 0
306 -77 0
-562 0
-916 0
-439 361 0
-339 0
-745 0
-464 0
-872 -914 0
-842 0
-691 0
-785 0
996 -905 0
-184 0
-70 0
-226 0
-2 0
-168 -299 0
-74 -514 0
-639 0
-358 0
-660 -859 0
630 -722 0
-370 0
-462 0
589 -121 0
-672 381 0
-784 0
176 -668 0
-767 182 0
-653 0
-282 0
-984 644 0
-648 -760 0
-922 0
-106 0
-157 0
-556 0
-94 -610 0
-138 0
-334 -997 0
515 -596 0
-621 -475 0
-58 0
-315 -114 0
-462 0
-450 950 0
-249 0
-221 0
-611 118 0
-812 0
-401 0
-854 0
-148 0
-849 0
-288 0
-678 0
-536 -910 0
865 -379 0
811 -315 0
-18 0
-747 695 0
777 -893 0
920 -778 0
-804 0
-829 0
-831 0
-960 -738 0
-884 510 0
-600 381 0
347 -709 0
-307 0
-364 0
-102 981 0
-592 511 0
-469 -923 0
578 -700 0
-389 782 0
-313 0
-183 -465 0
-985 -217 0
-770 0
906 -492 0
-264 0
-870 708 0
-640 -245 0
-546 0
203 -611 0
-439 0
378 -345 0
-469 550 0
-185 0
-456 667 0
-220 0
-907 0
-93 0
-904 0
-120 -237 0
-979 0
-107 0
970 -801 0
814 -225 0
-613 0
-298 0
-372 0
-201 0
-509 0
-137 0
-801 0
-160 0
-144 892 0
-910 0
-22 338 0
-592 979 0
-944 -79 0
-707 0
-916 919 0
-616 0
960 -625 0
-940 159 0
-105 0
-839 -97 0
-397 0
-396 -666 0
-260 -513 0
-414 0
-240 866 0
-88 0
697 -375 0
-143 0
-552 -50 0
539 -393 0
44 -859 0
-703 -83 0
-940 175 0
-756 0
-887 -12 0
-832 -747 0
-128 0
-193 0
704 -575 0
-78 0
-625 0
-442 0
-145 0
-56 0
-797 -491 0
-861 0
257 -347 0
-303 -331 0
394 -387 0
-361 0
-56 -272 0
144 -229 0
-502 119 0
-107 -177 0
-317 0
-585 0
-396 -122 0
-383 0
907 -93 0
-295 -443 0
-34 0
-539 381 0
800 -321 0
-8 635 0
-789 147 0
994 -36 0
-731 0
-496 -188 0
960 -817 0
553 -798 0
671 -393 0
-207 -675 0
-478 787 0
-382 725 0
-579 -273 0
-323 0
-124 0
-189 397 0
-396 0
-739 -771 0
178 -684 0
-972 0
-747 0
-264 0
825 -317 0
-958 926 0
74 -644 0
-948 -105 0
917 -745 0
536 -760 0
-345 0
-20 -474 0
-414 -948 0
-247 0
118 -738 0
-546 0
809 -583 0
-850 0
-240 -668 0
-583 0
-328 0
-829 0
-82 559 0
-66 0
-347 0
-192 299 0
-414 0
-928 -995 0
-713 0
-158 340 0
45 -401 0
-473 -417 0
-533 -521 0
864 -370 0
-638 0
-578 0
-534 77 0
222 -89 0
-137 0
-11 -529 0
-829 -84 0
-274 0
899 -937 0
-780 -257 0
-734 0
-692 343 0
-397 327 0
-172 0
-638 0
-174 0
-781 0
-2 0
-262 204 0
-867 -74 0
-688 -145 0
60 -987 0
-158 878 0
-272 0
-535 -585 0
-230 635 0
-598 0
-64 125 0
-569 0
-254 444 0
-641 0
-738 270 0
133 -826 0
248 -345 0
843 -596 0
-554 0
-136 953 0
402 -356 0
-412 726 0
-247 0
-254 0
-416 -125 0
-790 0
-486 -93 0
-889 0
-248 193 0
-586 0
-208 982 0
-918 0
-858 0
-534 654 0
-455 615 0
-429 -900 0
-952 198 0
-148 -171 0
-711 -266 0
893 -961 0
-245 -59 0
-655 -305 0
-256 396 0
114 -361 0
-991 603 0
-752 0
-456 853 0
-501 0
-275 0
121 -972 0
659 -3 0
-461 0
-488 -191 0
841 -590 0
44 -609 0
-271 962 0
379 -293 0
-784 0
-239 836 0
-512 -347 0
628 -545 0
-600 -49 0
-982 0
-584 281 0
-307 0
-131 -859 0
-818 0
793 -742 0
-571 0
-434 0
793 -563 0
-139 0
-863 0
-348 0
-13 0
-103 -316 0
-800 376 0
-918 309 0
50 -117 0
-386 0
-955 -634 0
-280 823 0
-863 353 0
-192 813 0
-696 -193 0
-727 0
-759 0
-974 853 0
-40 -318 0
-87 0
-960 841 0
552 -617 0
-733 0
-606 0
-425 0
131 -954 0
-440 958 0
-613 0
916 -355 0
-532 0
44 -730 0
-224 774 0
-614 0
-10 0
-173 700 0
-948 421 0
57 -708 0
885 -178 0
-965 0
-532 629 0
-445 0
-525 -956 0
510 -857 0
406 -977 0
-297 0
-744 565 0
-836 0
664 -860 0
-335 0
-496 769 0
-496 -618 0
329 -222 0
-728 303 0
-76 0
-899 -530 0
-537 0
-911 0
-137 0
-947 0
-394 0
-240 759 0
-369 0
-405 739 0
-803 0
507 -249 0
-939 0
-927 794 0
82 -629 0
-553 0
-358 253 0
419 -210 0
-358 659 0
-985 0
-559 622 0
-400 -47 0
-96 0
588 -346 0
401 -755 0
-436 -305 0
-247 0
-822 730 0
-8 436 0
-925 863 0
-940 894 0
-683 0
-732 687 0
-676 885 0
-343 0
-325 0
-79 0
-464 767 0
608 -471 0
608 -332 0
-144 -895 0
-551 -870 0
-381 -730 0
-182 -413 0
-318 410 0
-831 0
-291 255 0
-720 308 0
-659 0
-653 -177 0
-718 -905 0
-886 619 0
-90 0
65 -683 0
-572 0
-406 0
-413 964 0
637 -297 0
-967 165 0
-15 -404 0
-32 0
589 -659 0
-208 -231 0
-471 0
361 -491 0
-902 -100 0
-135 631 0
-45 -914 0
-680 -999 0
-284 0
-996 855 0
-496 841 0
-270 0
992 -390 0
360 -461 0
962 -931 0
-918 123 0
-77 92 0
363 -466 0
-766 -292 0
-901 -546 0
960 -176 0
632 -588 0
-30 -337 0
-964 389 0
-768 0
-905 0
-8 116 0
-102 957 0
-496 -529 0
731 -482 0
851 -721 0
-744 282 0
-596 0
-19 343 0
953 -740 0
-400 0
-766 0
-502 0
-464 0
-765 0
-422 0
-793 0
-348 879 0
-832 0
-383 207 0
-492 0
-568 0
-256 740 0
-407 557 0
-124 0
-311 -247 0
-304 -865 0
760 -49 0
-686 0
-843 0
232 -622 0
-471 459 0
418 -754 0
-641 0
56 -307 0
-809 0
-686 -646 0
938 -475 0
484 -281 0
-642 0
369 -231 0
-880 0
-810 0
181 -722 0
-171 -715 0
-551 -835 0
34 -85 0
737 -108 0
-261 -809 0
-655 729 0
-4 0
373 -154 0
898 -347 0
938 -323 0
-327 262 0
-553 0
514 -996 0
-414 420 0
-614 0
-642 0
880 -523 0
-581 989 0
-744 -197 0
360 -965 0
417 -674 0
-207 399 0
-94 995 0
-379 0
984 -596 0
462 -66 0
-223 0
-215 117 0
221 -705 0
-461 227 0
-232 901 0
-54 -970 0
936 -538 0
-114 823 0
-863 0
989 -859 0
-311 -461 0
-86 0
-751 629 0
-312 0
-422 0
-613 0
-220 -210 0
-77 838 0
-630 -194 0
-203 -515 0
566 -49 0
-700 111 0
963 -869 0
-325 0
-590 402 0
-144 751 0
-239 907 0
-989 14 0
-945 0
-110 0
-186 0
-114 0
-627 0
-676 0
-819 -914 0
-480 -563 0
-736 -375 0
190 -930 0
-493 806 0
-586 -369 0
-872 499 0
-807 399 0
-237 -42 0
569 -478 0
-495 -449 0
-848 1 0
936 -421 0
331 -700 0
-949 -395 0
-854 325 0
-287 213 0
441 -129 0
-51 0
-51 0
57 -238 0
-899 15 0
-815 0
-151 -326 0
-485 -267 0
-507 557 0
-543 -18 0
909 -674 0
-438 -282 0
-912 606 0
762 -938 0
-608 -915 0
928 -869 0
-803 0
-381 0
-271 162 0
-647 693 0
-6 693 0
-3 646 0
-13 327 0
-839 -433 0
-31 0
105 -603 0
-512 576 0
-396 0
-445 -804 0
-975 0
-510 525 0
-431 130 0
-936 -498 0
-996 0
-528 710 0
-358 0
-469 0
-364 -532 0
-138 47 0
443 -508 0
-543 -982 0
-555 246 0
-61 755 0
-479 890 0
-980 0
-368 381 0
-85 -841 0
-970 0
304 -24 0
-377 0
-867 0
-871 -218 0
-34 0
-553 0
-847 191 0
-511 -362 0
-81 0
465 -559 0
789 -27 0
-121 0
981 -818 0
-132 0
-775 0
940 -764 0
-398 0
-976 0
-328 202 0
-840 0
1000 -902 0
-580 405 0
-927 -205 0
-395 0
-900 -532 0
-624 0
-168 -39 0
-412 0
-6 -531 0
-904 -828 0
-579 0
-293 935 0
-125 0
-828 0
664 -382 0
-154 0
-542 -925 0
-180 0
-463 -828 0
-416 0
-903 -266 0
561 -203 0
-662 0
-637 -764 0
1 -862 0
-887 0
-170 -921 0
-773 0
-109 0
-62 -653 0
-613 0
-87 958 0
289 -259 0
-525 -354 0
-510 0
953 -494 0
-731 0
539 -146 0
-50 0
150 -258 0
-887 -317 0
-6 735 0
541 -306 0
-471 0
-35 0
-310 0
-790 615 0
378 -107 0
-949 0
-76 231 0
-285 -210 0
-550 0
-3 174 0
-712 0
829 -321 0
752 -219 0
880 -426 0
-338 0
-320 -51 0
-88 0
-62 0
-896 0
-187 0
-360 0
92 -987 0
-777 0
-197 0
-305 -209 0
-479 0
-289 0
36 -147 0
-998 0
-813 -539 0
-570 0
-522 0
-624 0
-445 228 0
-420 828 0
-644 0
-22 887 0
-946 -729 0
-223 122 0
-913 0
-319 215 0
-383 167 0
460 -699 0
-276 0
-805 0
-191 0
-29 14 0
-108 949 0
-978 0
155 -505 0
-658 807 0
-394 0
-652 0
444 -475 0
-622 -444 0
-783 0
-961 0
-192 -849 0
-485 758 0
608 -318 0
377 -661 0
569 -674 0
-907 86 0
-732 0
-607 0
-1000 198 0
-868 0
-141 -793 0
-843 0
-882 0
379 -588 0
-725 -939 0
107 -708 0
-628 0
-958 -140 0
-262 0
-545 0
-390 -114 0
-432 -653 0
-240 0
-864 -59 0
-63 947 0
-821 -36 0
249 -714 0
-957 596 0
-103 -521 0
830 -890 0
-950 0
-83 -41 0
-18 0
-631 158 0
-427 0
-100 0
-581 0
-480 -393 0
-404 0
-128 941 0
-92 0
-889 0
-287 0
-232 -636 0
816 -226 0
-439 -987 0
-576 0
-562 0
-325 243 0
-569 0
-156 -220 0
-960 -346 0
-954 0
-51 -697 0
-302 0
-102 514 0
-777 0
632 -923 0
-104 -856 0
-558 0
-475 0
-809 0
-653 0
266 -401 0
-911 -777 0
-956 -147 0
917 -73 0
-226 0
-648 -226 0
-588 423 0
546 -644 0
185 -442 0
-902 615 0
-602 0
-531 0
-277 0
-550 5 0
-367 -909 0
-884 0
-294 -802 0
-597 0
-568 0
110 -713 0
-882 0
-562 0
-797 0
-683 0
-567 243 0
-741 446 0
-418 0
-316 0
-896 0
-30 0
827 -548 0
-634 0
-709 0
-108 655 0
-348 0
-272 -641 0
-229 0
-75 -433 0
-675 0
-861 -923 0
-298 0
-871 190 0
307 -283 0
-947 0
33 -173 0
-488 873 0
-88 -341 0
468 -684 0
-299 -114 0
-271 -982 0
-976 0
-358 620 0
-780 0
-11 703 0
-499 0
-714 0
-43 0
491 -994 0
-439 -582 0
279 -681 0
-73 0
267 -355 0
-88 -194 0
-734 0
205 -641 0
-337 0
-917 0
-682 0
-270 -44 0
-281 0
75 -403 0
760 -851 0
-158 0
-646 -66 0
-303 0
-787 0
-395 0
-48 0
-537 0
-412 0
-275 0
271 -265 0
892 -602 0
866 -345 0
-40 402 0
-506 -538 0
-871 -789 0
-136 665 0
-192 -739 0
337 -738 0
-196 447 0
-384 -533 0
-757 739 0
-63 58 0
-765 0
-309 -131 0
-991 -926 0
-286 0
363 -882 0
875 -90 0
-966 0
-299 -866 0
819 -117 0
-492 -657 0
-257 0
-613 -841 0
-206 -602 0
-178 -449 0
-458 647 0
-687 211 0
-413 0
-119 23 0
-328 433 0
-608 755 0
-295 0
-381 0
-668 301 0
356 -713 0
-221 723 0
506 -537 0
832 -11 0
-317 -769 0
-109 405 0
-647 -770 0
849 -938 0
-615 298 0
-400 658 0
-692 -523 0
-578 0
-768 -23 0
-444 0
-132 918 0
598 -218 0
-885 -875 0
-122 0
-461 0
-637 255 0
-353 0
-762 0
-447 -683 0
-568 -797 0
-253 741 0
-582 0
-771 0
412 -579 0
-743 0
-37 748 0
-733 0
-221 0
-130 0
925 -609 0
-508 181 0
-799 60 0
-699 0
-503 23 0
878 -569 0
-57 0
-927 -723 0
-631 590 0
-483 -201 0
-725 0
-650 678 0
50 -794 0
921 -61 0
-672 895 0
-523 0
-314 0
-606 958 0
-566 -406 0
-932 0
-233 0
940 -667 0
-694 348 0
-477 342 0
-789 -458 0
633 -651 0
-815 0
-431 -907 0
-949 -530 0
-189 -381 0
-438 0
-796 -738 0
-656 0
-120 -443 0
-439 0
-718 0
-565 0
-594 0
-631 -79 0
-660 0
-1000 639 0
-401 0
560 -166 0
113 -617 0
-125 0
-195 846 0
101 -513 0
-56 -98 0
-779 0
177 -378 0
-322 0
265 -463 0
112 -36 0
-376 -171 0
-671 -364 0
-466 -898 0
-93 0
-756 0
-483 -899 0
-68 -243 0
433 -387 0
-418 0
-944 993 0
234 -428 0
-658 0
-955 0
-99 0
-403 -610 0
-766 963 0
-669 -129 0
-310 0
-802 -737 0
-159 324 0
-272 0
-739 -899 0
-246 0
-703 -689 0
-80 913 0
249 -694 0
-3 -393 0
748 -25 0
-312 -546 0
-415 626 0
-685 -58 0
-408 931 0
950 -761 0
785 -810 0
709 -426 0
-798 -365 0
-654 -41 0
996 -794 0
-312 -37 0
-496 253 0
562 -642 0
-290 0
201 -163 0
-367 -324 0
-255 -581 0
-573 0
-868 0
-245 0
673 -612 0
-542 0
-862 829 0
-942 -97 0
-426 0
641 -100 0
-130 0
-154 -145 0
-408 0
-629 0
-296 0
-845 789 0
746 -612 0
-175 -198 0
-972 -794 0
-432 -697 0
-710 732 0
-542 591 0
-236 -731 0
-48 -758 0
754 -629 0
-357 0
492 -802 0
-275 0
179 -426 0
-86 0
-445 38 0
-268 0
-668 0
757 -739 0
-927 -663 0
-772 0
-68 0
301 -10 0
-600 205 0
752 -759 0
-112 0
-678 134 0
148 -394 0
888 -815 0
-811 0
-674 -249 0
-181 -970 0
-416 130 0
-711 402 0
-502 207 0
-799 0
-384 -566 0
-30 -341 0
302 -306 0
-332 0
-7 734 0
-157 0
-469 68 0
-159 -780 0
-115 0
-972 0
-354 263 0
-257 0
-133 0
-134 -265 0
-975 -669 0
-866 0
584 -780 0
-581 0
-126 0
-623 294 0
11 -316 0
-82 0
989 -651 0
747 -507 0
-514 39 0
-687 0
-528 0
-589 375 0
-65 0
-912 42 0
-983 907 0
775 -825 0
-989 -837 0
-351 0
-324 -235 0
-345 855 0
-808 0
-998 0
-665 0
-426 0
-927 0
355 -605 0
-766 -860 0
-287 -811 0
1 -918 0
-523 639 0
-51 -978 0
-435 -521 0
-537 0
564 -138 0
-96 765 0
82 -685 0
-440 734 0
-167 -819 0
-896 375 0
-626 590 0
-895 -537 0
-895 582 0
-904 -971 0
810 -827 0
-81 0
924 -289 0
145 -766 0
88 -396 0
-991 -525 0
-872 -935 0
-253 335 0
-544 0
-759 -349 0
-235 0
-190 0
-892 566 0
-760 0
-538 0
-92 -914 0
308 -98 0
-512 0
-999 151 0
-448 0
-534 334 0
-759 550 0
-171 655 0
-984 0
-761 0
-638 0
-844 0
-902 -869 0
384 -339 0
944 -429 0
-200 788 0
-934 0
-749 373 0
411 -853 0
-316 0
388 -241 0
105 -802 0
-938 0
-786 0
-663 373 0
-460 -667 0
-808 0
-760 0
-810 0
-485 -301 0
436 -666 0
-783 -305 0
625 -746 0
-502 3 0
-933 766 0
-253 -989 0
833 -826 0
-512 -275 0
56 -625 0
-902 -173 0
-484 157 0
640 -973 0
-965 435 0
-173 -714 0
404 -746 0
706 -166 0
-856 -119 0
-705 0
-101 0
-453 -284 0
-24 322 0
-997 574 0
-811 0
763 -301 0
-616 0
-598 -314 0
-304 174 0
-538 0
-688 0
-824 107 0
-477 652 0
-158 695 0
536 -860 0
-144 493 0
-134 726 0
-83 311 0
-365 726 0
-414 0
962 -446 0
-606 622 0
-799 555 0
529 -838 0
-918 818 0
-30 0
-18 0
-94 -228 0
-750 0
-964 205 0
-542 0
-941 -42 0
-930 0
-896 0
-383 0
-444 366 0
488 -128 0
-742 0
-221 -812 0
248 -583 0
-880 607 0
-746 0
944 -54 0
-586 0
-64 0
40 -295 0
-600 638 0
-923 0
-689 0
-894 493 0
-659 0
-524 541 0
-418 0
-140 -769 0
778 -572 0
-396 767 0
-258 0
-799 0
-537 295 0
856 -994 0
-767 -138 0
-767 0
-174 0
945 -132 0
-566 0
-688 -901 0
-589 0
392 -358 0
-947 0
222 -258 0
-431 851 0
-743 238 0
-59 815 0
-175 0
229 -297 0
-956 0
437 -194 0
-35 0
-61 0
-994 0
-446 0
632 -401 0
945 -333 0
-357 -729 0
-389 -74 0
633 -916 0
-804 -401 0
-192 475 0
236 -305 0
-486 229 0
10 -426 0
-448 0
-328 -833 0
-715 0
-519 -522 0
-182 0
-806 0
961 -830 0
-250 0
762 -779 0
-864 -393 0
882 -666 0
-66 0
-527 0
771 -42 0
-434 0
-654 0
-156 -507 0
-63 -490 0
-358 222 0
-839 -589 0
-915 0
635 -426 0
-558 0
-109 -785 0
-932 0
-987 -729 0
963 -554 0
466 -188 0
-105 0
-953 0
-621 157 0
-976 581 0
-996 -26 0
-951 -274 0
-464 69 0
-598 -387 0
481 -212 0
-382 243 0
-91 0
505 -915 0
-941 0
-854 -169 0
-780 0
155 -323 0
-157 0
-968 -136 0
-795 -841 0
-876 0
-918 143 0
-143 -209 0
-142 6 0
-245 0
-6 0
-423 343 0
-105 0
-398 -708 0
-416 183 0
-600 767 0
-134 0
-206 0
-736 0
-462 0
-784 0
-388 508 0
-961 0
193 -525 0
-116 -313 0
-148 0
-128 0
-950 0
-56 -9 0
-533 0
-865 0
-752 99 0
-399 0
-308 646 0
-366 172 0
-432 708 0
-249 0
-863 0
-754 0
-172 0
-291 0
514 -126 0
-450 0
506 -522 0
-622 0
424 -998 0
-64 0
-581 582 0
-32 0
333 -746 0
-244 0
-974 0
346 -828 0
-51 0
-808 -937 0
196 -787 0
131 -309 0
-823 0
176 -972 0
314 -116 0
467 -515 0
586 -390 0
-606 0
-892 567 0
-394 526 0
-535 703 0
800 -828 0
-456 603 0
-676 0
-734 406 0
-676 -347 0
496 -311 0
-213 0
-67 -498 0
-679 -731 0
-961 0
-975 0
123 -251 0
-877 0
-448 0
-868 -890 0
707 -851 0
689 -804 0
-917 -713 0
-135 0
-579 0
-19 869 0
530 -980 0
-507 0
311 -441 0
-902 0
-355 0
-936 945 0
-40 981 0
-358 490 0
-286 -821 0
-253 940 0
-528 -834 0
-323 0
-80 0
-628 0
660 -290 0
-718 0
-1000 0
130 -301 0
-318 0
-871 991 0
-734 0
739 -123 0
346 -267 0
-311 836 0
-392 279 0
323 -491 0
-315 -971 0
-527 459 0
-686 955 0
-882 -505 0
-362 0
-290 726 0
-337 0
-84 0
-137 0
920 -566 0
-732 -28 0
142 -906 0
194 -460 0
-226 687 0
-77 -707 0
-247 -690 0
982 -585 0
-850 0
-679 0
-168 645 0
-192 -479 0
51 -507 0
-773 0
-290 0
-206 -961 0
-130 -298 0
-664 -326 0
-471 2 0
-68 0
-339 94 0
570 -411 0
-630 0
-511 0
-223 0
-252 0
888 -103 0
-431 -260 0
-930 0
-424 519 0
-983 138 0
-341 0
-634 -457 0
-589 0
-975 -147 0
-98 0
-514 0
-735 -697 0
-358 0
-173 -705 0
-420 0
-95 -546 0
-49 0
-708 -25 0
-443 919 0
-468 974 0
104 -87 0
859 -330 0
-884 631 0
314 -661 0
-151 0
-188 0
-116 -82 0
-559 0
224 -638 0
-217 0
-370 0
-258 0
-934 0
-575 -683 0
-325 -25 0
-833 0
-111 0
474 -741 0
560 -448 0
985 -589 0
345 -250 0
-518 0
-399 0
-694 0
-863 -882 0
353 -531 0
-795 0
396 -187 0
-700 0
368 -445 0
-117 0
-878 172 0
-750 0
-873 0
-286 0
811 -506 0
-28 0
-975 0
-288 68 0
165 -106 0
-321 0
-430 0
-442 991 0
-862 -738 0
776 -337 0
-302 0
587 -789 0
-481 0
-302 -889 0
-160 -278 0
1 -893 0
-241 0
-998 340 0
-412 0
-790 0
-447 -699 0
-740 0
-896 0
-130 0
-792 0
-767 27 0
-862 -12 0
-319 0
352 -28 0
-341 0
-296 -261 0
-806 275 0
-518 0
-1000 0
-275 0
-33 0
-516 0
-260 -467 0
-37 676 0
-160 -80 0
-359 -985 0
-361 0
-920 0
417 -59 0
124 -427 0
-182 908 0
-737 0
147 -428 0
632 -297 0
-250 0
-5 -324 0
301 -83 0
-60 -297 0
-555 0
88 -10 0
-376 538 0
-708 0
-879 -532 0
-31 -350 0
11 -332 0
111 -737 0
474 -918 0
-108 420 0
-343 543 0
-55 143 0
291 -595 0
657 -166 0
-144 296 0
592 -391 0
-172 -865 0
-792 0
-86 991 0
-410 0
-356 918 0
-368 534 0
-290 0
-168 -640 0
-274 0
-61 0
-968 0
-178 -889 0
585 -518 0
497 -578 0
28 -819 0
473 -998 0
-907 0
-376 930 0
316 -993 0
-77 0
-70 0
-627 0
-992 0
-810 0
-980 -635 0
-138 0
-286 163 0
-688 0
-375 -913 0
-6 717 0
-729 0
-913 0
-737 0
-158 0
-170 0
-870 -174 0
-191 701 0
500 -428 0
-235 695 0
717 -418 0
-792 -608 0
-656 499 0
-222 0
-431 0
896 -431 0
-423 -382 0
-999 -765 0
947 -2 0
-21 0
-235 0
-444 0
-607 -889 0
-165 822 0
-293 0
985 -812 0
-227 0
-76 0
-632 0
-576 -767 0
73 -526 0
-46 -641 0
-152 0
560 -876 0
-886 431 0
-166 -690 0
-407 0
-229 36 0
-451 0
-990 236 0
-191 0
-222 0
-168 -953 0
-648 0
-581 0
506 -20 0
-335 -890 0
162 -284 0
-100 4 0
-911 -901 0
-584 0
-537 0
-941 0
-290 -729 0
-237 541 0
647 -401 0
-45 -628 0
-543 711 0
760 -401 0
-309 0
-353 0
-602 0
-407 -445 0
-486 85 0
-507 0
-693 0
-426 0
-352 0
-376 153 0
-70 0
460 -561 0
748 -809 0
272 -306 0
-205 0
-186 0
842 -851 0
-479 -465 0
-420 -434 0
554 -740 0
168 -526 0
-375 -650 0
140 -529 0
-999 -733 0
894 -217 0
-415 0
931 -243 0
-988 228 0
456 -844 0
392 -226 0
117 -922 0
-910 -604 0
-188 -297 0
-263 0
-958 -452 0
-340 0
-758 -804 0
-688 -710 0
-716 -409 0
-600 -84 0
-624 -30 0
-496 0
-501 -793 0
-567 0
-496 372 0
-988 -866 0
-473 0
-490 0
-717 0
-767 0
526 -329 0
-195 406 0
-502 0
-646 0
-367 0
931 -202 0
-415 0
180 -187 0
808 -348 0
-760 0
-232 46 0
-370 -697 0
376 -947 0
-330 0
-443 0
-694 874 0
-30 0
-990 822 0
-547 0
-181 -645 0
-784 0
73 -118 0
-353 0
-92 0
-45 0
241 -550 0
-888 -228 0
-298 0
-162 0
-627 -537 0
-466 -217 0
-228 0
-525 0
-75 23 0
-773 0
-183 0
400 -417 0
-563 0
-160 0
-304 -666 0
-828 0
-335 0
-206 -994 0
-291 -497 0
-561 0
-291 957 0
389 -138 0
-126 146 0
-975 -205 0
145 -625 0
-229 -689 0
-234 -929 0
-432 -800 0
-890 0
-244 854 0
-443 0
210 -803 0
-198 0
-720 0
-579 0
-896 -617 0
-309 963 0
-438 0
-549 0
-593 0
482 -929 0
174 -130 0
730 -108 0
-689 0
315 -267 0
-934 -898 0
-306 0
-772 0
-514 0
-675 0
-787 942 0
-846 -773 0
-654 20 0
413 -786 0
-485 0
-131 158 0
792 -764 0
-112 925 0
-778 0
-63 0
-419 -10 0
-860 0
-792 527 0
-93 463 0
-502 -670 0
-503 -33 0
-11 215 0
-433 0
-663 684 0
-64 -905 0
-119 -684 0
-981 0
-361 0
-490 0
-611 0
-810 0
-691 0
-455 0
-979 -274 0
-397 324 0
-459 0
-791 0
147 -275 0
-880 604 0
-150 751 0
204 -697 0
-57 0
-662 0
-816 0
-615 -46 0
369 -843 0
-272 0
-509 31 0
-248 -813 0
960 -989 0
-80 931 0
-466 0
-968 0
-816 -434 0
572 -107 0
-134 0
-348 222 0
-522 0
-920 821 0
153 -189 0
-551 0
-16 396 0
-966 0
-165 0
-868 -347 0
-337 0
426 -421 0
-159 919 0
-180 -515 0
-782 -972 0
121 -340 0
-860 0
380 -881 0
-283 0
-313 0
-807 620 0
-181 0
699 -659 0
-757 956 0
-423 -501 0
753 -334 0
517 -697 0
-295 0
-279 692 0
-292 0
-978 0
-378 0
-913 0
-18 0
-248 0
657 -893 0
784 -181 0
-578 0
-467 0
-130 671 0
-710 -470 0
-895 733 0
296 -294 0
464 -298 0
-151 834 0
-42 -737 0
785 -975 0
-892 733 0
546 -962 0
-236 -378 0
-382 0
-112 -461 0
170 -77 0
-765 575 0
352 -395 0
-293 436 0
-367 807 0
-489 -881 0
75 -314 0
-774 0
737 -127 0
-369 423 0
-679 0
-624 267 0
-608 -21 0
-743 428 0
-431 0
-573 0
-445 0
-188 0
72 -1 0
-752 -413 0
-684 -370 0
451 -273 0
387 -769 0
-424 0
-695 265 0
-128 63 0
-204 62 0
-631 0
-567 0
848 -397 0
-287 -238 0
-870 -841 0
-72 125 0
-967 0
-706 0
-789 -538 0
-672 0
-70 0
149 -497 0
428 -961 0
-655 260 0
-308 0
-656 629 0
-915 0
544 -317 0
-47 0
438 -386 0
-174 823 0
-237 0
-648 0
-728 445 0
853 -242 0
-488 819 0
-744 -866 0
-614 655 0
-854 223 0
573 -514 0
-735 0
-194 855 0
-768 0
-773 0
614 -498 0
-743 0
740 -460 0
-145 -17 0
-372 0
152 -590 0
-691 0
666 -241 0
-472 -721 0
-612 0
664 -248 0
-989 0
-212 774 0
-338 -242 0
-743 -155 0
-949 0
-247 0
144 -559 0
-369 0
-272 -971 0
-495 0
-23 0
-530 -778 0
-750 -41 0
-716 -257 0
-39 0
-831 -449 0
-893 -161 0
-676 0
-472 -932 0
-661 0
921 -931 0
-23 12 0
-780 -131 0
-88 866 0
-668 0
-885 0
-744 -646 0
-502 -581 0
-789 -428 0
-512 114 0
65 -878 0
-871 475 0
-445 0
578 -931 0
-98 -322 0
328 -294 0
-711 534 0
-222 -580 0
-74 0
713 -706 0
-6 -81 0
-832 564 0
-799 -565 0
-408 0
-900 0
-910 -449 0
696 -170 0
18 -988 0
-635 -418 0
-454 -347 0
-1000 0
-967 -162 0
-687 742 0
629 -394 0
-648 248 0
-28 0
539 -555 0
99 -18 0
-915 0
-292 0
-320 478 0
-896 0
-721 0
-847 -435 0
-631 -937 0
-842 0
-917 0
-369 0
-252 -386 0
-960 958 0
-873 -225 0
-270 212 0
-893 0
-733 0
-582 -593 0
-665 0
345 -589 0
-326 -490 0
752 -264 0
-151 -766 0
-322 0
-490 -297 0
-942 0
907 -978 0
-15 569 0
-480 409 0
164 -187 0
-5 -731 0
-703 0
372 -676 0
-632 -27 0
-279 294 0
-144 -313 0
-51 0
-653 0
-925 -649 0
-157 396 0
-199 0
-956 0
-511 788 0
-919 703 0
390 -786 0
-928 0
744 -828 0
-264 641 0
-488 0
-120 98 0
-72 922 0
-232 -564 0
944 -100 0
-607 428 0
945 -332 0
-1000 -242 0
-818 -26 0
-562 806 0
-204 -75 0
568 -437 0
-926 595 0
-149 0
-78 0
-751 0
-895 -442 0
-785 0
-240 0
-600 0
-804 0
-746 0
-1000 0
-750 764 0
-393 0
224 -818 0
-129 0
-400 0
-976 -474 0
-256 0
-19 0
705 -823 0
-608 0
244 -963 0
-283 0
80 -5 0
-425 0
916 -345 0
-933 846 0
-146 -514 0
-436 797 0
-118 522 0
-145 0
-600 0
-16 207 0
33 -882 0
-320 0
-432 -583 0
-759 -231 0
-152 653 0
-953 0
-265 0
-552 0
-895 0
953 -978 0
-772 0
-670 789 0
-343 -618 0
-643 838 0
737 -108 0
-137 0
730 -10 0
194 -299 0
-725 454 0
114 -677 0
64 -391 0
108 -379 0
-809 0
849 -915 0
-128 742 0
-139 0
-839 0
-182 908 0
-85 670 0
680 -139 0
-868 0
-545 0
-4 -163 0
-108 0
-655 997 0
-160 912 0
-552 0
-208 562 0
-512 -565 0
250 -460 0
-118 379 0
-2 0
-21 36 0
337 -901 0
-628 -690 0
624 -306 0
-174 0
-624 0
-152 62 0
-75 0
-516 0
-412 -564 0
-155 0
-839 -980 0
-629 0
-911 0
1 -572 0
-147 -289 0
-910 0
-243 0
-464 73 0
-858 0
-346 0
867 -938 0
-484 869 0
-557 -91 0
-720 0
-159 306 0
-117 0
-30 309 0
801 -52 0
579 -753 0
21 -738 0
-840 -925 0
-543 -228 0
-251 0
-474 0
960 -4 0
-694 37 0
-352 0
544 -685 0
868 -162 0
-843 343 0
290 -645 0
-367 0
-508 0
-367 -86 0
-204 0
-963 0
987 -657 0
-469 0
-876 0
-992 438 0
-10 0
-15 0
-541 -212 0
-400 691 0
-239 517 0
51 -924 0
-600 0
-150 0
-902 0
-608 -949 0
528 -155 0
-772 0
-227 0
-752 931 0
292 -874 0
-613 -793 0
576 -695 0
-816 911 0
-559 0
-55 0
-430 0
-697 0
-581 0
-230 0
-708 0
-287 0
-898 0
-56 -64 0
-214 -782 0
-205 0
-148 774 0
-866 0
-868 0
67 -51 0
676 -465 0
-990 479 0
32 -946 0
-142 -154 0
-646 0
-171 -609 0
-889 0
-769 0
-576 -724 0
-105 -433 0
-378 -113 0
938 -492 0
576 -368 0
-512 0
-486 725 0
747 -538 0
-101 -637 0
-973 0
149 -266 0
536 -59 0
-891 0
-616 -727 0
-563 -433 0
-416 430 0
-512 -380 0
-403 -217 0
-858 0
996 -489 0
-983 978 0
-230 0
-15 0
-126 0
-737 0
-385 0
-538 191 0
-70 -595 0
-540 -603 0
-532 0
-966 814 0
-904 -207 0
960 -573 0
-280 66 0
-901 0
-32 -301 0
-477 0
483 -683 0
-738 799 0
-237 0
-166 -459 0
-383 -369 0
-109 740 0
-324 0
-170 0
-140 -339 0
-140 -866 0
468 -889 0
-902 -531 0
-808 -658 0
-8 0
551 -81 0
428 -297 0
-862 370 0
-566 0
-11 399 0
-317 805 0
-549 0
-133 0
-376 -481 0
-88 931 0
-755 0
-631 0
-649 0
1 -87 0
-500 -913 0
-214 0
-821 741 0
-658 -841 0
-526 671 0
-610 0
-704 530 0
-248 -681 0
-87 0
-406 311 0
-277 501 0
962 -886 0
-905 0
-742 771 0
-971 0
-771 -961 0
-838 0
-311 969 0
-344 -268 0
-691 0
-69 0
592 -420 0
-559 722 0
-993 0
-627 -682 0
-390 0
-328 0
-330 767 0
-775 734 0
-422 235 0
-655 0
-55 -206 0
-778 0
-301 -721 0
837 -323 0
480 -324 0
-391 0
840 -884 0
709 -57 0
656 -315 0
-590 0
-597 0
-96 0
-128 783 0
-145 0
864 -497 0
-972 -858 0
-984 -69 0
-334 452 0
-364 0
-918 -386 0
-685 0
-612 0
711 -985 0
532 -778 0
-176 -308 0
-565 341 0
268 -506 0
248 -709 0
-31 0
872 -969 0
13 -386 0
-885 0
-210 -226 0
-580 134 0
-615 -777 0
-337 0
-623 0
-965 -397 0
-285 0
-632 -325 0
-51 0
-992 0
-480 226 0
-206 -1 0
-119 -123 0
466 -993 0
-605 -881 0
-568 -311 0
67 -241 0
-51 917 0
-6 973 0
881 -697 0
-671 0
-239 0
-114 0
-691 0
-936 0
-84 0
-363 -282 0
-212 0
-261 470 0
-814 0
-855 0
-316 662 0
-848 799 0
-129 -217 0
-42 959 0
-748 -985 0
-725 -571 0
-194 0
-442 991 0
-87 84 0
756 -875 0
-402 0
-914 0
-758 -118 0
-775 0
-262 -421 0
-714 0
-625 0
-16 330 0
-221 271 0
-678 0
-605 0
-456 0
-372 0
-252 78 0
-732 0
-478 -781 0
-359 551 0
-885 540 0
-486 130 0
-789 -164 0
744 -265 0
-364 0
-612 0
-244 0
-467 575 0
320 -893 0
-748 860 0
-882 0
-408 -448 0
-755 0
-600 0
929 -21 0
-381 0
-21 0
-495 814 0
-397 124 0
-795 470 0
-13 0
247 -433 0
-173 237 0
939 -388 0
952 -300 0
-470 -475 0
-126 0
802 -833 0
-176 0
315 -58 0
753 -665 0
761 -323 0
-612 0
-287 517 0
-708 191 0
961 -563 0
-654 -214 0
-975 0
-905 0
-956 213 0
-570 0
-999 263 0
-454 -481 0
-97 0
-471 852 0
-760 -469 0
277 -91 0
-157 0
301 -275 0
-552 327 0
240 -973 0
-332 0
795 -707 0
-601 0
-900 -556 0
-748 0
-550 -251 0
-719 262 0
-536 0
437 -857 0
-725 0
617 -692 0
-860 758 0
-382 0
-438 556 0
-826 0
-676 0
-198 0
-56 341 0
-336 0
-886 0
-973 0
129 -468 0
-679 0
-742 -802 0
-148 981 0
-861 -186 0
-320 -274 0
-834 0
-94 972 0
-91 0
-784 435 0
630 -73 0
-773 -417 0
-646 -306 0
-301 0
-559 -834 0
-592 965 0
-956 0
-904 -213 0
-229 0
224 -641 0
-7 0
-693 605 0
188 -235 0
-876 438 0
-8 0
-667 0
-510 0
588 -874 0
-61 814 0
-368 0
-761 0
-441 0
-532 -83 0
-104 434 0
-99 0
-342 0
-566 0
-743 761 0
-799 0
-10 0
-106 855 0
-40 -146 0
329 -447 0
-192 -786 0
-600 0
-429 0
-708 0
80 -781 0
-968 -12 0
-480 -915 0
-656 452 0
-17 -977 0
-755 0
-920 838 0
-912 0
-537 591 0
-172 -740 0
521 -339 0
-651 0
-735 0
563 -601 0
-304 -707 0
-186 0
-843 0
-419 246 0
-736 -999 0
568 -966 0
-944 469 0
122 -709 0
-908 831 0
-806 -613 0
-292 -315 0
-629 -641 0
-589 0
-451 0
-484 -234 0
-190 -412 0
664 -942 0
42 -404 0
-791 -906 0
-320 0
-997 -18 0
818 -337 0
-640 0
-70 0
-1000 0
997 -986 0
-944 753 0
-943 150 0
-610 0
-846 -451 0
-685 0
-919 811 0
-182 -843 0
960 -842 0
-542 -313 0
-128 -206 0
-713 -177 0
-103 -541 0
-920 -642 0
-997 0
-634 -705 0
-643 0
-917 -953 0
-681 0
-991 0
-269 0
-73 0
-809 0
-413 0
-52 0
-703 0
-459 0
990 -993 0
256 -808 0
-607 0
752 -946 0
859 -74 0
-508 0
-520 -159 0
-759 0
-979 -537 0
-147 0
-170 0
-1000 -845 0
-903 -306 0
-711 -412 0
792 -391 0
103 -265 0
132 -401 0
-266 -41 0
385 -254 0
-167 0
-757 -283 0
362 -683 0
-735 0
-123 0
568 -127 0
692 -370 0
558 -578 0
-626 0
-520 -921 0
-10 0
-794 0
775 -337 0
-24 961 0
40 -135 0
-304 764 0
-656 0
-650 0
-61 85 0
-552 0
-901 0
-826 0
-672 0
-712 916 0
1000 -620 0
-643 0
-444 0
-291 767 0
-860 5 0
-809 0
450 -985 0
-271 19 0
425 -591 0
83 -811 0
-765 798 0
216 -922 0
-272 0
-757 0
331 -947 0
-672 -917 0
484 -370 0
-488 454 0
-483 0
-823 -22 0
-808 244 0
-472 347 0
-567 686 0
-67 270 0
-409 0
305 -174 0
-804 -322 0
-807 770 0
-883 0
898 -337 0
-688 -548 0
-869 757 0
-860 0
-627 414 0
621 -153 0
676 -922 0
-291 -467 0
-213 0
-796 0
-144 -963 0
-530 0
75 -789 0
-61 0
681 -406 0
-958 317 0
-100 -418 0
-23 793 0
-535 -727 0
-866 0
-311 -163 0
225 -137 0
-614 130 0
931 -897 0
-927 281 0
-203 0
-86 578 0
426 -357 0
217 -930 0
734 -474 0
-854 0
-483 0
-125 0
-845 300 0
337 -209 0
-111 359 0
-864 651 0
-420 -217 0
-372 0
433 -764 0
-930 806 0
-256 0
-618 0
-210 0
-719 -546 0
-651 991 0
-416 -353 0
-390 0
-283 0
-620 -793 0
-205 0
-92 -906 0
-728 -791 0
-855 0
-286 0
-568 -118 0
-814 876 0
-800 0
-582 0
-933 -691 0
-470 0
-677 885 0
-822 0
-496 0
-183 -284 0
-758 823 0
-915 214 0
-710 0
650 -453 0
784 -377 0
-108 -3 0
-189 759 0
-943 695 0
-16 0
-488 0
-220 0
-274 0
-292 -370 0
-682 -337 0
-119 988 0
-440 -984 0
-177 0
-592 -426 0
-16 0
-340 565 0
421 -305 0
-835 0
-383 0
-126 359 0
506 -971 0
-307 0
-568 346 0
-559 -914 0
-453 901 0
-432 0
-111 -93 0
-927 0
230 -506 0
-313 0
-382 -995 0
-909 0
-608 0
721 -235 0
-72 0
-440 669 0
-782 0
-430 -291 0
-786 0
130 -682 0
-749 -514 0
-446 0
-624 923 0
-877 479 0
-408 0
-544 438 0
545 -474 0
-714 0
-623 0
-183 0
-871 476 0
550 -721 0
-776 470 0
-557 -753 0
-28 0
67 -893 0
-849 0
-769 0
-920 0
-83 783 0
-16 -722 0
-408 303 0
-729 0
346 -595 0
-559 -385 0
-782 0
-173 -458 0
-38 -602 0
-642 0
745 -637 0
-520 -256 0
-222 -429 0
-574 0
-33 0
-899 463 0
-550 356 0
864 -589 0
85 -625 0
509 -730 0
-286 0
-249 -753 0
-295 0
-809 0
-445 -209 0
-633 0
-508 478 0
-768 0
-150 0
-423 491 0
-167 -19 0
-873 0
-781 0
-830 467 0
-441 0
-775 0
-915 399 0
-122 0
-981 0
-163 -371 0
-767 0
-290 0
1000 -976 0
-527 -795 0
794 -14 0
672 -854 0
-73 0
-288 0
-628 -265 0
101 -251 0
84 -130 0
445 -722 0
-57 0
-859 0
-232 553 0
-444 735 0
-152 -818 0
-566 878 0
-317 214 0
-567 0
-591 902 0
-600 200 0
-606 0
-102 -700 0
-975 -677 0
-71 0
-548 125 0
-620 0
-655 0
-470 -102 0
274 -142 0
-229 183 0
-554 0
275 -451 0
-602 0
-219 0
-413 0
-535 -732 0
-750 179 0
-685 235 0
-235 0
-78 0
-789 903 0
-453 -348 0
-128 163 0
-149 419 0
-26 351 0
-445 907 0
-55 0
-896 0
-100 804 0
185 -677 0
-337 247 0
-552 0
704 -660 0
-819 0
-431 -605 0
-48 407 0
-592 -547 0
-270 995 0
-349 -146 0
-304 -516 0
-122 0
-465 0
658 -140 0
-56 74 0
-995 -2 0
-374 -417 0
-80 0
-399 -905 0
-30 0
-807 0
-254 0
-813 -525 0
-202 0
-134 0
-563 0
-423 729 0
-973 0
-472 -576 0
-279 0
-212 -169 0
-749 719 0
-616 -118 0
-845 132 0
-769 -713 0
-159 734 0
-135 462 0
556 -923 0
-246 -988 0
-805 0
-56 640 0
129 -266 0
-852 0
-368 748 0
-759 0
882 -578 0
-942 699 0
-711 -689 0
-883 0
-614 173 0
-427 0
-473 0
-715 22 0
-590 506 0
-503 0
-367 0
-784 -218 0
491 -907 0
385 -891 0
-484 869 0
-936 882 0
801 -444 0
-191 0
129 -991 0
160 -102 0
140 -724 0
493 -865 0
-1000 -383 0
433 -691 0
-822 -265 0
-575 0
-239 445 0
-616 0
-571 0
-20 -923 0
-266 303 0
123 -969 0
-723 326 0
-455 225 0
-230 -929 0
-890 -513 0
-7 0
-8 0
154 -765 0
-621 0
-364 -17 0
-561 0
-893 23 0
-259 0
-356 -284 0
-869 0
-700 0
-612 -882 0
-637 0
107 -274 0
-143 -706 0
989 -426 0
424 -742 0
-623 0
-307 -209 0
-682 -506 0
-927 532 0
-628 0
259 -316 0
698 -195 0
409 -534 0
-477 -51 0
-828 -497 0
-223 0
-429 0
-686 645 0
-752 876 0
-543 678 0
-806 0
-328 -388 0
346 -35 0
194 -70 0
525 -370 0
-71 0
-65 -753 0
-535 -107 0
-95 754 0
-406 -883 0
-473 0
-937 0
-608 -574 0
-293 845 0
-760 764 0
-332 365 0
341 -161 0
880 -688 0
680 -290 0
-343 269 0
-317 854 0
290 -732 0
-792 -981 0
-421 -82 0
-573 0
-628 199 0
-720 -75 0
-748 0
-757 0
-232 -367 0
-589 996 0
472 -606 0
552 -958 0
-586 0
-158 0
-294 0
-226 671 0
-916 -515 0
-755 -411 0
-975 0
-729 0
-761 0
805 -203 0
-684 -682 0
-421 0
360 -91 0
-672 498 0
16 -797 0
573 -409 0
-253 -425 0
-939 222 0
-693 0
-745 0
-301 0
-227 0
-537 0
-707 -123 0
339 -852 0
-772 -467 0
-444 -714 0
-316 0
949 -458 0
370 -13 0
-231 0
-159 0
-524 244 0
-405 0
-694 0
962 -970 0
-280 0
-24 -347 0
-504 415 0
-420 429 0
-95 0
-947 0
-712 -100 0
754 -981 0
-526 0
-163 0
-496 -524 0
-620 0
-719 -330 0
-387 0
-197 0
713 -151 0
-808 882 0
772 -444 0
-601 0
-919 0
840 -476 0
-901 0
-104 894 0
539 -276 0
-742 0
-810 0
307 -101 0
-544 -7 0
-14 51 0
-750 0
-894 887 0
-591 0
-663 0
-125 814 0
-299 0
-982 0
-680 438 0
-800 0
-984 0
-263 -669 0
-688 -529 0
257 -274 0
-270 -17 0
-174 613 0
-350 835 0
593 -239 0
-837 0
-216 0
706 -153 0
-744 -172 0
-898 0
-717 0
-250 0
-948 0
-508 341 0
104 -724 0
236 -635 0
-244 806 0
-385 0
-127 806 0
-656 -745 0
-399 66 0
-877 -411 0
345 -740 0
644 -523 0
-246 115 0
-384 -292 0
616 -354 0
-505 0
642 -92 0
-805 117 0
-544 0
-555 0
-223 0
-556 0
-655 266 0
315 -469 0
-963 669 0
-755 0
-950 0
-518 0
-272 0
-642 446 0
-62 0
-672 0
-296 0
-352 -717 0
504 -35 0
-679 0
-987 0
1 -802 0
-459 0
872 -335 0
-737 0
-862 0
-631 924 0
-606 885 0
524 -650 0
-488 84 0
-848 811 0
-2 0
-371 0
-829 0
-725 499 0
-447 319 0
-994 30 0
-408 -779 0
-879 -825 0
-859 0
80 -23 0
380 -531 0
-772 0
-624 0
538 -910 0
-76 302 0
-414 527 0
653 -761 0
-389 -66 0
-64 0
-80 -205 0
-789 0
265 -436 0
-38 907 0
-783 291 0
-16 0
-85 0
253 -457 0
-649 0
-614 331 0
-503 -338 0
-264 594 0
-976 77 0
-140 0
-952 0
48 -364 0
-373 0
709 -706 0
-757 772 0
-299 0
-353 0
-888 -354 0
45 -35 0
-520 -532 0
-773 -99 0
301 -795 0
593 -985 0
-823 790 0
-976 559 0
214 -530 0
-854 0
370 -169 0
602 -33 0
-824 0
-795 0
-758 -979 0
-310 -379 0
-329 0
-46 37 0
-462 0
12 -387 0
-944 0
-252 -433 0
-369 0
337 -575 0
891 -412 0
-998 0
553 -220 0
-39 0
-233 0
-315 0
-328 -266 0
-403 0
-693 0
-984 -6 0
-159 0
512 -790 0
-741 -306 0
-367 78 0
-542 0
-437 -371 0
-956 -625 0
-389 0
-92 0
-791 44 0
-665 0
-389 956 0
-109 767 0
-639 -500 0
-359 -585 0
-253 0
-721 0
-670 0
264 -109 0
-663 0
-688 -572 0
-318 431 0
496 -381 0
-575 199 0
393 -382 0
201 -387 0
-781 535 0
672 -309 0
-143 0
-336 215 0
-200 -333 0
-144 708 0
-560 0
-624 0
-464 0
-541 0
-114 0
-285 0
-186 -361 0
-420 0
-549 0
-744 -159 0
-112 0
-682 0
224 -330 0
950 -345 0
646 -842 0
-704 0
-1 -514 0
-76 -249 0
-295 0
678 -385 0
-673 855 0
-216 -193 0
-336 888 0
-793 -993 0
-424 0
520 -343 0
449 -718 0
-618 0
-517 0
-725 149 0
-350 0
-298 0
-210 0
746 -876 0
-920 -814 0
-107 0
-30 380 0
-939 0
-412 -33 0
-319 0
-975 77 0
-373 0
444 -978 0
-50 0
-784 0
-818 0
1 -242 0
-496 -928 0
-332 0
424 -95 0
994 -314 0
-752 29 0
-221 0
-710 0
-101 -11 0
-386 0
34 -381 0
-896 -315 0
-251 0
-610 0
-543 417 0
-222 863 0
-710 591 0
-18 0
-898 0
-21 0
-970 0
-851 -169 0
-467 0
-20 0
-495 -716 0
81 -410 0
240 -219 0
-357 876 0
409 -654 0
-407 -813 0
-15 0
-1000 -300 0
-335 811 0
-280 -649 0
-373 0
-777 -441 0
-411 0
-100 301 0
-572 0
-353 0
-342 682 0
-181 143 0
-527 0
448 -381 0
273 -283 0
112 -835 0
-264 0
-681 0
-721 0
-927 0
-415 370 0
-510 0
-114 0
-240 654 0
556 -121 0
-257 -601 0
-139 335 0
-643 0
-528 -284 0
608 -305 0
-815 590 0
-351 0
-860 0
-708 0
772 -19 0
-733 -82 0
-241 0
-132 0
-699 0
-419 0
-824 998 0
-13 0
176 -418 0
-424 -349 0
-937 0
-460 -834 0
123 -275 0
-36 103 0
-27 -866 0
-923 0
-308 0
-745 0
-741 0
-278 251 0
-278 107 0
-556 0
-865 0
108 -689 0
-282 0
-483 0
-999 -341 0
-549 0
717 -369 0
97 -812 0
-852 0
253 -97 0
584 -862 0
-698 0
-239 0
-512 407 0
568 -71 0
-733 -105 0
-266 0
-865 -625 0
-476 0
-132 0
-844 0
-621 0
-143 751 0
-78 526 0
-478 -771 0
-510 -626 0
-269 469 0
-474 0
475 -259 0
-408 260 0
-199 0
-97 559 0
-784 846 0
-168 443 0
-327 0
-144 963 0
180 -596 0
-256 -457 0
-317 0
-103 114 0
674 -486 0
762 -780 0
-304 0
382 -697 0
-748 0
746 -507 0
-208 -67 0
-469 -507 0
-739 0
225 -949 0
-316 0
-91 0
848 -173 0
-195 -683 0
-231 981 0
919 -625 0
-574 0
-844 -524 0
-767 0
-59 0
-276 0
178 -162 0
-379 0
-594 -50 0
-352 -403 0
-81 0
-812 -505 0
-771 0
-981 -116 0
-654 790 0
-880 782 0
-807 0
441 -44 0
-268 0
-624 -60 0
-541 -149 0
-911 0
60 -99 0
-602 0
-872 73 0
-21 0
-127 135 0
-495 190 0
-499 279 0
338 -882 0
-182 -964 0
594 -716 0
-564 0
-376 825 0
-149 0
-400 -163 0
-777 0
-172 669 0
-394 478 0
49 -772 0
-198 0
-47 0
-848 0
-813 0
-245 899 0
296 -429 0
-807 -153 0
-745 0
-17 0
-186 -145 0
-21 -410 0
-317 -724 0
243 -124 0
-876 0
-335 0
-804 278 0
552 -895 0
971 -356 0
-484 20 0
-355 0
-728 0
112 -478 0
-658 0
-72 -100 0
-840 238 0
-298 0
-696 -435 0
-960 751 0
-493 0
93 -819 0
-357 243 0
-637 405 0
275 -676 0
-446 0
-768 0
-116 423 0
312 -838 0
-251 0
-740 0
-454 -459 0
-113 0
-799 0
-497 0
601 -674 0
-606 965 0
-303 590 0
-936 246 0
-338 0
-663 -37 0
44 -251 0
-58 783 0
-424 0
-675 967 0
794 -946 0
181 -962 0
-904 70 0
-176 -678 0
457 -4 0
-148 0
-488 -492 0
-390 0
-72 302 0
-999 -81 0
-764 0
-467 0
-486 -12 0
890 -889 0
-186 -121 0
-670 618 0
-952 -728 0
-673 0
-122 0
-908 -361 0
-552 577 0
-8 -695 0
-992 -626 0
-594 0
-980 -201 0
-923 71 0
-251 -547 0
-474 255 0
-176 -307 0
-276 -114 0
-158 0
-944 -205 0
-704 0
-460 830 0
-436 0
-36 0
-182 0
632 -281 0
-541 0
-866 0
688 -472 0
-559 836 0
-747 239 0
629 -522 0
-313 0
841 -63 0
-473 0
-716 0
-652 0
-344 0
-709 0
-205 508 0
-80 -338 0
434 -57 0
-632 -236 0
-951 0
-523 0
-984 -159 0
-752 -501 0
562 -494 0
-108 631 0
-208 470 0
-460 -379 0
962 -530 0
-270 0
-509 0
400 -474 0
217 -637 0
-67 0
-791 -549 0
-853 0
-952 424 0
-86 0
-462 -893 0
-19 415 0
-984 -993 0
-700 -33 0
760 -200 0
-394 -697 0
-551 -158 0
-564 0
-552 0
524 -427 0
-923 662 0
673 -868 0
-667 518 0
-397 0
-347 0
-872 0
-712 341 0
-880 579 0
-96 0
-847 -669 0
-432 0
-742 836 0
-96 -276 0
-745 0
-621 -953 0
-108 0
-631 -422 0
-293 -645 0
-734 0
-17 0
635 -893 0
-949 0
-747 0
-623 0
-853 -604 0
-663 -780 0
-409 0
-58 0
978 -548 0
-930 0
-380 0
-777 0
-79 0
-428 -937 0
920 -245 0
-581 126 0
-790 0
-60 0
-682 0
-663 226 0
-400 796 0
-470 -942 0
290 -549 0
155 -666 0
585 -71 0
-840 0
-352 -978 0
-239 -498 0
-277 0
934 -162 0
354 -860 0
89 -893 0
-349 0
912 -574 0
-54 333 0
-712 399 0
-785 0
-390 0
-912 0
-44 -266 0
-266 0
-351 -610 0
-179 0
-264 218 0
787 -762 0
44 -162 0
697 -861 0
-794 0
-568 -291 0
-995 -921 0
-614 -670 0
-652 0
-178 0
-880 409 0
-344 -816 0
-19 0
-631 -249 0
50 -965 0
-161 -681 0
-62 -969 0
-707 0
-10 127 0
-663 0
827 -411 0
-319 343 0
-173 -28 0
-695 -575 0
-643 0
-398 0
-535 612 0
-760 0
332 -122 0
-591 -173 0
-580 -68 0
-88 556 0
-352 0
-334 -52 0
-936 0
681 -617 0
432 -792 0
-102 0
971 -130 0
-623 0
-275 0
-664 884 0
885 -689 0
428 -555 0
-255 786 0
-919 781 0
900 -595 0
-760 392 0
-939 0
788 -540 0
881 -443 0
-24 -102 0
-939 0
-956 646 0
-269 733 0
-142 -225 0
-856 0
569 -806 0
-867 0
9 -164 0
-17 0
-878 93 0
-551 709 0
851 -89 0
-704 0
-439 0
-709 0
-667 141 0
816 -874 0
-260 535 0
-294 411 0
-509 -419 0
-583 -820 0
-706 0
-406 0
-4 0
-271 0
-737 271 0
-333 0
-888 304 0
-523 0
-653 0
-949 -707 0
925 -818 0
-425 0
601 -135 0
-356 -794 0
160 -982 0
-612 -265 0
536 -305 0
19 -268 0
736 -861 0
-829 774 0
517 -617 0
-501 0
-829 0
-401 0
-267 0
802 -987 0
-226 0
-750 0
-503 -22 0
347 -803 0
-594 0
-74 94 0
876 -73 0
-337 -225 0
-526 0
-366 979 0
514 -948 0
-212 0
-693 717 0
-951 -14 0
253 -442 0
-937 0
-503 -421 0
-786 0
-416 -639 0
-675 0
-669 0
-427 0
722 -193 0
-332 0
-559 0
-816 -74 0
-675 0
73 -298 0
532 -921 0
-114 0
-327 -218 0
-78 0
-377 0
878 -833 0
-430 0
-929 0
-997 0
-125 637 0
-588 0
-296 -767 0
-821 -612 0
-970 -290 0
-352 0
-983 -667 0
401 -857 0
-617 0
-40 -213 0
-810 615 0
-353 0
-774 775 0
898 -581 0
-551 268 0
73 -261 0
28 -657 0
-653 0
-975 0
-171 0
-884 0
-232 0
576 -762 0
232 -194 0
937 -626 0
-448 753 0
-362 0
-718 0
-49 0
-337 0
-756 0
-66 -434 0
745 -362 0
940 -484 0
-510 -122 0
-878 0
-485 -179 0
-121 0
-678 0
-716 0
-405 -737 0
-939 758 0
-193 0
-163 421 0
-345 0
-520 -105 0
817 -466 0
192 -767 0
683 -893 0
-66 0
309 -281 0
940 -121 0
-687 0
436 -714 0
-258 0
-724 -873 0
950 -482 0
-24 84 0
187 -89 0
329 -617 0
-609 0
-382 0
-822 446 0
-528 268 0
-431 -101 0
404 -44 0
-54 0
-56 -35 0
-288 495 0
-295 -330 0
147 -874 0
-702 0
-880 0
-693 -130 0
-254 187 0
-459 0
-982 -305 0
-291 -305 0
387 -65 0
-247 679 0
-680 0
-517 0
898 -700 0
-632 -425 0
-378 431 0
-247 0
-327 289 0
-399 861 0
-828 86 0
-868 -236 0
-376 0
-47 0
-895 428 0
746 -458 0
-688 0
-533 -697 0
177 -837 0
288 -334 0
-140 0
-929 719 0
-997 0
497 -36 0
-905 0
-735 0
-304 -123 0
-493 0
371 -300 0
-563 0
-424 838 0
-237 0
-540 -242 0
-117 -730 0
-416 -338 0
403 -276 0
-355 0
-430 -154 0
-474 0
-968 973 0
-494 0
-693 0
-844 -562 0
-255 0
-628 -145 0
-741 0
-969 0
-535 -36 0
-50 -826 0
-59 -746 0
-556 0
-507 0
-887 -844 0
-894 0
-982 0
-946 0
748 -410 0
-520 772 0
-845 0
-796 -393 0
-512 0
-422 485 0
-643 -722 0
-128 0
-825 0
-778 0
-101 0
603 -73 0
-246 701 0
-637 -554 0
-150 -430 0
-833 0
-106 0
-340 0
881 -737 0
-612 -450 0
-264 0
-971 0
-799 0
172 -898 0
-775 0
-840 -249 0
-464 585 0
-680 147 0
-356 0
-681 0
-478 -683 0
-326 631 0
278 -705 0
-357 -995 0
-904 743 0
-302 325 0
-718 -145 0
1000 -707 0
-836 462 0
-467 0
-60 -643 0
372 -443 0
396 -219 0
-905 0
-298 0
-520 -179 0
374 -826 0
-322 -106 0
-466 0
-475 0
-549 86 0
607 -49 0
137 -622 0
-69 277 0
-864 984 0
506 -221 0
577 -647 0
-974 0
-650 327 0
-452 0
-901 -321 0
-391 -878 0
577 -754 0
-358 -898 0
50 -652 0
-279 -586 0
-823 180 0
915 -140 0
-717 159 0
-38 973 0
-768 967 0
-585 0
-642 71 0
-806 188 0
-95 0
-196 0
-638 -964 0
-190 741 0
-596 0
777 -889 0
-520 0
-466 0
-929 135 0
-316 -674 0
-805 862 0
457 -85 0
-824 -724 0
-727 70 0
61 -721 0
541 -185 0
-640 0
-111 0
-149 0
-341 -978 0
-602 983 0
-296 0
-76 0
-261 0
-172 0
-388 157 0
-48 0
-452 845 0
-667 445 0
-904 -67 0
-63 0
-86 -66 0
-238 845 0
512 -755 0
-174 683 0
-715 239 0
-153 0
-621 525 0
-592 0
881 -601 0
-279 179 0
467 -609 0
-80 0
866 -612 0
-792 -713 0
-320 244 0
-328 0
-505 0
-299 -977 0
-327 0
-297 0
-140 0
-583 0
-421 0
442 -489 0
-70 0
-253 0
-440 -866 0
-277 0
-362 0
-371 375 0
-55 0
170 -548 0
-900 0
549 -761 0
-558 -386 0
752 -551 0
-939 0
-284 366 0
-671 370 0
-78 -380 0
-724 0
-609 0
396 -162 0
27 -121 0
-101 0
-851 -985 0
-533 0
-62 0
-375 -319 0
920 -194 0
-726 0
-914 0
-864 -375 0
-661 -106 0
-777 0
-239 919 0
-442 -401 0
264 -482 0
-325 0
-609 0
-324 0
-381 0
610 -510 0
480 -224 0
-408 0
-480 0
-893 -377 0
-144 749 0
-118 275 0
-949 0
-296 -810 0
915 -548 0
-527 206 0
-340 20 0
-704 -477 0
-355 295 0
-558 0
-694 0
-357 0
-328 569 0
-48 487 0
8 -575 0
-400 123 0
-752 692 0
-280 247 0
-22 655 0
-356 0
-936 698 0
416 -346 0
-295 -129 0
-216 997 0
-59 0
-527 0
-111 -878 0
845 -521 0
289 -913 0
-291 0
-995 -953 0
-300 165 0
-879 0
-12 -675 0
-556 223 0
-739 0
-112 -204 0
-243 0
-23 954 0
-12 0
-559 0
709 -458 0
-103 0
-869 174 0
-953 111 0
-142 -289 0
-727 266 0
-597 -409 0
449 -89 0
-954 0
-340 814 0
-846 798 0
-379 -954 0
-836 -361 0
-667 0
-588 0
-795 0
-375 -902 0
-71 0
571 -389 0
-40 0
-866 0
-598 0
-591 0
-390 875 0
-873 0
-638 0
-214 -973 0
-644 0
-824 0
-604 910 0
-612 -985 0
-667 0
913 -844 0
-207 10 0
-164 0
-795 0
-920 781 0
-352 0
-823 0
-479 -611 0
-209 655 0
-196 0
-219 0
-121 0
180 -354 0
-436 0
333 -554 0
-286 0
-918 974 0
214 -513 0
-447 830 0
-479 0
-557 997 0
-149 -346 0
-689 0
-318 -338 0
142 -322 0
-450 695 0
-931 0
-744 -542 0
-433 -337 0
-1000 -181 0
-817 0
-58 0
-540 0
-636 631 0
-392 -732 0
-998 -698 0
218 -667 0
841 -38 0
-320 890 0
-462 -676 0
-55 0
694 -233 0
-646 503 0
764 -579 0
-919 0
-181 0
-156 0
-711 0
529 -585 0
-333 -747 0
-63 0
-256 -625 0
-560 -831 0
-626 0
-958 -161 0
-866 -738 0
-83 0
289 -628 0
-588 0
-826 0
-491 343 0
-47 -244 0
-376 -387 0
-262 0
-551 -131 0
-539 -994 0
-478 0
-718 909 0
-306 0
-944 415 0
633 -311 0
-894 877 0
-209 0
363 -563 0
-267 -169 0
-542 0
-184 0
-189 0
-542 0
139 -235 0
-880 0
-666 0
-166 -620 0
-610 0
-699 455 0
771 -962 0
-127 0
65 -779 0
883 -637 0
-335 -171 0
461 -450 0
-476 -594 0
-447 -206 0
-599 -481 0
-704 0
985 -834 0
-375 0
-437 0
-696 0
-806 886 0
-9 0
-795 0
-928 0
-501 -324 0
-385 0
-895 0
-984 0
424 -621 0
-199 710 0
-534 0
-832 0
-575 -129 0
-344 30 0
-351 -739 0
793 -620 0
-6 0
434 -68 0
-208 432 0
-496 0
-837 -154 0
-544 0
-938 0
948 -778 0
-857 0
-608 845 0
-670 763 0
632 -965 0
-694 -125 0
-250 0
289 -397 0
-40 683 0
-89 0
-71 0
-741 197 0
-867 0
-275 -867 0
-494 0
-227 0
-71 -137 0
-903 893 0
19 -729 0
-563 86 0
-880 790 0
-344 -93 0
165 -609 0
-139 0
-821 0
-919 0
-136 -794 0
-254 166 0
-862 515 0
-603 0
-415 -531 0
-399 -434 0
371 -937 0
-438 20 0
-533 653 0
-860 0
777 -950 0
-963 0
690 -553 0
344 -123 0
-734 -586 0
-485 0
-836 172 0
-194 0
818 -325 0
-83 0
-224 -612 0
-958 -523 0
-549 0
-702 -21 0
-203 885 0
-808 90 0
-758 700 0
907 -674 0
-699 487 0
-765 0
961 -805 0
-5 421 0
-182 0
-159 -986 0
784 -323 0
-963 703 0
-824 114 0
-116 94 0
-936 0
-957 -660 0
-647 0
-748 0
-212 0
-846 -892 0
-942 0
-508 510 0
-308 613 0
-688 -275 0
-123 0
-674 -889 0
-235 -722 0
4 -323 0
-133 255 0
-406 58 0
-431 -620 0
-798 -658 0
-944 -293 0
289 -271 0
-12 0
-967 -869 0
331 -275 0
371 -491 0
-613 0
-616 464 0
-529 0
-606 0
-464 -629 0
643 -578 0
-855 349 0
-600 -676 0
-848 532 0
450 -285 0
-437 107 0
-973 0
553 -238 0
-197 -553 0
840 -902 0
-982 0
-518 -733 0
-309 975 0
-398 0
-528 0
-644 0
-268 254 0
330 -676 0
-610 0
-612 -4 0
-237 604 0
-92 0
88 -237 0
-895 0
-512 -711 0
-370 0
-846 0
-916 0
-488 -810 0
-96 0
924 -91 0
-670 207 0
-694 333 0
-611 0
-882 0
-340 0
-148 0
-553 0
-113 0
-404 0
-609 663 0
886 -626 0
-480 971 0
-470 0
249 -657 0
-482 0
-45 782 0
-356 502 0
-834 982 0
-965 0
-708 -217 0
636 -609 0
-554 0
-310 859 0
-816 0
401 -758 0
-76 836 0
-102 0
-775 723 0
-807 0
-703 0
-232 0
-624 -641 0
-156 -730 0
-660 510 0
296 -990 0
-840 0
-769 0
-472 -878 0
-892 0
-294 -586 0
675 -49 0
596 -106 0
18 -892 0
-496 0
-774 -609 0
-138 0
-651 495 0
-56 -362 0
-557 0
-952 961 0
-303 -266 0
-942 0
-526 0
-304 426 0
-140 277 0
-415 614 0
-469 -553 0
-702 0
897 -668 0
-656 122 0
17 -29 0
-655 0
-68 0
-228 0
-968 0
730 -484 0
-182 -364 0
-999 0
-272 -637 0
-667 0
-731 -745 0
-269 79 0
-584 -436 0
-272 -673 0
-830 0
464 -241 0
-485 0
-166 967 0
-664 -689 0
-992 557 0
-534 -27 0
-544 722 0
-211 -539 0
-464 618 0
131 -905 0
-279 0
-271 -418 0
-820 0
-104 0
-973 -309 0
-677 0
-712 -470 0
-675 0
601 -516 0
-463 309 0
-777 0
-742 0
-358 0
-406 -474 0
44 -761 0
416 -442 0
-955 0
-87 -693 0
-342 0
-614 0
-452 0
-463 0
995 -57 0
-677 0
-108 0
-636 0
-132 302 0
-286 -957 0
-993 0
-266 0
-175 206 0
-812 0
-575 647 0
-976 42 0
98 -387 0
-906 0
904 -385 0
-781 0
-839 795 0
736 -565 0
-243 0
-688 711 0
-637 349 0
-80 -1 0
26 -801 0
-11 0
-639 919 0
-10 0
-16 0
-368 -796 0
-752 0
776 -804 0
-149 0
-490 -929 0
-204 0
-600 -317 0
-192 -808 0
-160 -714 0
-989 0
-79 -867 0
-399 -170 0
380 -259 0
-485 163 0
-297 0
-571 302 0
-997 0
-247 45 0
-142 0
-149 190 0
674 -499 0
-111 893 0
-909 -506 0
-8 -804 0
-521 0
-85 148 0
-112 -412 0
-205 0
-347 0
-979 0
-12 605 0
-166 0
-658 0
636 -178 0
-167 -506 0
-396 -82 0
-831 258 0
-369 0
-924 0
-830 0
-79 60 0
-276 0
-590 -739 0
-767 0
-596 878 0
-98 0
-64 -935 0
624 -556 0
499 -810 0
539 -475 0
-48 0
504 -173 0
-7 0
-630 0
569 -309 0
-550 -516 0
-441 0
-303 -788 0
-143 0
-969 0
320 -779 0
-691 0
-518 -953 0
-623 0
-456 430 0
-488 -939 0
369 -89 0
-214 -465 0
26 -316 0
-830 783 0
309 -289 0
-536 0
-312 913 0
-78 -393 0
-60 0
-54 502 0
612 -707 0
-67 0
-455 -271 0
-832 0
-141 -457 0
-552 182 0
-174 -348 0
146 -346 0
181 -266 0
-320 0
-42 0
-206 -837 0
-792 810 0
-809 0
434 -691 0
480 -487 0
-739 -227 0
-156 0
-450 -985 0
-854 0
-467 39 0
16 -822 0
170 -804 0
89 -979 0
-956 0
-616 198 0
-492 0
-37 0
-392 703 0
98 -761 0
-406 0
-104 0
-239 -397 0
-925 0
-30 734 0
-338 215 0
996 -482 0
-220 -297 0
-932 0
216 -757 0
-705 0
336 -866 0
-836 0
-654 -12 0
-167 0
-852 -332 0
-818 375 0
-403 0
-477 0
921 -9 0
-481 0
-204 397 0
-275 0
-878 0
-909 -745 0
-84 925 0
-827 -107 0
-25 0
-492 367 0
912 -444 0
282 -228 0
-160 -905 0
-786 0
-58 0
-492 0
737 -817 0
-704 58 0
84 -818 0
-912 -274 0
-342 -785 0
-680 525 0
-899 0
-216 -918 0
-531 -595 0
-563 0
-482 0
-509 -867 0
-632 0
-421 811 0
-460 919 0
-154 0
-184 242 0
-299 269 0
-765 0
-484 0
368 -310 0
-575 -657 0
-470 0
-336 0
-183 0
-96 0
-520 0
-462 0
-304 954 0
-543 349 0
-784 481 0
506 -653 0
-505 0
-199 0
-111 0
-396 0
14 -153 0
-362 0
-572 245 0
-90 166 0
-371 0
-652 -554 0
-318 0
720 -518 0
-632 79 0
-186 0
475 -834 0
-56 -652 0
-104 201 0
-952 -730 0
-718 -269 0
-783 931 0
498 -11 0
-178 -209 0
-101 0
270 -337 0
-207 -277 0
800 -202 0
-638 989 0
-428 0
699 -738 0
-300 941 0
932 -946 0
-415 0
-192 233 0
-537 0
794 -161 0
-128 -306 0
-493 0
-329 0
-161 0
-255 0
-992 354 0
-967 0
-64 0
-772 -875 0
-839 402 0
-768 -471 0
-949 0
348 -19 0
-599 -331 0
-621 -962 0
-150 756 0
868 -833 0
-815 0
-464 54 0
286 -529 0
-138 119 0
-712 0
489 -69 0
-836 0
-499 0
-652 0
-666 0
-55 -219 0
-983 0
-950 -76 0
-982 0
-750 235 0
-633 0
-438 0
-934 -217 0
-983 564 0
905 -355 0
-720 0
-192 889 0
-202 0
-79 499 0
-84 -265 0
-647 -285 0
867 -242 0
-847 -57 0
-948 756 0
43 -133 0
16 -66 0
857 -581 0
-828 -994 0
-510 -331 0
-910 99 0
-879 178 0
-56 -475 0
-448 0
-505 0
-50 0
548 -777 0
-631 0
-775 0
-337 0
-416 146 0
-1000 -488 0
-152 -989 0
-88 0
-934 0
964 -785 0
-637 -557 0
361 -565 0
984 -696 0
-428 0
-782 582 0
-567 554 0
-276 0
-286 -489 0
-327 75 0
-383 -196 0
-453 -51 0
537 -467 0
816 -623 0
-261 0
-890 0
-339 -730 0
-60 0
-111 -3 0
-31 386 0
-143 0
-549 -867 0
-30 0
-571 0
-733 0
-313 0
-957 0
98 -378 0
-133 -427 0
-733 0
208 -547 0
-103 813 0
-95 0
-57 0
-529 0
-7 118 0
72 -47 0
804 -178 0
-332 0
-916 0
-168 847 0
-488 -729 0
-892 0
-764 0
-489 0
-813 0
-518 -361 0
641 -3 0
-559 0
-129 471 0
-112 -699 0
-193 0
898 -885 0
-972 0
-229 0
-511 308 0
-410 326 0
-735 287 0
-93 0
-268 -611 0
707 -307 0
-482 0
-385 0
-952 0
155 -796 0
716 -194 0
855 -961 0
-563 0
-483 0
-328 306 0
-918 0
-690 0
-763 -635 0
-864 0
-286 0
-28 679 0
-527 948 0
-189 0
-59 0
-500 797 0
-224 0
924 -404 0
-951 -986 0
-79 0
-695 15 0
-70 0
-277 358 0
659 -378 0
217 -937 0
-398 871 0
-56 2 0
-142 629 0
960 -708 0
-710 -732 0
-469 131 0
-346 -882 0
-904 -121 0
-439 -77 0
-736 482 0
-944 -722 0
-549 0
-584 -243 0
-268 0
-590 835 0
659 -577 0
-556 0
-79 61 0
-398 501 0
-472 0
-700 0
-271 0
-575 0
-328 623 0
320 -880 0
-726 0
888 -367 0
-524 325 0
40 -264 0
-887 0
226 -322 0
852 -249 0
-688 0
-874 0
1000 -893 0
-45 0
-25 0
170 -3 0
-43 0
-536 0
-314 0
686 -249 0
248 -81 0
-255 93 0
-878 0
-975 559 0
36 -833 0
-844 -897 0
-389 0
-222 724 0
-514 47 0
-662 0
-232 0
-656 0
-656 121 0
178 -134 0
-608 792 0
-823 -28 0
680 -540 0
51 -397 0
-967 485 0
-567 299 0
-904 0
-700 0
-908 668 0
690 -393 0
-224 235 0
-467 -162 0
-208 -95 0
179 -819 0
-613 0
804 -281 0
-318 0
-148 12 0
-597 0
19 -325 0
-920 -697 0
-387 0
-613 948 0
-264 -410 0
-827 0
-949 -764 0
-2 0
-40 0
113 -882 0
-889 0
-491 0
-90 0
540 -35 0
-380 815 0
-628 -762 0
-199 -428 0
-265 0
508 -171 0
-173 493 0
695 -937 0
-558 726 0
-271 290 0
-935 0
930 -908 0
-994 0
-272 548 0
-944 631 0
-605 0
21 -105 0
-111 -611 0
266 -889 0
-650 758 0
-863 -550 0
-624 289 0
-951 423 0
425 -700 0
-47 0
-874 0
272 -67 0
-493 -468 0
-576 0
-511 0
-537 0
-861 0
-587 0
-739 0
928 -718 0
-908 0
-695 723 0
-2 0
-140 -522 0
-431 87 0
-283 862 0
-920 0
-728 -321 0
264 -382 0
508 -467 0
-408 0
-902 -859 0
-24 0
-571 0
-562 0
-116 0
992 -587 0
-480 -297 0
-229 0
-128 418 0
-971 0
560 -510 0
-736 571 0
-416 0
218 -394 0
-344 -754 0
-921 0
297 -405 0
-304 -762 0
-535 882 0
-390 -804 0
-199 -38 0
609 -324 0
-768 0
-572 935 0
-201 0
337 -473 0
-812 532 0
-316 0
-254 0
-360 617 0
-216 178 0
338 -921 0
-688 -900 0
-483 -754 0
-722 -201 0
-980 -19 0
-859 0
-55 0
-780 0
-445 0
-264 0
145 -724 0
803 -380 0
162 -859 0
-528 692 0
-180 0
569 -815 0
-969 0
120 -981 0
-135 -866 0
-318 -797 0
-62 0
-731 0
-721 0
-151 -526 0
-708 551 0
-117 0
-57 0
-431 0
-12 0
-812 0
-345 0
12 -9 0
418 -261 0
-24 0
-291 495 0
-539 0
-51 0
-143 -314 0
912 -391 0
-33 0
-432 0
-111 0
846 -265 0
984 -991 0
-963 -465 0
-1000 497 0
-468 0
-49 0
-486 133 0
120 -322 0
-560 -71 0
859 -813 0
220 -41 0
-396 399 0
-829 0
-143 966 0
-560 820 0
-964 0
-999 871 0
-480 0
-854 0
-998 0
-253 -89 0
-80 -350 0
-723 0
-471 -589 0
-993 983 0
-781 804 0
-384 -78 0
-968 0
-653 -620 0
-532 0
-248 759 0
-372 342 0
-601 0
-911 785 0
-942 667 0
-887 -180 0
-488 -998 0
97 -459 0
-637 325 0
-871 895 0
-241 0
-631 0
33 -161 0
826 -683 0
-683 0
-637 341 0
-912 0
713 -537 0
-694 839 0
-167 0
106 -617 0
-285 0
-134 0
-125 0
-942 0
-727 0
-132 -562 0
-400 -501 0
-599 62 0
-661 0
768 -30 0
-961 0
-405 -594 0
-231 -509 0
884 -564 0
-48 0
-415 799 0
-158 931 0
-879 -277 0
331 -260 0
-1 0
-518 0
-627 0
-720 -35 0
-785 0
-246 781 0
-863 429 0
-809 0
-379 0
-425 0
-990 -570 0
-367 0
90 -836 0
778 -850 0
-263 0
-555 0
-470 831 0
-275 255 0
-886 394 0
-980 0
320 -516 0
-488 0
-111 572 0
-678 0
-169 0
-251 0
-797 750 0
-235 0
-261 -177 0
-293 -500 0
-870 -180 0
-636 0
-291 -994 0
-944 -428 0
442 -529 0
-328 0
-767 0
801 -420 0
-392 107 0
290 -4 0
314 -613 0
-296 -290 0
-736 -666 0
-61 0
81 -993 0
-64 501 0
891 -251 0
-54 0
-898 -865 0
755 -227 0
-860 157 0
-870 523 0
-41 0
662 -177 0
625 -493 0
581 -715 0
988 -554 0
-246 765 0
-606 143 0
-601 0
-814 2 0
194 -430 0
-8 554 0
864 -962 0
-725 159 0
-904 260 0
-597 -59 0
866 -547 0
905 -747 0
483 -620 0
-539 0
-270 757 0
-332 -764 0
-791 470 0
-309 0
121 -999 0
-726 242 0
-688 0
592 -652 0
403 -66 0
-567 316 0
329 -85 0
-723 0
-61 911 0
-469 0
-252 862 0
347 -467 0
-409 0
-10 0
-167 -371 0
-861 679 0
869 -323 0
-538 0
-564 -569 0
593 -223 0
35 -836 0
-725 -930 0
-245 0
803 -667 0
-910 0
-310 117 0
-532 0
-847 -647 0
460 -754 0
-526 0
-24 350 0
-708 0
-456 -528 0
-421 0
-311 650 0
-365 0
-520 0
-700 0
-128 109 0
-277 0
-581 0
-634 0
-80 862 0
417 -522 0
550 -1 0
-583 527 0
-701 0
-96 534 0
-902 0
-420 654 0
-660 0
-781 -851 0
-48 0
-438 437 0
689 -915 0
-394 0
-334 783 0
273 -606 0
-430 253 0
-578 0
-208 0
-366 0
-365 342 0
716 -363 0
994 -219 0
-38 -299 0
-927 0
-877 191 0
-160 704 0
-227 0
-454 0
-628 436 0
-161 0
-904 796 0
-384 0
-911 -846 0
-389 783 0
-504 380 0
-440 0
-984 738 0
-456 0
-23 -14 0
-968 3 0
729 -326 0
-405 0
-678 540 0
-783 0
-267 0
-744 451 0
156 -81 0
-988 773 0
-743 -782 0
-816 -115 0
368 -10 0
-564 14 0
-220 886 0
-533 0
600 -909 0
-811 0
161 -84 0
313 -223 0
488 -886 0
-880 303 0
-198 844 0
-582 -772 0
-583 -713 0
-18 0
-231 0
3 -289 0
-463 -918 0
-473 0
-591 758 0
-564 0
-338 -97 0
-294 0
-169 0
-554 0
-287 0
-397 702 0
-527 60 0
-768 294 0
-333 387 0
-686 0
-303 0
-184 363 0
841 -158 0
-592 949 0
-18 0
-752 0
-584 -551 0
360 -358 0
-900 -980 0
208 -11 0
-264 0
-565 52 0
-391 -499 0
758 -137 0
-119 0
969 -516 0
908 -12 0
-735 -461 0
-898 0
-740 -123 0
-143 30 0
-193 791 0
-325 0
549 -683 0
-519 -19 0
-599 -866 0
944 -171 0
-121 383 0
-655 28 0
-829 367 0
-301 0
-183 214 0
-78 715 0
-268 0
-342 0
-46 -565 0
-128 0
-586 0
-812 655 0
-233 0
-354 0
-489 0
531 -963 0
-793 0
-86 -458 0
-823 -764 0
514 -701 0
825 -153 0
-485 -210 0
-377 0
-484 775 0
-302 0
-991 0
33 -401 0
637 -979 0
666 -964 0
712 -502 0
-829 0
264 -459 0
-864 -953 0
242 -461 0
-840 -391 0
-24 0
361 -906 0
-390 -237 0
518 -41 0
-142 110 0
-406 -548 0
810 -297 0
-534 551 0
-383 85 0
-360 784 0
322 -730 0
-466 -282 0
-880 0
-987 0
-453 -490 0
-179 0
-42 0
-221 0
333 -930 0
-518 27 0
-734 550 0
472 -962 0
-879 0
928 -867 0
-518 0
-207 235 0
-259 847 0
-607 0
-860 268 0
-357 620 0
-248 0
-388 0
-838 27 0
-829 0
-939 0
-295 625 0
-243 0
-663 574 0
-655 0
-359 153 0
760 -388 0
-355 0
616 -515 0
-752 0
-14 -899 0
-805 0
37 -762 0
-45 903 0
-732 0
339 -683 0
-813 807 0
-394 782 0
-604 982 0
-576 0
624 -424 0
-665 0
-126 723 0
652 -561 0
-217 0
-367 445 0
-367 0
-719 804 0
640 -207 0
690 -206 0
-678 0
-308 0
625 -563 0
-454 116 0
904 -927 0
345 -639 0
761 -2 0
-894 -788 0
453 -554 0
-928 0
-837 -356 0
298 -603 0
-790 -755 0
-584 939 0
325 -122 0
-875 0
-37 0
-335 -540 0
-644 0
860 -43 0
336 -975 0
-838 103 0
930 -129 0
-555 0
-506 0
-212 0
-412 0
152 -445 0
-216 585 0
-483 -890 0
-824 238 0
298 -301 0
-727 243 0
-441 0
-935 0
-312 -522 0
-864 0
-940 0
-818 0
-214 603 0
-771 -899 0
-6 -564 0
-757 -101 0
-865 919 0
900 -250 0
-326 247 0
-42 -209 0
-271 -436 0
105 -388 0
-173 -444 0
-805 -443 0
-466 0
339 -11 0
528 -668 0
-513 0
-954 0
-694 -713 0
-235 0
-776 716 0
-614 -186 0
-683 -587 0
-760 373 0
577 -137 0
-520 647 0
-657 0
-977 0
956 -777 0
777 -541 0
667 -394 0
968 -713 0
-352 0
748 -898 0
-844 0
-692 -91 0
585 -885 0
-492 0
-389 -954 0
252 -57 0
-583 268 0
-651 0
-136 317 0
-247 0
-296 0
-776 -646 0
-836 0
-455 -399 0
-470 0
-343 -427 0
-532 -867 0
728 -793 0
-440 -813 0
192 -77 0
40 -65 0
-370 0
-252 -506 0
-102 0
605 -146 0
-196 0
-502 -67 0
-788 710 0
58 -115 0
-797 815 0
821 -433 0
-574 -398 0
-743 755 0
-920 -601 0
953 -137 0
-984 -891 0
753 -89 0
-793 0
-963 430 0
585 -443 0
-564 0
-720 299 0
-590 412 0
-325 -107 0
-31 0
-664 -629 0
-954 0
920 -341 0
-138 0
729 -491 0
985 -846 0
-278 6 0
-619 0
-162 0
-802 0
-324 0
-180 407 0
-776 -971 0
-449 0
-592 576 0
-271 505 0
-755 -690 0
-58 431 0
-576 0
-752 -704 0
-405 93 0
-901 55 0
-13 0
-24 -809 0
-833 0
-589 0
-472 996 0
-21 0
-875 55 0
-512 98 0
-925 79 0
-922 0
984 -948 0
129 -931 0
-869 0
-20 0
-712 256 0
-683 0
-346 0
-303 662 0
-350 0
684 -138 0
-424 -345 0
-417 0
-416 0
-680 688 0
-282 0
-994 0
-631 0
-430 0
-127 454 0
-944 270 0
-837 0
-943 0
-218 0
-627 -929 0
-808 -74 0
-12 0
-992 -354 0
56 -478 0
918 -490 0
523 -2 0
-264 -377 0
-143 983 0
-399 0
-161 0
-597 959 0
600 -233 0
104 -839 0
-497 0
818 -859 0
-264 320 0
-568 717 0
-3 -18 0
737 -141 0
-117 0
-474 0
-416 582 0
-489 0
-98 358 0
-591 -537 0
-702 0
580 -500 0
-710 149 0
-767 -889 0
-405 748 0
-268 -826 0
-479 -558 0
-557 -641 0
-452 949 0
587 -275 0
-356 0
-289 0
-910 -107 0
513 -493 0
-456 -874 0
-856 360 0
-978 0
-365 0
-206 -386 0
459 -51 0
413 -978 0
449 -252 0
-718 -212 0
-829 939 0
-143 0
-594 -282 0
457 -741 0
-542 0
-759 66 0
-600 -987 0
-116 0
-151 -358 0
-768 -943 0
-380 30 0
-845 -364 0
69 -585 0
-605 0
-829 782 0
-72 -178 0
-7 -278 0
-895 0
866 -339 0
-351 371 0
192 -539 0
-668 0
-430 683 0
540 -196 0
-318 -651 0
-656 0
-823 0
-867 0
-189 0
-49 0
-310 0
-869 0
-533 -260 0
502 -321 0
-879 449 0
-462 0
-936 0
-32 -266 0
689 -124 0
-446 0
-109 -370 0
-533 668 0
-658 0
-399 -445 0
-611 0
-454 0
-791 -327 0
-175 -708 0
101 -786 0
-899 0
-774 0
-696 -362 0
-308 0
-191 175 0
-226 0
-190 -947 0
307 -770 0
-828 -787 0
-493 -297 0
-961 0
919 -721 0
-439 0
920 -130 0
-846 410 0
-156 -418 0
730 -750 0
518 -506 0
-1000 756 0
-259 0
-250 0
341 -578 0
-748 0
-235 0
657 -836 0
-488 -545 0
-952 -635 0
-983 -937 0
425 -308 0
-798 501 0
-517 0
-879 -605 0
-687 0
-527 0
321 -546 0
-198 -353 0
-95 0
842 -260 0
-336 -2 0
553 -835 0
-338 0
-782 660 0
-344 -47 0
-182 -963 0
-932 0
-534 14 0
-827 0
-442 238 0
-937 0
830 -361 0
-928 -758 0
835 -804 0
-819 0
-981 -363 0
234 -301 0
-225 0
-171 -154 0
-861 0
-215 -329 0
565 -43 0
-336 143 0
-96 -879 0
236 -1 0
-399 0
610 -25 0
-582 -545 0
-733 -905 0
-401 0
-139 0
-29 -745 0
-584 0
-84 -523 0
-774 -43 0
557 -83 0
-164 0
-455 0
-21 0
634 -435 0
-28 0
-891 0
-861 0
-96 0
-255 -142 0
281 -229 0
-744 903 0
-945 0
-252 -962 0
-692 741 0
-566 -826 0
-174 0
-74 911 0
-776 402 0
-661 638 0
912 -521 0
-962 0
-663 -834 0
-280 -58 0
-966 868 0
-307 757 0
-626 71 0
3 -577 0
-648 82 0
-383 878 0
-166 0
-744 0
-535 -146 0
-163 0
-5 -633 0
-258 0
-288 843 0
136 -987 0
-435 54 0
-851 999 0
-654 988 0
-555 -498 0
-660 -819 0
-288 0
691 -121 0
-243 0
-903 -339 0
236 -635 0
-393 0
-504 -671 0
-725 0
-157 -178 0
-565 0
-570 0
-378 607 0
-41 0
-615 772 0
-785 0
875 -657 0
-112 351 0
-54 -433 0
-805 0
630 -609 0
-570 991 0
-708 0
920 -402 0
-850 -945 0
-87 757 0
-686 428 0
120 -32 0
-38 389 0
708 -465 0
-318 -986 0
857 -485 0
-977 0
-234 0
-935 -69 0
-526 -225 0
514 -234 0
-375 -194 0
-5 0
232 -7 0
-67 0
-509 359 0
-577 0
-978 0
-363 0
-225 0
-582 0
610 -257 0
-645 0
-80 423 0
-39 0
-240 0
702 -337 0
-283 0
-409 0
576 -20 0
336 -7 0
-932 0
-402 0
-421 0
-353 0
40 -747 0
663 -217 0
-72 -755 0
-718 0
-862 0
538 -4 0
-757 0
-349 0
-207 0
-734 167 0
-755 885 0
-451 0
-815 0
-359 737 0
-618 0
-936 -210 0
931 -402 0
-415 -798 0
-283 0
-54 716 0
-817 0
-869 0
544 -175 0
-736 -516 0
210 -555 0
289 -98 0
-552 85 0
-182 0
808 -156 0
-425 0
-200 -674 0
88 -950 0
-305 0
-413 -249 0
-807 -252 0
-281 0
-488 0
-26 0
-147 -281 0
194 -810 0
-455 571 0
-780 637 0
-153 0
-439 268 0
-916 668 0
-547 0
-367 260 0
-599 0
-338 -9 0
-232 -634 0
-523 0
-899 -251 0
882 -165 0
-264 0
138 -269 0
-164 0
-777 0
-320 0
955 -450 0
-727 394 0
-782 -981 0
-342 -132 0
-86 0
350 -346 0
-221 0
-312 -847 0
323 -588 0
451 -554 0
-150 -638 0
-149 52 0
-78 412 0
-324 -540 0
-480 0
-409 151 0
-752 0
60 -10 0
-795 0
-89 0
825 -157 0
-723 0
-640 374 0
-588 0
-271 156 0
-515 0
-760 -105 0
-900 540 0
-935 -122 0
-288 -764 0
-748 0
244 -690 0
-268 543 0
-119 941 0
460 -340 0
-433 0
-786 0
-493 0
-730 0
-605 0
-497 0
-383 -97 0
-993 0
-945 0
-422 0
400 -557 0
-505 0
-782 0
-990 -891 0
-203 334 0
-753 0
-31 0
-132 -251 0
-781 -242 0
31 -105 0
304 -317 0
-869 781 0
-119 0
-24 679 0
-547 0
-893 0
-245 -345 0
-252 0
-275 0
-525 -657 0
-822 454 0
-102 396 0
-235 0
448 -897 0
-279 -241 0
-973 0
-998 0
-368 345 0
-384 -420 0
168 -900 0
-29 -193 0
-710 0
248 -556 0
-676 0
-77 0
-156 -507 0
-393 0
-96 -342 0
-487 0
-816 230 0
-566 190 0
-404 0
177 -14 0
-887 589 0
-384 0
-316 517 0
232 -663 0
-54 0
-744 445 0
-268 0
530 -429 0
-940 -779 0
-237 -716 0
-195 0
-576 209 0
-215 -254 0
-549 0
-820 -348 0
-372 718 0
-822 578 0
857 -634 0
865 -398 0
-256 0
-126 -369 0
-120 -360 0
-296 -775 0
-408 521 0
-335 -109 0
-119 726 0
-552 -718 0
-74 878 0
236 -513 0
-32 -563 0
-46 0
-955 0
-136 -521 0
-683 351 0
595 -717 0
-839 0
-312 -277 0
261 -897 0
-378 0
354 -774 0
-693 0
-483 0
172 -713 0
-620 -201 0
-31 254 0
189 -241 0
-616 490 0
-567 -861 0
821 -675 0
-104 -817 0
802 -595 0
-350 582 0
-678 613 0
995 -300 0
-736 0
-296 38 0
-86 0
-560 -778 0
-32 -130 0
-54 852 0
-95 0
-24 0
-332 0
157 -634 0
-544 416 0
-61 0
644 -105 0
-574 350 0
-960 -974 0
-546 262 0
-757 21 0
-389 239 0
-656 0
-683 0
-139 -818 0
-335 0
-239 -21 0
-624 590 0
-364 0
-835 0
-152 488 0
96 -969 0
-51 -778 0
-934 -929 0
-251 -665 0
-443 0
-985 0
-968 -138 0
-376 3 0
-194 0
-280 943 0
48 -939 0
-341 0
-160 933 0
-725 0
-151 957 0
-319 0
-975 0
465 -673 0
-635 0
-589 0
-718 709 0
-174 0
-718 0
409 -819 0
616 -361 0
49 -628 0
-507 0
489 -283 0
-335 -830 0
-420 0
-635 0
-806 0
-332 687 0
-207 -677 0
-123 0
-287 -62 0
932 -588 0
-27 374 0
-904 -799 0
-421 0
833 -763 0
-24 0
-314 0
-295 0
-918 0
-290 0
-797 0
-53 0
-3 917 0
-979 965 0
-445 0
-24 518 0
546 -209 0
-773 0
64 -242 0
-874 175 0
-724 -138 0
-706 0
-488 -55 0
-21 -123 0
-599 267 0
-212 -402 0
-326 0
317 -17 0
-511 614 0
-313 695 0
148 -778 0
-581 317 0
-410 303 0
-477 -556 0
-99 0
-677 925 0
696 -667 0
-851 -858 0
-192 0
-161 0
501 -851 0
451 -281 0
-264 0
-597 -835 0
-244 0
-687 -979 0
-459 0
701 -713 0
-664 539 0
-106 -258 0
-132 0
-229 0
97 -482 0
-330 0
-253 293 0
-943 427 0
-368 -349 0
-177 0
-771 631 0
-791 -770 0
-399 -234 0
-427 0
-205 557 0
-629 0
-524 0
-876 -955 0
979 -884 0
905 -803 0
-322 398 0
-278 0
977 -789 0
-886 770 0
-973 -667 0
-289 -241 0
-732 -945 0
40 -667 0
-401 0
67 -937 0
-806 -717 0
331 -19 0
-961 0
940 -843 0
-255 0
-291 0
-978 0
-314 0
-944 679 0
-787 183 0
-485 0
-605 -692 0
-126 386 0
-80 424 0
977 -412 0
-108 -545 0
-582 0
-638 197 0
-13 -867 0
-451 -513 0
-644 -722 0
-133 0
-598 461 0
-750 -987 0
425 -110 0
-613 0
-808 -716 0
-952 -889 0
-879 900 0
-842 879 0
-39 931 0
-120 -206 0
-367 0
-489 239 0
188 -314 0
605 -227 0
-687 909 0
-767 0
-607 714 0
-120 0
-825 0
857 -625 0
-69 765 0
-491 413 0
-661 0
-776 0
-149 0
275 -97 0
-316 308 0
517 -113 0
-616 161 0
-827 685 0
-815 0
-414 0
-826 0
-856 677 0
-518 942 0
-275 343 0
-186 0
-13 0
-348 0
-356 0
298 -699 0
-472 0
-922 0
-984 742 0
-405 -228 0
24 -708 0
-212 966 0
-734 823 0
32 -905 0
-415 -806 0
-376 13 0
-672 0
-288 -252 0
-151 0
-37 -707 0
-517 28 0
-499 790 0
-350 -698 0
-429 0
-44 0
-405 781 0
-616 0
-974 0
-806 0
-572 0
-852 205 0
-128 -317 0
-820 -330 0
-964 0
554 -698 0
-133 0
-312 -931 0
-871 270 0
-736 321 0
-820 0
-500 0
813 -187 0
-913 0
-640 220 0
-587 0
-454 0
-98 -721 0
-121 0
-998 0
185 -619 0
-823 315 0
241 -198 0
-321 0
-624 0
96 -189 0
-94 0
377 -638 0
-164 999 0
-853 0
-335 0
-376 -870 0
227 -171 0
-12 934 0
-134 923 0
-42 0
-40 -753 0
-783 818 0
-87 438 0
297 -669 0
-865 0
-715 0
-637 0
-585 0
-327 0
-445 -227 0
-102 501 0
-959 -469 0
-179 0
188 -443 0
921 -683 0
418 -820 0
-536 35 0
-671 -273 0
-438 461 0
-493 0
-206 -955 0
-475 909 0
841 -818 0
-225 0
378 -100 0
-456 630 0
-829 591 0
-914 423 0
-328 0
-239 -370 0
-211 0
-281 0
890 -579 0
-166 395 0
-496 0
-741 0
224 -581 0
-747 0
702 -826 0
676 -817 0
-700 -458 0
-936 0
267 -963 0
-938 0
-678 -603 0
-310 628 0
-307 0
-397 279 0
-295 722 0
504 -619 0
206 -337 0
-78 215 0
-629 0
-570 0
170 -745 0
-797 -692 0
-807 -965 0
-842 -913 0
-183 -763 0
129 -499 0
704 -787 0
-658 790 0
-98 0
-662 0
-960 0
-914 -58 0
-395 0
-911 667 0
-556 23 0
-376 427 0
-400 -91 0
981 -810 0
-876 0
-770 0
976 -86 0
198 -210 0
-354 583 0
-463 871 0
-412 966 0
-283 0
737 -993 0
-273 0
-400 0
-923 -378 0
-525 0
-894 732 0
-65 23 0
-850 726 0
-253 0
-870 0
-10 0
-854 -123 0
-130 -97 0
-869 94 0
-439 -205 0
-861 0
-735 0
-380 -841 0
-29 454 0
-522 0
821 -81 0
-343 0
-600 -229 0
-386 526 0
-351 0
-293 158 0
-419 0
-633 0
-57 0
-368 0
-33 0
753 -77 0
-161 0
17 -841 0
-128 532 0
-494 0
-528 0
-481 0
-203 0
361 -815 0
-159 -100 0
-437 39 0
-467 0
-271 893 0
-723 0
-587 -154 0
-137 0
509 -107 0
-456 -459 0
-46 0
-775 405 0
-17 0
-553 -409 0
-89 0
-263 -309 0
-342 0
-27 582 0
-269 0
81 -910 0
-88 29 0
-911 -497 0
-480 -183 0
-471 621 0
-595 0
712 -290 0
874 -581 0
278 -569 0
485 -729 0
-731 -586 0
761 -821 0
-510 359 0
-792 154 0
-78 0
-192 354 0
513 -849 0
-642 0
-796 0
-887 0
-287 0
-409 0
-751 266 0
-464 441 0
-608 -333 0
-452 583 0
-503 500 0
-542 0
-895 0
838 -482 0
-319 -660 0
-588 486 0
-818 0
-623 0
-415 -105 0
-156 0
-20 0
-982 0
196 -643 0
-496 0
-931 181 0
553 -994 0
-912 0
-712 -672 0
-996 -268 0
-766 -941 0
-720 0
485 -625 0
-495 526 0
-241 0
-204 -755 0
-150 547 0
-789 -996 0
-454 -68 0
-999 -81 0
-45 -907 0
-800 0
-7 0
-619 302 0
-764 951 0
-165 0
-328 0
-367 508 0
-828 0
-817 0
-614 0
-679 730 0
-668 -19 0
-989 0
555 -434 0
-459 407 0
-96 404 0
-956 0
-696 -238 0
-623 0
-324 0
-811 0
-47 -497 0
920 -746 0
-599 803 0
656 -125 0
-813 0
-855 36 0
-974 0
-837 702 0
-663 -206 0
-1 0
274 -756 0
-763 0
-385 0
-550 850 0
-333 0
-836 0
970 -979 0
-597 0
-39 0
-281 0
-717 470 0
-91 182 0
-790 -363 0
-295 507 0
-822 290 0
-974 0
-653 -203 0
-794 0
-361 0
-724 0
-608 138 0
-135 317 0
-278 0
-714 0
148 -755 0
-897 0
-621 0
-773 565 0
491 -716 0
-539 -729 0
-246 0
479 -969 0
-909 0
-218 0
-396 0
-453 110 0
-426 0
-214 -675 0
-706 0
-520 0
-801 0
-264 107 0
-133 0
-231 0
-725 686 0
-516 -625 0
8 -251 0
-784 0
-784 0
294 -561 0
-568 -655 0
-574 -725 0
-606 -397 0
-759 0
958 -785 0
-20 0
-720 0
-638 -794 0
-403 0
-239 820 0
-901 -505 0
-952 826 0
-734 0
-847 907 0
-307 901 0
-652 0
-191 -253 0
-38 0
994 -555 0
145 -707 0
-286 0
794 -985 0
208 -51 0
-517 -508 0
-837 -364 0
-781 0
-887 0
-162 0
-149 0
370 -308 0
784 -726 0
-775 0
-599 0
-222 0
-982 0
-87 -391 0
-163 0
380 -948 0
160 -490 0
-174 0
-317 428 0
381 -682 0
-170 0
-776 -339 0
-334 587 0
-695 425 0
-880 855 0
-583 0
-411 0
-261 -435 0
645 -618 0
131 -340 0
-112 0
125 -578 0
-23 0
-888 -742 0
849 -481 0
459 -307 0
-717 0
-181 199 0
-792 -830 0
879 -409 0
-622 430 0
-439 827 0
-717 -849 0
-832 209 0
-264 590 0
-61 943 0
-791 542 0
-568 697 0
-617 0
-689 0
-546 0
-679 0
257 -275 0
-783 -10 0
-391 343 0
-444 110 0
976 -449 0
-539 -938 0
-346 0
-5 -20 0
-369 0
893 -570 0
-16 0
996 -754 0
-587 -75 0
-364 0
-476 0
-940 -634 0
-276 0
-449 -569 0
-918 855 0
-637 111 0
-597 0
-91 286 0
-401 0
147 -217 0
-512 724 0
-366 0
-283 0
-399 -38 0
-995 0
-646 -401 0
-520 -318 0
35 -177 0
241 -155 0
-339 0
282 -465 0
-398 0
-103 921 0
-963 0
556 -779 0
-639 812 0
-278 -938 0
-15 -675 0
-867 -209 0
162 -571 0
-33 0
-242 0
-79 0
-297 0
-862 0
115 -217 0
600 -974 0
-182 -124 0
-332 0
-478 715 0
-497 0
-460 0
-908 349 0
250 -265 0
-877 227 0
-775 506 0
-24 0
-438 629 0
-960 0
-253 0
-649 0
-478 0
-349 637 0
-513 0
914 -4 0
-910 0
-321 0
-195 431 0
-191 -570 0
-598 -974 0
-724 -682 0
331 -796 0
221 -465 0
-861 -458 0
-304 910 0
-813 -626 0
571 -661 0
-263 661 0
544 -595 0
853 -418 0
-702 0
377 -469 0
-667 0
-112 -952 0
-491 0
-719 947 0
-85 775 0
-653 0
-474 0
-68 0
612 -347 0
-663 0
-183 -909 0
912 -628 0
-456 0
353 -412 0
-528 0
168 -907 0
-556 86 0
-651 -91 0
-600 -95 0
-898 -49 0
577 -429 0
-132 37 0
-219 0
-647 0
626 -51 0
531 -113 0
-242 -993 0
384 -283 0
450 -907 0
-336 139 0
-238 -914 0
-656 0
-773 0
-630 -348 0
768 -790 0
-756 -170 0
-365 -938 0
-764 0
-78 620 0
-384 0
-693 0
-966 349 0
-900 0
-846 788 0
-984 -305 0
-43 598 0
-266 0
-638 0
178 -630 0
-295 0
72 -801 0
-164 134 0
-382 0
-725 -732 0
-528 -960 0
-15 0
-948 0
499 -219 0
-951 0
-907 0
-107 662 0
-478 -133 0
-618 0
981 -441 0
-759 0
-624 89 0
-486 0
803 -635 0
-897 0
-821 492 0
633 -921 0
528 -918 0
-244 -434 0
-254 -5 0
-672 -206 0
-482 0
-813 430 0
-839 0
-357 -483 0
-613 -465 0
-4 0
-350 515 0
-975 718 0
-779 0
-271 0
-63 0
-223 0
-574 -148 0
930 -299 0
555 -625 0
-813 0
-486 0
-441 0
-998 0
-157 -921 0
-734 295 0
-418 0
-815 -476 0
-849 0
673 -358 0
-799 0
-672 0
707 -553 0
-477 0
-288 0
280 -821 0
176 -748 0
859 -441 0
290 -278 0
-552 -74 0
-175 -761 0
-876 -67 0
-46 0
916 -41 0
-724 0
723 -523 0
-934 0
-656 -533 0
-591 0
323 -475 0
-651 0
-300 0
-258 0
-717 0
27 -613 0
-522 0
572 -994 0
864 -34 0
640 -165 0
-755 -721 0
-92 0
-701 0
-379 0
74 -149 0
-438 814 0
520 -175 0
-695 0
-679 0
-242 0
-760 0
937 -273 0
-356 0
870 -962 0
-18 0
-565 997 0
192 -101 0
-347 558 0
-623 0
-22 0
-493 107 0
-596 303 0
10 -905 0
-632 0
-820 45 0
-628 0
-69 0
-70 0
-448 0
-554 0
-419 0
-65 0
-69 0
-821 181 0
-213 -25 0
-281 0
-804 0
-449 0
-288 -69 0
-789 516 0
-222 887 0
-596 0
-116 -433 0
449 -764 0
-551 0
856 -209 0
-868 0
-758 -980 0
-136 0
-942 -156 0
987 -324 0
489 -684 0
-503 0
-944 107 0
-105 0
-55 778 0
-943 -533 0
829 -418 0
-546 0
-568 -925 0
322 -510 0
-966 463 0
-688 0
-929 0
-536 0
-887 0
-899 -331 0
-839 -19 0
881 -980 0
-825 0
-816 0
-240 0
-182 0
-112 735 0
-185 0
-830 0
-909 815 0
940 -522 0
272 -138 0
-332 0
-287 0
-749 397 0
-661 340 0
-398 -579 0
-319 0
-695 -94 0
587 -738 0
-836 0
738 -825 0
-740 -803 0
652 -130 0
-446 122 0
-890 0
-277 -771 0
209 -857 0
163 -754 0
809 -73 0
-435 238 0
-400 -475 0
-337 775 0
67 -188 0
-166 4 0
-848 0
-3 -10 0
-359 599 0
-663 0
-680 0
541 -361 0
-560 -49 0
-222 0
494 -633 0
-143 0
-161 487 0
-14 372 0
-997 0
-816 0
-486 614 0
-919 0
-652 277 0
-646 0
-808 999 0
-885 -603 0
-287 0
-179 0
461 -961 0
993 -630 0
-5 223 0
-917 -490 0
-463 -266 0
-95 -43 0
-50 0
-282 0
-391 0
-515 0
-450 0
616 -30 0
-353 0
517 -691 0
-239 0
-302 0
-6 0
-740 -922 0
-448 0
388 -884 0
-832 55 0
76 -705 0
-5 0
654 -306 0
-45 0
-438 0
-94 0
-840 0
-296 0
680 -476 0
-949 0
-151 0
-315 0
-817 0
-6 -588 0
-239 0
-902 863 0
-927 699 0
441 -66 0
-76 597 0
-450 0
-47 0
-976 554 0
114 -27 0
-591 0
546 -474 0
-3 607 0
875 -989 0
-365 860 0
-383 0
-419 0
-869 -113 0
-16 -128 0
-534 0
770 -422 0
-637 14 0
433 -52 0
-584 -520 0
-414 0
-455 0
-798 212 0
-573 0
-582 342 0
921 -754 0
-55 0
-85 709 0
-13 588 0
-815 -12 0
-974 -434 0
-525 0
-499 0
-810 511 0
548 -145 0
-179 0
-435 0
-503 0
-942 486 0
-404 -251 0
554 -611 0
791 -337 0
-509 -178 0
-248 -810 0
-933 0
-671 -813 0
-389 797 0
-61 -969 0
-231 0
568 -565 0
894 -857 0
-419 0
-457 0
-253 509 0
-554 0
-187 0
-80 293 0
-195 -457 0
245 -346 0
-736 298 0
-239 669 0
-5 0
-588 942 0
-243 -545 0
-304 0
-490 0
-40 -630 0
-819 0
-117 -811 0
-6 -731 0
-336 -638 0
789 -689 0
-792 0
50 -460 0
-734 0
-47 138 0
-444 -858 0
954 -341 0
-549 0
-855 307 0
267 -130 0
738 -443 0
-372 0
-71 0
428 -500 0
-405 580 0
-182 22 0
924 -4 0
-721 0
-971 0
-138 863 0
-752 0
-904 -154 0
-104 55 0
-807 423 0
-208 514 0
-287 0
-513 0
-155 0
-55 0
-653 0
-757 -106 0
-175 0
37 -449 0
-179 0
-784 306 0
-103 -102 0
976 -988 0
-305 0
-7 135 0
320 -946 0
322 -357 0
749 -993 0
-245 0
-334 0
90 -177 0
-54 0
8 -262 0
-1000 -5 0
-250 -585 0
-391 805 0
-530 0
-298 0
5 -785 0
-870 0
224 -246 0
-738 0
-816 -169 0
746 -267 0
-215 0
-882 -809 0
-218 0
-957 540 0
-928 864 0
676 -657 0
760 -272 0
-22 0
-238 0
-798 -706 0
963 -669 0
-576 0
268 -882 0
-127 -346 0
-38 0
-876 0
699 -225 0
-431 -449 0
-447 -754 0
808 -539 0
-966 479 0
-511 0
-104 103 0
-493 -665 0
642 -500 0
-308 0
118 -345 0
-54 -491 0
-594 0
-850 0
-576 202 0
-583 0
-75 54 0
-240 0
-827 0
-564 -244 0
-97 0
-950 -613 0
-3 951 0
-557 116 0
-20 -946 0
-391 -157 0
-229 0
-717 0
-250 -393 0
-536 501 0
224 -809 0
-61 0
-514 183 0
-416 -942 0
146 -518 0
322 -412 0
217 -94 0
130 -2 0
-341 0
64 -647 0
-574 0
59 -50 0
-723 0
674 -969 0
-64 631 0
-193 0
-59 0
-581 995 0
225 -474 0
-256 132 0
-502 878 0
-274 79 0
162 -339 0
-544 0
121 -938 0
-301 -2 0
793 -348 0
27 -202 0
73 -547 0
-152 -754 0
-184 -341 0
-643 0
-644 -507 0
-759 0
-356 581 0
-366 -692 0
-526 0
-245 0
-605 23 0
-480 0
-192 232 0
-879 0
-365 0
58 -497 0
692 -898 0
642 -867 0
-112 -887 0
-249 0
-264 739 0
-67 0
-392 0
-54 0
-896 -895 0
-646 -37 0
-362 0
-115 -762 0
-371 0
-899 93 0
963 -513 0
-222 468 0
-542 0
192 -412 0
-397 -35 0
-632 0
-167 332 0
-732 334 0
523 -531 0
520 -3 0
-353 0
618 -42 0
416 -669 0
-343 0
-652 -930 0
752 -29 0
-354 0
705 -731 0
537 -972 0
-839 -621 0
576 -717 0
-480 337 0
-224 299 0
32 -242 0
-712 0
672 -617 0
-765 0
448 -126 0
-958 0
-899 0
-196 0
267 -436 0
93 -281 0
-512 390 0
-788 0
721 -353 0
-739 487 0
-717 -620 0
-493 0
739 -577 0
832 -769 0
-925 -644 0
-359 0
434 -629 0
-332 -595 0
861 -321 0
967 -577 0
-336 998 0
616 -524 0
-508 0
404 -466 0
-877 0
-340 0
740 -571 0
-593 0
728 -877 0
-663 -972 0
-336 -407 0
-197 0
-800 916 0
-496 372 0
-984 -170 0
-198 -901 0
-171 -313 0
-376 0
690 -587 0
-693 23 0
690 -714 0
-294 -166 0
930 -702 0
-255 -922 0
-817 0
3 -701 0
-357 965 0
4 -778 0
792 -597 0
-826 0
-258 0
-962 0
-372 0
-313 0
608 -441 0
-117 -297 0
-319 -71 0
-473 0
-192 -535 0
177 -381 0
-982 -131 0
-81 -465 0
-284 0
-921 0
-836 62 0
-627 0
-591 -39 0
-833 0
-47 212 0
-103 -887 0
-494 0
838 -690 0
10 -66 0
-277 431 0
-725 -299 0
465 -739 0
505 -2 0
-632 0
-885 0
-672 -261 0
-703 -146 0
-123 439 0
-231 0
-950 0
-798 0
-14 806 0
-890 0
312 -419 0
-15 0
-660 0
-533 0
-604 972 0
-853 0
-936 -561 0
-333 0
-909 895 0
-140 565 0
-816 -557 0
-519 945 0
-36 0
-272 880 0
-646 -499 0
-850 0
-761 0
616 -445 0
-209 -673 0
401 -266 0
-661 0
-634 0
-610 0
-457 0
-763 0
-166 -57 0
-547 0
190 -873 0
-765 0
-712 -409 0
-124 932 0
539 -349 0
-136 0
-762 0
491 -220 0
-189 0
-891 0
-42 526 0
-456 -201 0
-858 0
-265 119 0
-166 0
-936 -15 0
158 -73 0
-279 0
-459 0
-945 0
-442 0
248 -438 0
-240 -935 0
873 -789 0
-2 0
-208 -856 0
-643 -809 0
-539 0
658 -893 0
-534 965 0
945 -138 0
-613 495 0
-96 -922 0
-123 -314 0
-7 0
26 -377 0
-976 -132 0
-856 -636 0
-165 0
-137 0
784 -441 0
-485 231 0
-615 134 0
-235 0
-379 0
-103 -916 0
-719 -681 0
-746 0
-806 421 0
-885 -233 0
-413 0
-466 863 0
700 -75 0
-429 0
-294 0
-309 -793 0
-964 -795 0
-494 654 0
538 -314 0
-614 0
-304 0
-616 0
-936 0
-179 0
-588 0
-204 -347 0
817 -265 0
-833 0
929 -886 0
-697 0
209 -974 0
-209 0
-399 478 0
-715 870 0
-933 403 0
-954 927 0
-507 0
-143 -726 0
-994 0
-922 -761 0
-524 -929 0
-590 0
-926 -213 0
193 -210 0
120 -93 0
-910 535 0
506 -641 0
-381 0
-332 0
-389 0
-991 -398 0
-112 -64 0
-135 63 0
-315 0
-362 0
545 -265 0
-995 0
931 -364 0
-403 -226 0
-439 0
-788 637 0
-38 -257 0
-772 0
-812 -578 0
544 -462 0
243 -460 0
59 -810 0
-872 38 0
-733 -481 0
-341 444 0
-302 22 0
925 -730 0
-775 669 0
-779 239 0
-380 605 0
-96 -193 0
776 -676 0
-279 814 0
144 -1 0
-221 54 0
-5 0
-366 0
-221 0
-834 0
-581 0
-616 394 0
-697 0
-532 0
-816 -204 0
216 -493 0
-908 -137 0
-304 411 0
-811 -411 0
-323 0
101 -505 0
-115 119 0
-930 0
-286 207 0
-3 -1 0
-972 -227 0
-224 -306 0
106 -491 0
-275 -106 0
-595 0
-869 -684 0
-624 0
-605 -795 0
-748 0
-479 678 0
-704 62 0
84 -873 0
-227 0
-621 -177 0
-147 -65 0
-887 838 0
418 -540 0
-15 -134 0
-722 686 0
-405 141 0
-520 750 0
-693 0
-456 -634 0
-632 468 0
-832 453 0
-13 580 0
-480 -630 0
-366 -115 0
-524 0
556 -106 0
940 -2 0
-830 -681 0
-763 0
-941 675 0
-783 171 0
-209 0
-736 399 0
-663 -150 0
-694 173 0
-638 883 0
-750 0
-965 0
888 -547 0
-687 -385 0
-515 0
-440 0
875 -889 0
-868 0
-378 0
-199 0
-143 -179 0
-623 10 0
-590 0
-955 -467 0
-283 -290 0
-471 0
12 -929 0
816 -537 0
-328 -853 0
-853 -301 0
-23 0
-856 0
-164 0
464 -219 0
-320 576 0
-970 0
-490 527 0
-151 -677 0
-248 -746 0
-814 0
-944 675 0
-842 0
-336 -529 0
-165 364 0
704 -723 0
753 -103 0
-939 406 0
-899 0
-950 0
-37 0
-42 0
-401 0
-632 -595 0
-456 0
-365 -260 0
257 -387 0
-197 -259 0
47 -73 0
-906 0
814 -977 0
-427 0
-193 0
-143 846 0
-446 -613 0
-240 0
-405 311 0
-929 0
72 -709 0
-786 0
-20 0
-291 -529 0
-213 110 0
219 -810 0
-386 0
-679 -13 0
-56 -995 0
-680 -641 0
904 -534 0
-236 0
-100 -554 0
-223 0
-997 0
-239 -949 0
-766 0
-471 0
880 -313 0
-792 -240 0
124 -964 0
32 -579 0
-732 0
739 -826 0
-981 0
-280 0
-945 0
-599 158 0
-994 -801 0
-827 -425 0
-491 -362 0
-953 0
-893 -394 0
-896 289 0
-355 7 0
-899 -874 0
-92 990 0
-357 0
-630 0
-84 -635 0
-59 638 0
-771 0
-644 548 0
-383 0
-943 0
531 -882 0
-484 0
360 -654 0
452 -27 0
-443 566 0
-565 -505 0
-269 0
-683 0
257 -620 0
-27 0
-947 0
569 -859 0
-512 0
-394 0
-736 0
499 -781 0
-240 531 0
-590 0
484 -268 0
559 -9 0
-975 -953 0
-272 0
-178 0
836 -737 0
-276 -666 0
-174 717 0
-845 0
-327 0
-999 -179 0
716 -690 0
-968 0
-831 -931 0
-863 0
703 -505 0
-878 0
-415 -84 0
-461 0
-946 0
812 -251 0
232 -370 0
-183 436 0
-458 0
-343 0
-34 -633 0
-503 228 0
-328 140 0
-208 746 0
-67 0
-328 278 0
-63 268 0
-328 0
-991 0
406 -762 0
-78 0
683 -413 0
-38 0
-543 -345 0
-11 -433 0
-827 0
-322 0
-478 0
-559 0
-343 -734 0
-316 0
-321 0
-362 -842 0
810 -361 0
-751 0
-624 -556 0
-469 71 0
-174 -91 0
-927 -788 0
-729 0
-635 -867 0
-376 0
-621 -106 0
-602 343 0
-982 371 0
-374 798 0
-69 0
-433 0
-142 780 0
-383 0
168 -589 0
-32 -503 0
-398 0
-95 -198 0
-686 0
-142 245 0
-636 0
441 -652 0
-39 959 0
-996 500 0
-362 590 0
400 -242 0
-766 -395 0
402 -933 0
-74 -121 0
-231 0
-669 30 0
825 -846 0
-138 0
-822 -813 0
-528 -167 0
-719 890 0
57 -115 0
-904 -697 0
-422 236 0
-773 -897 0
-202 0
-192 -92 0
-360 337 0
-221 -109 0
-181 -613 0
-864 -84 0
-935 -514 0
-694 700 0
-622 0
-950 -636 0
-736 0
-775 -233 0
-832 86 0
107 -429 0
-712 -853 0
-808 0
-506 0
-397 955 0
-146 0
-514 -17 0
-126 652 0
-328 0
-970 0
382 -145 0
844 -946 0
-960 0
516 -540 0
-973 727 0
-702 -604 0
512 -557 0
-162 0
-608 0
194 -81 0
72 -832 0
-94 691 0
268 -401 0
884 -300 0
779 -451 0
-612 245 0
-566 455 0
-827 0
-868 0
-202 -874 0
-214 0
76 -452 0
-316 -625 0
-898 0
681 -371 0
-431 0
-691 0
824 -428 0
-362 847 0
713 -981 0
-872 865 0
784 -13 0
912 -446 0
-638 0
-960 630 0
-882 0
-145 0
-463 -551 0
147 -66 0
-576 263 0
-205 701 0
-744 0
-967 194 0
508 -793 0
-598 -717 0
72 -137 0
-955 0
-817 71 0
-240 49 0
541 -834 0
-126 190 0
-414 0
-444 0
722 -910 0
956 -481 0
-488 -490 0
-519 0
-757 -82 0
-16 0
-628 815 0
-199 543 0
48 -698 0
-43 -786 0
-392 -319 0
-959 0
-546 0
-103 0
-382 221 0
-93 671 0
802 -169 0
12 -586 0
-179 213 0
-726 757 0
-333 0
-68 269 0
-302 -306 0
-320 0
802 -254 0
-324 0
257 -157 0
-406 -627 0
-294 102 0
-712 810 0
-681 0
-41 0
-975 -788 0
390 -153 0
-112 535 0
-950 -185 0
-248 -448 0
-863 0
-948 0
-800 0
-955 0
-540 -218 0
-655 0
-232 31 0
-928 844 0
-390 0
-182 -625 0
76 -873 0
-74 183 0
-343 417 0
-4 0
-200 0
-16 0
-660 0
-352 -961 0
-365 340 0
-951 893 0
-875 0
-734 606 0
-992 603 0
-229 -161 0
-261 0
240 -980 0
-572 0
-333 0
-462 0
-192 765 0
-63 0
331 -611 0
-243 0
-951 -39 0
-795 0
-342 0
-696 993 0
-608 -221 0
252 -2 0
-849 0
-984 541 0
171 -932 0
-804 0
-28 909 0
144 -307 0
-32 -380 0
-780 0
-426 0
-672 0
-360 -5 0
450 -926 0
-185 0
-61 -706 0
-120 0
-349 0
-196 0
-474 0
-309 134 0
-573 622 0
-150 0
-938 0
66 -620 0
-701 507 0
-242 0
-522 0
-237 269 0
-38 748 0
-358 -909 0
755 -993 0
-926 0
573 -65 0
-409 0
-911 269 0
-10 295 0
-768 -819 0
-207 0
-235 -202 0
-932 0
468 -947 0
-943 733 0
-584 0
-705 0
-794 0
904 -807 0
-716 0
-456 818 0
997 -867 0
-712 0
-282 231 0
-615 310 0
145 -843 0
-800 0
-847 -190 0
431 -673 0
-276 -482 0
-95 957 0
50 -628 0
-629 237 0
937 -457 0
-976 67 0
-835 0
-283 854 0
-526 830 0
-494 502 0
-778 0
711 -785 0
149 -363 0
-248 623 0
292 -250 0
-437 0
-642 0
-793 0
-92 0
-303 30 0
-338 0
98 -891 0
79 -777 0
-808 -405 0
-614 -748 0
-978 0
237 -98 0
-153 0
-820 6 0
-87 196 0
-531 -977 0
-72 0
-543 -509 0
393 -917 0
187 -26 0
-938 0
611 -321 0
435 -337 0
763 -565 0
-223 702 0
-535 -413 0
-646 -788 0
-167 -345 0
-584 0
-63 -522 0
868 -252 0
-367 718 0
-335 291 0
-331 -33 0
-788 0
-47 0
-880 751 0
-535 -76 0
-716 0
-989 0
-29 0
-282 0
-261 -57 0
-296 0
-193 0
-339 270 0
-213 863 0
-499 -945 0
720 -122 0
553 -364 0
-151 407 0
-246 388 0
-519 -532 0
-733 0
-491 0
-719 18 0
-332 637 0
-756 0
-545 0
-470 279 0
667 -274 0
-150 0
-112 49 0
-553 911 0
312 -453 0
-887 326 0
-397 0
801 -61 0
-252 0
-431 0
924 -129 0
-320 0
-815 -807 0
-125 -265 0
-791 -713 0
-852 -91 0
978 -294 0
761 -666 0
-58 0
-39 -502 0
-896 195 0
744 -988 0
-864 -598 0
-252 0
-61 0
25 -930 0
-727 -682 0
-707 -178 0
-198 0
24 -385 0
-847 36 0
610 -749 0
-292 350 0
-871 -610 0
-328 0
-880 0
-808 0
-736 -927 0
304 -824 0
-896 0
888 -827 0
-514 0
-795 0
-213 0
-102 0
-691 54 0
-280 0
-32 -756 0
-6 -933 0
-521 0
-965 565 0
-779 -937 0
113 -106 0
-359 0
-76 0
917 -658 0
-164 357 0
-295 245 0
-48 488 0
-60 0
-236 -170 0
-341 -909 0
612 -834 0
545 -174 0
-239 0
-492 0
-124 0
117 -361 0
105 -707 0
-962 0
684 -289 0
-215 231 0
-619 0
288 -631 0
126 -785 0
-440 0
-244 -490 0
-924 0
-200 -171 0
-299 365 0
-110 303 0
-906 0
-735 0
593 -834 0
-204 0
475 -371 0
1 -642 0
-124 0
745 -844 0
-216 -601 0
-887 0
-271 0
-645 637 0
304 -983 0
-358 0
345 -827 0
152 -115 0
328 -806 0
-957 0
-857 0
-104 731 0
-431 -198 0
-182 0
-615 -609 0
313 -361 0
320 -998 0
41 -803 0
-329 0
-43 0
12 -810 0
-997 95 0
-855 -689 0
-502 0
-760 -66 0
923 -204 0
-312 0
-116 743 0
600 -765 0
-301 -602 0
376 -347 0
-775 0
-598 0
-511 0
-701 0
-181 -874 0
-469 -724 0
2 -765 0
-470 636 0
939 -867 0
-143 -940 0
-239 -986 0
-696 -333 0
-600 -255 0
-326 50 0
-91 0
-466 0
-772 21 0
-296 0
70 -905 0
-395 -83 0
-906 0
-320 0
-807 355 0
-147 0
-916 0
-453 0
-754 0
-632 -23 0
-687 -938 0
-650 0
-500 -322 0
-15 351 0
-599 0
-60 581 0
-48 686 0
-16 -468 0
-231 -412 0
-328 0
-272 142 0
-896 0
-158 0
-377 0
-121 0
-778 0
-864 655 0
-952 97 0
-973 0
-537 0
-936 0
-119 -821 0
-563 934 0
626 -437 0
-403 0
-596 765 0
-355 0
-526 31 0
786 -555 0
-721 0
-560 464 0
-704 741 0
499 -76 0
-631 0
-491 870 0
-360 0
-239 179 0
-156 -260 0
-517 -17 0
209 -171 0
-664 0
-326 -533 0
-378 0
28 -97 0
50 -156 0
-518 0
362 -580 0
-423 0
-198 -509 0
-736 863 0
-562 -146 0
-168 931 0
-927 411 0
-235 622 0
-604 -164 0
104 -622 0
-430 131 0
-358 524 0
-248 0
-161 0
-53 798 0
-608 -527 0
-808 0
-967 0
797 -859 0
-664 0
-373 0
-549 0
-213 -82 0
-590 0
-57 0
-380 0
-710 0
-999 -481 0
-710 -762 0
-384 998 0
762 -164 0
-634 0
-164 0
-134 546 0
50 -995 0
-338 -41 0
-326 0
-533 0
-253 0
-299 0
-718 0
-725 53 0
971 -785 0
-22 -230 0
-532 -714 0
-560 450 0
-91 0
-849 0
388 -299 0
73 -877 0
764 -963 0
266 -357 0
-501 -877 0
-854 0
-440 -184 0
-332 0
-855 393 0
-483 0
-111 327 0
-652 -170 0
705 -871 0
-256 0
-13 -226 0
-693 -443 0
-600 0
-196 0
-746 0
-214 781 0
-312 462 0
-222 444 0
-279 115 0
-295 0
179 -297 0
-755 0
-85 0
960 -985 0
-824 147 0
-998 982 0
-233 0
-748 829 0
264 -41 0
-602 0
-561 0
-510 -469 0
-619 0
-600 985 0
-401 -193 0
-401 15 0
-87 398 0
-844 621 0
496 -949 0
-358 0
-511 -129 0
-926 524 0
-911 415 0
-736 883 0
-693 135 0
-534 -365 0
-373 -177 0
-924 0
-374 0
-240 0
-460 271 0
-280 -220 0
-793 0
-545 0
-62 0
281 -92 0
-534 0
-912 0
-712 136 0
-760 0
-21 -116 0
-230 487 0
-199 -548 0
-382 0
-133 172 0
-661 -805 0
-794 927 0
-251 735 0
74 -450 0
242 -186 0
-779 -651 0
-226 0
-857 0
-102 0
-251 815 0
-120 0
392 -817 0
-734 0
707 -689 0
-186 0
-51 0
-603 182 0
-481 0
-776 565 0
-440 -777 0
-559 945 0
-279 0
-645 0
-904 299 0
-33 0
-792 652 0
-348 932 0
-383 0
-204 -611 0
-368 -577 0
-470 0
-303 -631 0
781 -178 0
-662 423 0
-670 117 0
-565 0
-430 438 0
-992 696 0
-501 -212 0
-71 175 0
-994 0
864 -735 0
289 -404 0
-551 652 0
-852 0
325 -763 0
-898 0
-518 583 0
-851 0
-864 471 0
-922 0
-910 565 0
-793 911 0
-981 -602 0
-316 0
458 -126 0
802 -467 0
-219 677 0
-648 -480 0
-600 -730 0
-250 0
-944 0
-357 0
-768 -506 0
714 -394 0
-574 759 0
-53 293 0
-870 -427 0
-160 138 0
-648 126 0
-203 -713 0
-116 0
-739 -427 0
-860 0
-660 695 0
-124 0
-676 -801 0
-606 490 0
40 -874 0
-197 0
-654 0
-48 0
-965 0
-579 166 0
749 -593 0
-426 0
-493 0
-387 0
680 -361 0
-87 0
-559 0
-647 403 0
-252 0
416 -582 0
-184 0
-191 -683 0
-347 -826 0
-623 0
806 -850 0
-726 0
712 -763 0
-760 -414 0
-960 -893 0
702 -962 0
-400 813 0
-972 0
-479 0
-836 0
-253 -905 0
-655 0
720 -395 0
937 -47 0
-394 0
-544 -873 0
-519 359 0
-191 0
-296 0
218 -290 0
-871 -166 0
-310 -849 0
-869 261 0
212 -649 0
779 -129 0
-309 -393 0
-906 0
-622 0
-236 0
-318 -354 0
-64 0
-205 0
-537 439 0
-898 0
522 -905 0
-951 -370 0
-506 0
105 -666 0
-355 -882 0
-193 0
-88 433 0
-712 -9 0
-564 -313 0
-185 935 0
-814 0
-421 -587 0
-964 0
-667 -179 0
-907 0
-699 191 0
-134 0
-406 0
-520 -494 0
-762 782 0
49 -163 0
-835 0
-928 0
-196 0
-229 -657 0
262 -753 0
-506 0
-675 0
-493 -804 0
-470 0
-712 977 0
874 -589 0
-846 0
-388 0
1 -342 0
-894 628 0
-654 -548 0
-944 123 0
593 -692 0
-247 -891 0
38 -689 0
856 -459 0
232 -516 0
-278 143 0
-106 0
-748 -883 0
-560 0
-881 0
-768 0
-207 -642 0
220 -411 0
-293 0
-416 290 0
673 -473 0
-250 0
-906 0
-515 87 0
-223 0
-804 0
-140 837 0
-229 0
-755 0
-414 31 0
-408 0
-560 0
-281 0
-632 238 0
-935 751 0
-975 575 0
305 -657 0
-469 142 0
588 -858 0
-362 751 0
-117 -658 0
-789 0
-235 -219 0
-861 0
-204 0
-296 902 0
-968 0
-488 0
-969 0
381 -897 0
-335 -625 0
-911 899 0
355 -587 0
-951 325 0
-17 0
401 -829 0
598 -169 0
860 -337 0
-599 -76 0
-237 0
-871 0
-768 -302 0
-516 -418 0
-551 355 0
227 -569 0
-734 -621 0
-997 0
-729 0
-438 167 0
954 -721 0
-117 0
-446 990 0
-328 746 0
-538 0
-326 101 0
-423 -79 0
144 -786 0
-749 270 0
-211 61 0
-408 0
-247 -701 0
113 -684 0
-91 0
-48 -508 0
-955 0
-545 0
-85 527 0
-903 -939 0
-44 0
-782 0
-724 223 0
-708 0
-445 0
-89 0
-331 415 0
-184 673 0
-315 0
-759 -812 0
-554 0
-321 0
986 -180 0
-763 0
77 -826 0
737 -315 0
-927 -478 0
-121 0
982 -713 0
-881 0
-204 -18 0
-916 596 0
-32 -892 0
886 -82 0
-367 -998 0
-802 0
371 -683 0
245 -995 0
-238 -292 0
-48 642 0
-450 0
242 -228 0
-303 -244 0
-839 0
-278 0
984 -162 0
-85 0
-864 0
-629 0
-44 -162 0
-28 0
-266 0
-255 0
-895 -467 0
876 -794 0
-968 -756 0
-452 0
-827 0
-293 797 0
-996 0
-37 0
-756 95 0
-845 0
-245 0
192 -556 0
20 -467 0
-182 0
57 -718 0
-394 0
-159 -516 0
-32 0
-566 199 0
-16 0
-695 262 0
920 -431 0
752 -892 0
-651 -866 0
-516 0
-536 -441 0
-773 -331 0
-431 -502 0
-812 -521 0
32 -787 0
-187 0
-213 0
-999 -676 0
-305 0
-935 0
22 -273 0
-484 -947 0
-511 0
-872 0
-835 0
331 -35 0
-240 -449 0
-748 -403 0
-631 -251 0
683 -36 0
-431 -721 0
-701 0
-470 618 0
-342 -818 0
-616 0
-472 556 0
-646 0
493 -539 0
-895 0
931 -433 0
-53 44 0
576 -722 0
-830 0
-176 295 0
61 -265 0
-440 0
-58 118 0
866 -411 0
-511 0
920 -719 0
-362 0
-378 278 0
-424 -272 0
-651 -753 0
-794 0
-426 0
-979 0
940 -50 0
-264 0
76 -481 0
-806 511 0
-69 -426 0
-590 0
-459 0
-316 0
-165 0
-821 140 0
-126 0
-751 531 0
400 -565 0
-614 0
-210 0
328 -164 0
-670 -179 0
-364 -994 0
-761 0
-520 0
-259 0
-517 0
-400 95 0
-659 -59 0
-304 931 0
-441 0
-864 309 0
-252 0
-92 0
-457 0
-96 627 0
-10 0
-585 0
-99 0
-583 613 0
-436 0
-40 0
-700 0
-186 0
-596 511 0
-630 -949 0
-51 0
-464 0
536 -589 0
634 -701 0
-223 0
-353 0
-824 677 0
-419 0
353 -314 0
-668 -609 0
-964 -18 0
713 -334 0
-580 -626 0
592 -510 0
-822 0
-952 0
-833 0
-385 0
-172 0
344 -821 0
-309 0
323 -529 0
-493 0
-871 158 0
-580 -779 0
-829 0
-172 367 0
-583 0
-358 0
-842 231 0
-390 0
-233 0
829 -595 0
-824 -962 0
-253 0
795 -338 0
-474 -385 0
-224 -285 0
-620 0
-623 -317 0
442 -809 0
821 -553 0
-371 0
-576 0
-725 53 0
-747 0
-56 0
-62 278 0
-767 0
-360 519 0
-454 0
-865 0
-180 0
-872 -896 0
-527 140 0
578 -353 0
832 -900 0
-560 269 0
-719 -313 0
978 -957 0
-793 -161 0
-321 0
-322 486 0
74 -460 0
728 -973 0
-693 0
-880 -730 0
-764 -410 0
-290 0
-933 132 0
898 -333 0
-564 261 0
-913 0
-204 -172 0
-743 0
-124 0
240 -307 0
-278 0
-333 -261 0
-430 0
-76 725 0
-801 0
-284 0
-701 0
-240 -338 0
64 -698 0
-898 -18 0
-221 0
-506 0
-795 -449 0
-652 0
-782 -172 0
-115 0
395 -212 0
-686 -965 0
667 -410 0
-5 0
-857 0
604 -708 0
-430 0
-690 0
-895 294 0
-311 -433 0
-707 -418 0
-957 788 0
-50 0
-621 0
-148 -913 0
72 -865 0
-544 0
-383 0
-947 0
-271 0
-10 0
-979 0
-868 876 0
-327 0
97 -633 0
-398 0
-147 0
581 -898 0
-504 516 0
-789 276 0
-772 429 0
-288 -963 0
-819 0
-971 0
121 -519 0
-69 -716 0
-604 52 0
8 -788 0
-111 -779 0
-581 -835 0
-53 0
109 -545 0
-719 -116 0
-832 -791 0
265 -506 0
-935 66 0
569 -403 0
571 -835 0
-351 0
-591 0
-806 0
-817 0
-752 463 0
-248 0
-238 494 0
-583 0
301 -481 0
74 -652 0
-438 718 0
-929 0
-918 725 0
-388 0
-871 -307 0
-312 0
-949 0
-816 -107 0
-659 0
-880 -590 0
-390 863 0
600 -498 0
169 -84 0
-231 -489 0
-738 0
810 -59 0
-719 0
-822 0
-775 794 0
-189 -697 0
-181 247 0
-159 241 0
-197 0
-872 905 0
988 -281 0
-559 0
803 -905 0
-877 -98 0
-294 -446 0
-887 251 0
211 -771 0
201 -938 0
-567 302 0
-501 0
-712 0
-627 -393 0
161 -90 0
885 -145 0
-72 0
-391 -942 0
-174 0
-328 -979 0
-583 -50 0
-937 0
492 -833 0
-144 606 0
-515 0
-953 -25 0
-616 175 0
-983 990 0
-592 624 0
-259 0
-271 0
-519 452 0
-767 -92 0
-380 -554 0
112 -5 0
-33 0
115 -780 0
-121 0
-407 -231 0
-283 0
-543 0
-124 0
-575 0
556 -26 0
-191 -963 0
-236 -858 0
403 -780 0
-216 -138 0
-20 21 0
-645 -809 0
-436 0
-147 0
-289 0
-477 0
434 -876 0
-728 927 0
-707 0
-269 125 0
425 -919 0
-604 0
544 -123 0
832 -274 0
-731 -138 0
-981 348 0
-140 0
-591 0
-646 0
-527 0
93 -586 0
-227 0
-867 0
-966 -801 0
-8 190 0
-420 0
707 -795 0
388 -729 0
-976 0
-994 0
-255 268 0
-282 0
-874 0
-460 -298 0
-742 -402 0
-435 77 0
-306 0
489 -228 0
-296 0
-245 0
896 -431 0
-442 0
-322 0
-878 0
-641 0
-395 -906 0
664 -857 0
816 -318 0
-591 0
-39 0
-197 0
361 -909 0
-566 -389 0
-888 0
-13 0
-160 123 0
-387 959 0
442 -115 0
-323 -721 0
800 -500 0
-836 0
-895 0
-351 0
-276 0
-823 0
-399 -610 0
-547 694 0
-182 0
-32 345 0
-912 -500 0
-352 151 0
-491 0
-631 655 0
-603 0
-236 0
-679 0
-380 -651 0
-219 0
-203 0
-582 -541 0
666 -826 0
-210 0
408 -762 0
-9 0
888 -874 0
-528 0
637 -451 0
-658 0
-829 127 0
-448 475 0
-871 -330 0
-672 25 0
-324 0
-45 -394 0
-26 31 0
-559 0
-940 -732 0
-728 -799 0
666 -358 0
-899 0
-531 -641 0
-880 613 0
-955 0
435 -523 0
936 -83 0
-846 0
-888 685 0
-992 0
-441 0
-764 702 0
-896 0
-743 61 0
-918 0
-376 -278 0
-512 0
187 -761 0
-242 0
-744 254 0
-281 0
-746 7 0
-570 0
-791 335 0
-128 424 0
-597 589 0
-780 -865 0
-48 0
427 -361 0
-903 0
-143 0
632 -801 0
-382 -225 0
-481 0
97 -620 0
-394 0
684 -281 0
-568 0
-27 0
-791 -437 0
-864 0
9 -365 0
-772 -721 0
-967 -253 0
354 -203 0
138 -693 0
242 -973 0
779 -314 0
-754 542 0
-680 0
-614 602 0
540 -361 0
-742 0
-301 0
104 -201 0
-41 0
280 -275 0
800 -246 0
-319 -634 0
-253 5 0
-780 0
40 -756 0
-112 0
482 -129 0
-700 646 0
-964 0
-868 0
-622 211 0
741 -475 0
-326 -715 0
-120 0
-356 639 0
-203 0
-671 -355 0
-316 0
-525 0
-675 0
561 -70 0
-242 0
-746 0
-544 0
646 -513 0
-757 -140 0
-744 -792 0
-996 -323 0
-160 992 0
-187 0
-36 0
-172 0
-767 0
-479 0
-67 0
665 -627 0
-929 0
-621 557 0
160 -405 0
-462 0
-122 0
-451 910 0
-154 0
-199 0
-829 501 0
-502 0
-594 702 0
-567 0
937 -509 0
-277 20 0
673 -868 0
-930 -465 0
-503 0
-405 0
-662 268 0
-757 806 0
-571 0
611 -228 0
213 -978 0
-752 -909 0
-473 0
-616 -399 0
-137 0
401 -833 0
-675 0
-347 0
-568 908 0
491 -484 0
49 -343 0
-264 0
-204 -690 0
-536 644 0
-565 -121 0
-876 0
-360 -817 0
344 -324 0
-732 0
418 -921 0
-671 347 0
-225 0
-338 351 0
-240 717 0
980 -131 0
83 -833 0
-856 0
-632 -585 0
-171 0
-553 0
-365 775 0
-784 0
-471 0
-341 435 0
-47 -327 0
-554 0
-556 0
-181 0
-909 -995 0
-306 0
-437 0
504 -683 0
-478 -605 0
-71 346 0
-331 0
324 -297 0
-64 245 0
-862 0
-544 662 0
-38 498 0
-948 0
-128 -48 0
-669 0
-440 1 0
-588 0
-175 -782 0
-239 0
339 -995 0
-112 0
-337 0
-920 37 0
-699 -514 0
-163 0
888 -158 0
-365 0
251 -90 0
-63 0
732 -857 0
-208 0
-694 981 0
-170 0
-633 0
-184 -937 0
-520 899 0
-869 0
-262 0
593 -836 0
603 -204 0
-719 0
-106 0
169 -716 0
-606 -841 0
-10 -457 0
-532 -810 0
-184 316 0
-809 383 0
769 -172 0
361 -948 0
377 -727 0
-713 983 0
-348 0
-511 -251 0
-173 590 0
-713 0
-808 0
649 -971 0
-734 -987 0
-97 0
282 -987 0
-390 -92 0
-864 0
-107 0
862 -737 0
-814 -555 0
-360 37 0
680 -778 0
-917 254 0
-439 -684 0
-462 -868 0
-811 0
-279 0
-868 0
-890 0
-317 0
-841 0
-488 0
-508 0
-440 0
-678 10 0
-726 0
-842 0
-39 0
-993 0
683 -987 0
-535 -507 0
-582 439 0
-615 0
-357 0
-761 0
-82 0
-845 0
-72 0
288 -995 0
-203 0
-856 853 0
252 -817 0
315 -465 0
597 -842 0
464 -278 0
-731 127 0
-986 -529 0
-491 54 0
-719 0
-132 0
-671 0
-454 0
-655 0
539 -713 0
202 -948 0
606 -801 0
-478 -812 0
-296 282 0
-835 0
-432 0
721 -36 0
441 -906 0
170 -227 0
-939 61 0
-790 893 0
-859 0
-920 -905 0
-334 0
-704 -489 0
-757 0
-598 278 0
-568 649 0
-556 0
-922 0
-351 -489 0
640 -613 0
-272 0
616 -89 0
265 -121 0
-59 0
-575 780 0
368 -484 0
-6 0
-772 -651 0
-917 0
-5 -562 0
-814 0
-963 -929 0
-104 -461 0
-570 0
-615 0
-332 855 0
-577 0
-368 312 0
-528 0
-590 204 0
-807 0
429 -186 0
-828 0
-536 0
451 -273 0
-341 0
-574 0
-558 213 0
-845 -947 0
-75 0
-534 0
916 -642 0
-619 -89 0
-10 0
-853 0
-601 0
-840 -876 0
-670 -53 0
17 -775 0
-617 0
-205 0
-238 111 0
185 -533 0
-966 702 0
-120 -888 0
270 -929 0
-522 0
962 -121 0
-525 0
-456 0
985 -844 0
-904 -588 0
-886 -373 0
-499 0
-607 807 0
-30 0
-789 941 0
-815 0
-854 0
849 -331 0
-181 0
-240 0
-548 -250 0
-855 -19 0
-760 -728 0
762 -849 0
-318 -971 0
-349 -346 0
-489 0
-147 0
-343 493 0
657 -10 0
-179 -569 0
-418 6 0
-784 815 0
-887 410 0
-926 999 0
-859 -641 0
-941 -164 0
-856 0
-857 0
-326 0
-699 0
-477 -641 0
-761 0
105 -165 0
-869 -827 0
-936 396 0
-158 -3 0
-578 0
-418 0
-332 0
628 -849 0
-319 -489 0
520 -31 0
-189 0
-662 -946 0
-772 295 0
-698 -201 0
-155 0
-424 -55 0
-493 0
-611 0
-668 -827 0
-220 -722 0
290 -549 0
-317 0
820 -20 0
112 -925 0
-934 -261 0
-863 0
-79 0
-763 0
-409 0
-213 535 0
2 -130 0
-745 0
-573 -691 0
-788 -595 0
230 -409 0
744 -174 0
946 -907 0
-496 -880 0
-187 0
321 -690 0
-552 558 0
-281 0
-10 799 0
417 -153 0
-758 191 0
-327 0
-708 0
-682 0
-574 0
-799 0
-918 127 0
624 -83 0
244 -643 0
-600 -66 0
-352 -549 0
-381 0
-523 687 0
-69 116 0
386 -201 0
146 -246 0
682 -646 0
-624 0
-160 418 0
-225 0
-368 876 0
-13 0
-76 0
-323 0
-583 0
-281 0
-715 0
-894 -765 0
-344 0
-517 -939 0
-211 0
-172 0
-312 176 0
-245 -61 0
-296 0
206 -778 0
-402 0
-184 0
-123 375 0
-899 -18 0
-708 -498 0
-48 -63 0
-297 0
-502 0
576 -718 0
-528 -645 0
-932 -546 0
-660 0
590 -34 0
-348 20 0
-614 868 0
291 -401 0
-720 852 0
-670 0
-743 988 0
-923 0
-134 0
-357 0
-297 0
-414 0
-76 0
-483 869 0
-577 0
-3 967 0
-712 0
-75 0
-362 0
-106 0
-488 0
-504 0
-495 0
172 -796 0
-51 0
-570 0
-155 0
-221 -133 0
-20 0
-196 0
-603 0
-231 0
-134 -492 0
-926 -737 0
-3 0
-404 14 0
-846 0
-259 0
-782 0
-350 0
-937 0
-564 0
472 -481 0
-914 0
-576 0
-662 0
-294 255 0
360 -774 0
456 -390 0
-967 591 0
-564 87 0
-887 179 0
-247 -756 0
-461 -818 0
-356 0
514 -306 0
-997 0
-55 0
-306 0
-927 0
-494 394 0
-72 0
-389 0
-866 751 0
-941 -428 0
-967 0
-916 0
-412 638 0
-772 815 0
-928 0
-86 671 0
282 -293 0
398 -281 0
689 -657 0
-57 0
300 -947 0
-836 797 0
72 -892 0
-101 0
702 -497 0
106 -354 0
204 -545 0
841 -466 0
-445 -675 0
-219 0
756 -409 0
-743 -748 0
233 -714 0
-932 0
44 -881 0
-739 0
-210 79 0
-632 452 0
664 -240 0
-831 0
456 -630 0
827 -178 0
-306 0
944 -538 0
-906 0
-785 -305 0
-581 0
-521 0
-174 0
-549 853 0
-337 0
-596 -235 0
178 -37 0
675 -634 0
472 -649 0
-154 0
-431 0
420 -579 0
639 -57 0
-957 -620 0
-28 0
-844 -970 0
994 -570 0
-559 0
-262 -898 0
-40 629 0
-728 0
185 -830 0
-786 0
-279 846 0
-77 0
-308 0
288 -112 0
20 -602 0
-220 0
-324 0
-984 -65 0
-341 0
-946 -786 0
-508 -570 0
-714 -609 0
-24 0
-143 -611 0
-502 598 0
-478 0
-249 0
372 -516 0
-389 0
-623 701 0
-560 809 0
-450 0
-585 0
-865 0
-853 0
60 -667 0
369 -35 0
-46 141 0
-325 -962 0
-911 -415 0
989 -265 0
-859 0
-70 0
-624 -350 0
-983 0
-122 0
-277 0
-808 732 0
-278 655 0
-412 0
-727 0
-871 -4 0
-546 0
-883 0
-239 221 0
-30 -412 0
-162 0
772 -834 0
752 -238 0
-907 693 0
-378 0
-815 508 0
-382 0
-742 44 0
-515 0
-129 0
122 -241 0
-815 -396 0
492 -539 0
633 -380 0
-301 252 0
148 -585 0
-972 -698 0
-855 0
-992 0
-402 -57 0
-528 29 0
-83 726 0
-984 0
-692 38 0
-942 574 0
-558 -877 0
-32 -954 0
612 -852 0
922 -790 0
-929 0
-617 0
-212 0
-288 -20 0
966 -937 0
806 -385 0
-493 0
-776 254 0
-238 902 0
-880 -804 0
843 -868 0
-336 -876 0
-940 791 0
425 -940 0
-280 0
-354 646 0
-374 -437 0
628 -81 0
-810 0
-780 0
-903 0
-88 0
348 -297 0
-14 0
-182 -746 0
-518 -588 0
-10 0
-69 0
-37 -706 0
-637 -75 0
-768 0
-603 0
-30 0
316 -66 0
-91 662 0
-696 0
94 -770 0
-206 -877 0
-519 946 0
-431 99 0
-174 0
-643 -67 0
-653 -785 0
-946 0
525 -233 0
-809 0
-452 0
-218 0
-714 -345 0
-431 -516 0
-328 541 0
-616 -380 0
-392 0
-728 -933 0
506 -212 0
-990 0
-269 0
-341 -506 0
280 -897 0
-709 447 0
-126 -387 0
-176 -130 0
-132 -323 0
9 -586 0
-592 0
196 -355 0
-71 0
-693 0
-131 0
-628 0
-69 -587 0
-671 974 0
-929 0
-298 -601 0
-131 0
-870 0
-799 -26 0
936 -345 0
-376 0
-192 -548 0
-131 0
-693 0
-868 0
778 -795 0
-750 0
-961 0
182 -137 0
-710 -348 0
-800 0
-735 943 0
-635 30 0
-885 790 0
-786 0
-904 577 0
-260 0
795 -97 0
-749 -130 0
-40 3 0
-80 372 0
-280 -615 0
588 -474 0
-134 -306 0
-736 -577 0
-506 0
-886 -773 0
-898 359 0
-845 0
-264 0
-888 0
-875 0
-87 158 0
-907 0
-21 0
-110 102 0
-871 0
-309 687 0
-928 23 0
884 -219 0
-99 0
-448 -71 0
-351 -601 0
-718 -316 0
-456 -403 0
-482 679 0
867 -322 0
349 -777 0
490 -133 0
-432 0
226 -428 0
-668 0
-279 303 0
-583 -212 0
-435 222 0
-64 0
-42 686 0
504 -989 0
-493 0
-512 271 0
-248 -608 0
549 -474 0
-414 -492 0
-35 343 0
-345 0
-453 293 0
181 -210 0
-639 -290 0
642 -477 0
-323 -666 0
457 -390 0
209 -492 0
-424 996 0
882 -6 0
-976 0
-942 0
-590 124 0
-432 895 0
-681 0
-479 470 0
699 -365 0
-299 -649 0
-537 0
-659 -851 0
-510 0
-546 0
-198 134 0
-910 0
-614 0
-362 -497 0
-275 0
32 -933 0
-4 0
54 -986 0
-21 0
802 -201 0
404 -99 0
161 -738 0
-687 770 0
932 -204 0
-967 835 0
-863 -374 0
-502 583 0
-965 686 0
-279 -931 0
-471 -396 0
65 -910 0
-237 -379 0
-87 0
193 -163 0
-32 0
601 -860 0
-723 118 0
-884 0
202 -465 0
49 -906 0
794 -754 0
228 -785 0
-332 0
-124 0
-710 292 0
-959 -55 0
-889 0
803 -308 0
-772 -947 0
969 -151 0
-751 879 0
-113 0
-256 -18 0
-535 -361 0
-831 0
-291 0
-631 0
-764 0
889 -59 0
-57 0
-620 127 0
-798 -146 0
-653 854 0
-407 594 0
-40 301 0
480 -650 0
-623 569 0
-280 281 0
-276 439 0
-374 622 0
-265 0
-183 -946 0
-180 0
-333 0
249 -748 0
-246 -437 0
-909 398 0
-869 236 0
109 -713 0
-831 0
-678 878 0
-24 -713 0
912 -644 0
-686 -818 0
985 -172 0
-853 0
-576 0
-342 0
-510 0
936 -791 0
-318 -275 0
856 -754 0
-523 0
-311 0
849 -33 0
-161 0
-999 -773 0
-983 876 0
-909 0
-353 0
-994 0
-353 0
-557 0
283 -116 0
-207 0
-135 -449 0
937 -257 0
-649 0
-136 0
-947 0
728 -399 0
-286 0
-79 0
234 -637 0
650 -836 0
-511 723 0
115 -621 0
-884 0
-311 511 0
-816 -357 0
-877 0
-286 0
868 -243 0
-148 0
803 -531 0
-508 0
-360 -441 0
57 -306 0
-18 0
898 -957 0
-805 0
433 -858 0
-664 -981 0
-72 0
-922 0
-32 0
-568 -965 0
-558 371 0
-768 68 0
-502 -270 0
379 -857 0
-878 943 0
-335 -482 0
-696 0
-882 0
-944 -121 0
-624 0
-95 -828 0
-643 -385 0
-166 375 0
489 -205 0
-25 0
-263 0
978 -859 0
-888 779 0
-820 0
-293 0
-794 -121 0
-866 0
688 -977 0
-146 0
-816 482 0
418 -258 0
-198 0
-668 0
-716 981 0
432 -436 0
-240 552 0
-174 -713 0
112 -330 0
416 -676 0
-405 -53 0
-677 0
-988 927 0
-351 -647 0
-351 0
-63 -246 0
-412 0
-573 0
769 -612 0
384 -568 0
-352 205 0
-903 269 0
633 -941 0
-984 0
470 -506 0
-768 42 0
-454 0
-388 -148 0
-347 -81 0
537 -45 0
441 -109 0
-176 -34 0
-653 -444 0
-365 -394 0
-376 310 0
-259 -323 0
418 -922 0
-565 0
-300 717 0
-887 914 0
-704 0
-847 0
-178 0
-178 0
-759 -509 0
357 -243 0
-668 -571 0
-967 -537 0
-99 -937 0
-152 0
-397 651 0
-919 186 0
-845 0
-202 -249 0
-437 -290 0
770 -275 0
-381 -113 0
-688 0
933 -34 0
315 -153 0
-62 -257 0
-439 -543 0
193 -606 0
698 -905 0
-391 0
-796 0
-418 -978 0
907 -748 0
-719 -67 0
-784 -591 0
842 -299 0
-453 0
-338 0
-463 -925 0
-401 0
-422 -836 0
-752 0
305 -842 0
-211 0
-681 0
-866 647 0
-39 0
-515 0
-203 389 0
835 -81 0
-663 0
-686 0
-651 -979 0
331 -501 0
-316 141 0
-72 0
-4 -873 0
-519 569 0
-341 -978 0
-618 0
-461 611 0
-170 0
-552 130 0
-491 -161 0
-992 0
-584 -75 0
-525 -196 0
-465 -753 0
107 -482 0
-977 0
-884 -212 0
-767 791 0
-384 299 0
273 -811 0
-228 0
-687 317 0
-128 0
-87 -62 0
-229 0
-215 0
-389 0
-810 167 0
-236 0
-425 0
-339 0
-608 166 0
-793 0
-423 974 0
-233 0
-375 -286 0
-61 0
899 -673 0
827 -987 0
-851 0
105 -677 0
-410 0
-318 676 0
-230 -281 0
-564 -250 0
-761 0
298 -66 0
-152 -103 0
-416 -505 0
-748 0
-876 965 0
-322 0
-879 0
-469 0
524 -395 0
773 -851 0
-732 0
-535 695 0
-909 931 0
-141 0
-456 886 0
-472 620 0
714 -586 0
-438 892 0
-615 -902 0
-799 0
-212 0
-443 0
-495 0
-240 408 0
-814 0
417 -458 0
193 -742 0
521 -98 0
-878 965 0
218 -939 0
-722 0
-933 221 0
-116 0
-446 -13 0
-87 826 0
-456 0
-88 0
9 -850 0
-696 -377 0
-720 578 0
-584 0
432 -531 0
-320 0
-727 0
-991 0
765 -579 0
-764 0
-418 0
-90 0
-652 0
-432 -723 0
-71 324 0
-8 -840 0
-822 228 0
-536 -291 0
-697 0
-368 0
-71 -68 0
539 -458 0
-111 -627 0
-861 0
-240 0
-184 0
-308 805 0
400 -170 0
-52 0
-294 0
112 -876 0
-680 372 0
81 -652 0
-155 366 0
344 -493 0
319 -49 0
-352 0
-670 -916 0
-746 0
253 -482 0
-279 255 0
-231 0
-121 0
397 -530 0
-546 591 0
-39 0
-987 0
961 -646 0
-128 0
-791 -254 0
-423 932 0
219 -425 0
-675 286 0
849 -721 0
-874 0
-272 -435 0
-66 527 0
-242 0
-859 0
-16 197 0
-151 -269 0
-169 0
-69 0
-344 275 0
-381 -139 0
-775 0
-80 0
-199 0
-694 269 0
-895 0
-949 -740 0
-472 0
-154 -498 0
918 -778 0
281 -693 0
-396 0
28 -587 0
796 -724 0
-504 -678 0
-878 -867 0
-743 -101 0
-752 912 0
-271 -323 0
-928 842 0
-352 -844 0
-736 834 0
-660 390 0
-787 903 0
-456 -988 0
-962 0
-226 0
-449 0
-40 -601 0
-993 0
-754 0
-339 782 0
-798 0
552 -978 0
278 -105 0
-19 0
-479 -498 0
-299 0
-616 -446 0
-190 0
736 -570 0
-387 0
-561 0
-999 343 0
-868 0
-811 0
-16 0
-279 0
-243 661 0
-999 -403 0
-903 -898 0
637 -377 0
-154 0
-100 677 0
-655 287 0
-809 0
-723 0
-336 -765 0
-88 151 0
-109 0
-31 0
-122 0
-733 0
691 -354 0
-429 0
-47 668 0
-550 237 0
-526 -117 0
182 -266 0
-40 16 0
-571 -810 0
-369 0
-968 0
728 -612 0
474 -210 0
444 -418 0
-245 595 0
-957 -698 0
-935 -10 0
-314 0
400 -9 0
-375 535 0
-227 0
-8 0
-823 0
41 -421 0
-217 0
-117 0
-750 964 0
-225 -265 0
-697 0
-256 111 0
-992 0
393 -886 0
232 -745 0
-903 0
-283 0
-147 0
59 -945 0
-581 -739 0
-571 0
-929 0
-420 -443 0
-355 917 0
-731 0
-534 -181 0
-792 0
-982 -917 0
-854 0
-551 -812 0
-804 -282 0
-231 346 0
-118 0
825 -116 0
-568 0
-319 -869 0
-365 0
-110 870 0
-301 0
786 -98 0
-882 -977 0
-384 0
-65 0
-516 0
-728 0
-618 -345 0
-887 -458 0
-574 382 0
-358 -889 0
650 -52 0
-771 0
-317 613 0
-934 -977 0
504 -859 0
960 -442 0
-447 -101 0
-406 0
-459 0
-135 0
-674 -353 0
129 -989 0
-16 463 0
-320 372 0
-351 653 0
555 -627 0
362 -845 0
-59 0
-104 0
-960 -952 0
-794 0
-758 -678 0
-213 77 0
-38 0
-307 0
643 -252 0
-519 622 0
-361 0
-317 0
832 -90 0
36 -738 0
-16 -4 0
752 -720 0
-910 0
-122 0
-47 0
-260 0
-986 0
-495 0
-966 0
-53 430 0
-687 772 0
588 -354 0
-516 -642 0
90 -788 0
-214 755 0
-592 -71 0
-574 -969 0
706 -572 0
-718 123 0
-82 0
557 -529 0
-794 -257 0
178 -42 0
-567 206 0
962 -726 0
-977 0
-770 0
1 -541 0
-623 0
-343 579 0
-749 0
-784 -972 0
-701 813 0
-923 0
979 -140 0
-870 -36 0
-536 99 0
-694 566 0
-22 -963 0
-229 0
-870 0
-826 0
-485 476 0
-127 0
-335 0
-872 944 0
-682 0
536 -577 0
-496 0
-161 0
-939 0
-180 278 0
-218 0
-855 0
-372 -691 0
210 -906 0
-811 0
-28 0
-870 0
-106 0
-52 766 0
-663 0
-205 -252 0
-890 0
-9 0
-441 0
-489 0
-623 0
-184 -459 0
-915 -290 0
-383 0
-773 0
-567 -117 0
-63 0
-511 -617 0
-756 0
-997 0
997 -730 0
-596 0
608 -6 0
-635 998 0
-197 -115 0
-127 0
-392 818 0
-513 0
-952 935 0
-896 -491 0
-711 246 0
349 -178 0
-751 0
-431 -807 0
-735 -689 0
-952 -431 0
-484 36 0
-939 0
219 -729 0
442 -731 0
-893 228 0
-846 565 0
-68 0
667 -595 0
-310 0
67 -541 0
64 -73 0
-406 -827 0
-691 0
800 -617 0
596 -673 0
601 -337 0
488 -553 0
-15 -59 0
-807 -819 0
872 -542 0
-468 0
-766 0
-637 0
606 -210 0
-829 508 0
-386 0
-512 -515 0
-221 0
-392 563 0
-552 0
-749 0
-775 0
-219 -361 0
-644 0
-620 0
-677 0
-692 236 0
-969 0
169 -890 0
-990 964 0
-875 -745 0
-326 0
117 -889 0
624 -206 0
-238 0
-830 66 0
-618 -762 0
-495 0
-354 0
-738 -657 0
988 -818 0
976 -617 0
790 -369 0
-390 -692 0
434 -521 0
2 -771 0
112 -837 0
-924 0
-141 0
-558 0
313 -651 0
-517 302 0
-48 214 0
-786 0
-241 0
-224 -522 0
628 -179 0
-541 0
-590 -964 0
178 -981 0
-873 39 0
560 -884 0
-56 479 0
-739 -450 0
-804 598 0
-573 197 0
-637 0
-560 760 0
-703 -234 0
-198 0
-421 0
-408 -146 0
529 -142 0
-141 0
-292 6 0
-171 -603 0
-386 0
-306 -914 0
-886 -763 0
-43 0
-742 644 0
-99 0
73 -374 0
-88 119 0
-302 0
-290 0
-90 0
-791 547 0
-886 46 0
-411 -363 0
27 -956 0
-620 0
545 -276 0
-511 -45 0
-379 0
856 -787 0
-354 0
-932 207 0
-747 342 0
-256 -384 0
-571 918 0
-823 862 0
-74 0
-326 439 0
-528 399 0
-876 -699 0
-38 0
-640 0
-310 0
-511 -267 0
-340 0
-759 215 0
-339 0
-920 -620 0
-232 -295 0
-880 271 0
-424 85 0
-696 -926 0
-100 -545 0
-646 925 0
705 -513 0
-741 -18 0
-73 0
98 -402 0
-527 0
-760 152 0
-640 139 0
-9 0
-192 -165 0
219 -515 0
632 -855 0
164 -345 0
-785 0
-823 0
-720 0
-58 -25 0
-159 -15 0
-902 0
-2 0
-17 0
-526 -569 0
-217 0
651 -12 0
-5 0
-248 0
-390 543 0
-930 0
-974 -916 0
-904 536 0
-696 856 0
-402 0
-895 0
-454 0
-437 -442 0
-614 308 0
-693 611 0
644 -697 0
-528 303 0
-72 0
-710 -867 0
-350 0
-891 0
-335 0
-631 438 0
72 -53 0
-437 0
-462 0
-568 -900 0
-636 0
-656 926 0
-992 172 0
680 -567 0
211 -466 0
409 -298 0
-663 0
-592 -344 0
-752 0
816 -83 0
417 -876 0
-83 0
-935 -363 0
-940 0
-176 858 0
-183 613 0
-335 -5 0
-638 974 0
132 -338 0
-913 0
-247 47 0
-986 0
-397 0
-982 0
-54 0
-710 287 0
-957 987 0
-52 0
-738 0
-598 251 0
-731 -930 0
-587 495 0
530 -906 0
-971 -921 0
-288 695 0
490 -250 0
-511 -54 0
-740 815 0
-483 -795 0
-248 -539 0
-989 0
-192 0
-399 -629 0
-749 0
-363 311 0
-256 0
-951 0
266 -813 0
-720 0
-580 828 0
-898 647 0
89 -818 0
-624 284 0
-39 626 0
-616 0
-581 957 0
-990 -998 0
-583 0
-523 0
505 -188 0
-359 -523 0
-220 0
-38 0
-55 0
794 -797 0
-406 0
-879 -981 0
-427 0
-924 694 0
605 -409 0
-687 -606 0
-519 -529 0
-931 0
-538 0
194 -196 0
-70 0
401 -939 0
452 -827 0
925 -73 0
-935 858 0
-187 0
-278 -123 0
712 -308 0
160 -658 0
-413 0
-693 0
553 -897 0
160 -657 0
-452 701 0
-4 0
-550 0
-582 0
74 -91 0
-505 0
-120 0
497 -909 0
-239 0
500 -691 0
-825 0
-784 0
-915 0
2 -708 0
945 -484 0
-610 295 0
-388 270 0
-186 -473 0
-680 -690 0
-102 0
-261 0
-599 0
986 -694 0
518 -985 0
-981 996 0
-118 0
611 -594 0
-448 0
-951 0
-342 -898 0
-243 358 0
-417 0
-702 0
-2 0
-811 -66 0
443 -845 0
409 -773 0
-895 811 0
-539 -233 0
-176 -262 0
-802 0
-742 0
-706 0
-574 739 0
-422 0
866 -380 0
500 -34 0
-494 0
424 -818 0
-654 47 0
744 -247 0
-87 0
144 -643 0
-272 458 0
792 -931 0
-190 -593 0
-398 0
-77 0
-687 0
-749 0
-983 0
-48 474 0
-507 0
-181 0
-877 0
-235 0
408 -75 0
-702 0
545 -338 0
-962 0
-990 0
673 -522 0
234 -382 0
587 -492 0
337 -289 0
-361 0
-888 360 0
-965 -907 0
-859 230 0
-852 -586 0
275 -954 0
-191 105 0
-885 0
-567 0
834 -100 0
-269 77 0
-872 -331 0
-755 -507 0
-354 271 0
-328 0
-55 279 0
-637 435 0
-512 826 0
386 -2 0
-510 -266 0
430 -473 0
-548 694 0
-47 506 0
675 -57 0
-966 261 0
-519 0
-383 -473 0
-806 6 0
16 -819 0
-26 655 0
-191 782 0
-218 -745 0
-235 0
631 -457 0
-336 0
-869 -762 0
-499 582 0
-385 0
-277 367 0
-376 307 0
-308 0
-582 692 0
-1000 0
-765 0
-440 -36 0
746 -389 0
-572 237 0
-996 0
-773 284 0
-992 867 0
-93 0
-138 0
-498 0
464 -494 0
-381 -330 0
-510 -673 0
-536 -309 0
-366 695 0
-663 0
-30 0
-830 0
738 -865 0
-146 0
-254 0
-834 0
891 -781 0
-904 -574 0
-328 673 0
-512 -816 0
-815 -25 0
-689 0
-141 0
-852 0
-416 0
521 -70 0
-416 686 0
-590 0
-760 0
-883 607 0
-948 0
-381 0
-788 -681 0
-510 266 0
384 -837 0
-400 137 0
-660 -722 0
-525 0
-480 0
-156 0
-377 0
-640 86 0
-912 -413 0
-650 0
-980 0
164 -459 0
-476 0
-577 0
629 -722 0
892 -129 0
-376 425 0
-776 834 0
-220 0
-247 482 0
-535 0
-509 0
-60 669 0
-922 0
-737 0
-79 0
-773 -641 0
-833 0
-96 0
-983 -541 0
-626 0
-96 303 0
-413 0
-287 0
618 -827 0
-342 0
-386 0
-173 0
-347 -961 0
-184 0
-382 564 0
-699 -81 0
-11 0
700 -810 0
50 -946 0
-296 -90 0
-640 158 0
104 -357 0
-211 -986 0
-173 0
-151 -563 0
-691 0
-690 -433 0
849 -763 0
-628 0
-206 -923 0
-344 0
-632 805 0
-7 -534 0
-477 0
-876 0
123 -891 0
-123 0
-785 0
-413 0
-491 0
815 -273 0
-247 0
-931 686 0
-403 0
-169 -769 0
-349 0
34 -429 0
-660 0
713 -517 0
-60 0
-261 0
-886 -652 0
-808 0
-824 108 0
-632 0
-209 0
-82 0
-795 405 0
-779 982 0
-209 0
-188 -835 0
-252 877 0
-111 0
-719 0
-502 934 0
-624 683 0
-670 0
-742 406 0
-629 -489 0
-887 -779 0
484 -225 0
-88 -90 0
-917 -113 0
-600 229 0
-40 175 0
-656 -523 0
-359 0
-664 910 0
-535 0
-753 0
-118 0
-414 286 0
512 -333 0
688 -418 0
-535 822 0
-799 0
-493 0
-180 502 0
-405 0
-977 0
928 -110 0
918 -770 0
956 -307 0
-404 -594 0
-693 0
-860 0
-355 0
-658 0
-164 0
-364 -290 0
-975 873 0
936 -254 0
-554 0
-973 0
821 -209 0
-262 0
-440 340 0
-723 0
-53 503 0
512 -779 0
-513 0
-577 -265 0
-135 -796 0
-404 0
-11 0
-332 -948 0
-469 0
473 -991 0
-653 -763 0
576 -699 0
-872 0
753 -362 0
41 -362 0
-512 0
-39 0
-854 0
-881 0
-376 209 0
-398 0
-589 0
-600 963 0
-511 0
-908 -242 0
-259 0
-775 813 0
-890 0
-998 0
-129 0
-236 0
-552 -349 0
-942 -195 0
-31 0
-91 0
-104 -566 0
-463 -684 0
480 -787 0
205 -650 0
-74 0
680 -339 0
-172 -315 0
-134 0
-339 0
-199 205 0
-87 0
-160 -927 0
-750 799 0
-343 -401 0
-413 236 0
-395 614 0
-346 0
906 -77 0
-852 996 0
-286 651 0
-952 836 0
-897 0
520 -705 0
-112 87 0
-203 789 0
-45 0
-419 -883 0
-594 0
3 -116 0
555 -908 0
-32 -775 0
-896 -181 0
419 -242 0
706 -467 0
-274 0
-505 0
241 -156 0
178 -371 0
-352 0
-494 684 0
-573 0
186 -123 0
-852 0
738 -357 0
-422 0
794 -602 0
-860 679 0
-129 0
-302 0
-94 110 0
-72 652 0
-227 -817 0
-710 0
-286 0
-392 462 0
-853 -611 0
939 -395 0
-824 -82 0
744 -233 0
-787 -274 0
-147 -513 0
-387 0
-462 -282 0
-724 0
-199 -45 0
499 -841 0
944 -290 0
-991 0
-405 0
-264 0
545 -719 0
-464 -317 0
152 -842 0
-88 0
-498 0
-876 367 0
-951 473 0
-824 -58 0
102 -537 0
985 -442 0
-912 0
-799 19 0
-598 0
-727 115 0
-252 -481 0
-804 -532 0
-646 -187 0
-694 0
-300 0
-551 -268 0
-88 295 0
-56 0
-287 -55 0
-630 247 0
-2 -569 0
-387 430 0
-693 -85 0
-350 0
-845 0
-287 0
-775 751 0
-233 0
-564 0
-624 694 0
-460 647 0
736 -770 0
-855 0
-214 614 0
-921 0
-861 -459 0
-522 0
-952 0
-197 204 0
-230 0
-23 0
-127 0
-543 0
379 -931 0
-698 0
618 -981 0
-742 -779 0
-263 -877 0
-712 0
-155 0
-970 0
-716 -307 0
-24 389 0
-131 62 0
-743 -838 0
-583 -358 0
-719 257 0
-463 -102 0
-773 0
-813 613 0
-893 0
-464 943 0
-308 -435 0
-408 559 0
-560 -53 0
-495 0
256 -556 0
-357 69 0
-712 783 0
-267 -394 0
-767 -389 0
-648 0
-840 561 0
-106 0
-556 887 0
-456 0
-430 -635 0
-77 0
-188 519 0
-310 -157 0
-437 172 0
-219 -50 0
-956 0
-737 0
201 -377 0
-190 0
-621 0
-125 -988 0
-276 0
-867 0
-267 0
-398 354 0
-505 0
386 -398 0
-667 -42 0
-851 0
413 -9 0
-806 0
-890 0
-704 248 0
224 -30 0
-855 0
-517 -364 0
-251 0
-504 0
-380 717 0
228 -756 0
-879 0
-723 0
-727 0
-453 -668 0
-660 0
-564 110 0
426 -993 0
-216 0
-278 0
-765 -713 0
-183 -67 0
-334 661 0
-543 0
-801 0
676 -633 0
-9 -161 0
-29 820 0
-372 -459 0
-652 398 0
-458 0
-390 238 0
-923 294 0
-514 -473 0
120 -939 0
-191 0
-544 0
722 -713 0
-450 750 0
9 -106 0
-324 -226 0
624 -231 0
-39 0
-782 0
-984 812 0
-588 0
-814 0
216 -231 0
369 -583 0
177 -20 0
-448 -318 0
-725 0
-877 982 0
-38 0
833 -45 0
201 -23 0
-525 804 0
-39 923 0
-273 0
-85 -387 0
696 -715 0
-454 319 0
-559 0
-230 0
-843 0
-292 0
250 -977 0
-125 0
-120 -687 0
-808 774 0
-818 0
-456 0
961 -538 0
905 -114 0
409 -266 0
-872 938 0
-308 0
96 -783 0
-560 526 0
519 -241 0
-501 -51 0
-907 0
-524 0
-125 0
-412 0
376 -535 0
-29 -154 0
-808 0
-292 79 0
-872 0
-783 -665 0
-70 76 0
544 -660 0
-847 -170 0
-536 0
-718 -614 0
-86 866 0
-484 0
-862 3 0
-407 0
-148 0
-9 0
-975 -300 0
-489 0
804 -682 0
-376 258 0
-232 0
-842 -385 0
-534 -473 0
-214 846 0
69 -738 0
-533 540 0
-27 0
-901 -531 0
-573 0
-668 37 0
941 -777 0
-16 44 0
-600 -158 0
-387 0
-764 918 0
-914 0
-245 855 0
-166 914 0
-544 778 0
704 -123 0
-219 0
-862 0
-733 -420 0
-283 0
-596 830 0
-350 922 0
-910 0
-641 0
-619 0
-623 322 0
-630 -986 0
-209 0
382 -794 0
-63 524 0
-546 463 0
-379 -994 0
-114 0
-27 303 0
-232 0
-686 0
357 -443 0
9 -444 0
-711 964 0
-644 0
38 -361 0
736 -937 0
-188 567 0
-690 -442 0
-123 0
-267 -634 0
-279 0
-226 -257 0
-232 0
-582 0
-393 0
-418 0
-949 -114 0
-357 0
837 -313 0
-485 702 0
-28 -610 0
-608 -969 0
-191 -257 0
-240 522 0
-91 758 0
-689 0
-295 933 0
-262 852 0
261 -673 0
-253 901 0
-270 0
-793 0
-243 0
400 -994 0
-468 0
145 -410 0
-535 0
-319 -729 0
393 -931 0
-560 -329 0
-39 0
-336 588 0
-662 -745 0
-383 -706 0
-269 -922 0
-358 0
-80 695 0
-503 372 0
-648 242 0
-732 308 0
-589 0
672 -407 0
-596 -787 0
-48 0
-422 -898 0
-670 -899 0
-166 -506 0
-377 0
645 -962 0
-167 -780 0
-640 -226 0
-461 443 0
-877 -546 0
-872 -691 0
-903 389 0
-95 -553 0
-176 270 0
-513 0
45 -153 0
-221 0
-885 0
67 -122 0
-372 85 0
219 -530 0
-898 0
-421 0
-943 382 0
-279 980 0
-853 -940 0
-463 484 0
-275 0
-961 0
-779 -162 0
-264 0
-815 0
-134 0
-434 0
-142 0
554 -595 0
-658 0
-272 -412 0
-276 749 0
-838 0
327 -113 0
-36 0
-892 -724 0
709 -267 0
954 -116 0
-494 -212 0
-848 -801 0
-880 0
-272 0
-852 0
-534 0
-115 0
-771 0
739 -901 0
-491 -922 0
-208 351 0
-398 0
-59 -570 0
-321 0
-829 0
-910 0
-655 0
-261 862 0
-719 0
-362 367 0
564 -123 0
-168 0
-592 -156 0
-676 0
377 -796 0
358 -337 0
-23 322 0
-984 0
-80 751 0
-502 413 0
-836 740 0
704 -120 0
-423 0
-807 0
-45 0
-713 0
-295 0
-238 0
-639 -445 0
-763 0
-881 0
681 -156 0
-845 0
272 -788 0
-837 0
-989 -249 0
978 -778 0
-926 -586 0
-849 -553 0
104 -302 0
-376 465 0
-263 -535 0
-299 815 0
-917 0
-488 0
-670 349 0
-670 799 0
251 -801 0
-493 -793 0
-72 0
-280 158 0
825 -713 0
-871 0
-242 0
-15 -364 0
-401 0
672 -958 0
-570 0
-454 -149 0
242 -371 0
468 -546 0
-453 773 0
-756 -723 0
-13 732 0
-246 293 0
-109 -161 0
-202 0
-118 0
-651 517 0
-338 0
594 -101 0
-283 830 0
498 -933 0
-899 0
-678 -258 0
-805 -947 0
-936 0
-74 0
-792 -924 0
8 -422 0
-832 174 0
-922 0
-620 175 0
-602 558 0
870 -418 0
-556 0
-549 -59 0
-218 0
-3 0
-456 -848 0
529 -652 0
-92 0
-300 0
-744 -603 0
241 -902 0
-569 119 0
-805 0
-866 0
-157 -532 0
-334 0
-779 0
-78 868 0
-398 -433 0
-47 0
-823 486 0
-415 0
-464 397 0
809 -347 0
-26 47 0
978 -226 0
-391 0
-718 0
-440 -784 0
249 -379 0
-321 0
-552 -627 0
-933 573 0
-880 416 0
-581 62 0
-38 637 0
729 -619 0
-560 -751 0
-58 0
-64 0
-965 -163 0
-912 920 0
-432 0
-459 831 0
856 -145 0
-730 0
-909 868 0
-143 0
329 -558 0
205 -106 0
-433 0
-103 739 0
440 -885 0
-300 0
524 -3 0
-622 0
-676 -378 0
-56 0
-352 -717 0
56 -937 0
-38 0
-639 0
-272 -817 0
963 -227 0
107 -621 0
-837 907 0
-192 -265 0
-59 -945 0
-727 827 0
-414 -748 0
-539 71 0
-240 0
-454 -874 0
-48 -532 0
-975 0
-994 0
-430 -630 0
-858 0
-240 0
-656 0
-456 -415 0
-490 0
-706 310 0
-727 948 0
916 -803 0
-769 223 0
916 -625 0
985 -253 0
-660 742 0
-775 927 0
-934 924 0
-389 724 0
-912 0
-303 206 0
-42 0
724 -801 0
-848 948 0
-152 -427 0
529 -307 0
-52 14 0
-564 0
-701 -835 0
902 -857 0
-121 0
-839 0
-912 0
-578 0
-898 0
-836 0
-753 -513 0
-96 0
-464 -587 0
-662 -365 0
-757 0
-783 259 0
-910 326 0
-893 -457 0
-432 -468 0
-204 0
-547 0
-868 0
808 -536 0
-895 -268 0
-7 0
-442 0
-437 0
-290 0
282 -181 0
-805 437 0
-87 889 0
-460 967 0
-84 0
-740 -267 0
-157 -938 0
729 -777 0
-132 0
-828 0
-889 0
-422 -267 0
-517 -538 0
-232 0
675 -373 0
-948 31 0
590 -218 0
-645 0
-31 263 0
-686 0
-813 76 0
-957 -809 0
-158 -265 0
-672 0
-178 0
-33 0
-446 895 0
-213 0
-543 679 0
47 -817 0
-285 0
-465 0
-380 0
-308 -425 0
-325 -28 0
-61 -305 0
-975 0
-243 0
-244 -707 0
-566 0
-1000 386 0
-992 -161 0
-335 -21 0
-180 205 0
-85 0
-204 493 0
-430 0
-291 0
-890 454 0
792 -780 0
-638 151 0
451 -978 0
-938 0
-46 620 0
-658 0
536 -347 0
49 -405 0
-941 -17 0
185 -426 0
-364 0
-640 0
-243 0
-359 0
330 -788 0
-290 0
-550 509 0
305 -28 0
-470 787 0
-528 -897 0
-268 559 0
993 -199 0
124 -172 0
288 -533 0
457 -997 0
896 -226 0
213 -241 0
-259 -1 0
-803 0
-822 118 0
-492 0
-288 494 0
-109 -332 0
-863 228 0
-570 0
-354 0
-266 -897 0
-910 0
-866 0
-818 -457 0
-168 -305 0
-873 0
-888 0
-862 203 0
-397 -146 0
-528 531 0
-556 -474 0
-887 499 0
-872 -356 0
272 -164 0
-607 0
-606 798 0
-31 -275 0
-160 -102 0
322 -517 0
-852 -340 0
208 -663 0
-635 -929 0
-213 0
-783 0
-688 179 0
-480 0
-563 0
-462 -243 0
-647 -630 0
-79 668 0
-580 -401 0
-932 0
928 -836 0
-363 0
-87 183 0
-117 0
-14 0
-186 0
434 -676 0
-626 0
-879 -940 0
-221 0
-240 72 0
209 -35 0
-436 0
-119 595 0
-298 0
-624 908 0
-343 575 0
-663 444 0
-711 -779 0
-135 173 0
-72 247 0
525 -697 0
-466 750 0
-220 342 0
-469 -561 0
-616 0
-168 -834 0
-684 0
-88 -553 0
672 -738 0
-253 463 0
-880 0
-900 -649 0
192 -230 0
-719 586 0
-929 0
453 -274 0
-725 0
244 -33 0
-964 0
-709 0
-551 398 0
538 -853 0
-442 0
-264 0
-706 0
-874 0
-641 0
469 -315 0
-266 47 0
-662 0
-759 0
-905 0
-792 591 0
-287 -146 0
699 -388 0
-706 0
-755 93 0
355 -595 0
-320 840 0
-384 189 0
-70 0
-929 0
-945 0
-629 142 0
-569 0
-625 0
666 -986 0
-279 -501 0
-231 383 0
-80 -393 0
674 -603 0
-141 0
-663 0
-217 0
-573 -185 0
-535 -987 0
-261 0
-959 0
939 -154 0
276 -563 0
-852 0
-795 -746 0
-652 0
-223 -885 0
-15 -955 0
-573 0
632 -114 0
-472 526 0
-644 0
-391 50 0
-117 0
-902 -60 0
-382 358 0
-767 -435 0
-980 0
-678 -267 0
-222 -301 0
-942 0
-76 0
210 -836 0
739 -850 0
-550 0
-91 0
-79 0
-646 0
-975 -137 0
-296 0
808 -655 0
-342 -785 0
-83 0
-870 -717 0
-762 0
-54 -108 0
-639 -122 0
-111 0
-447 0
-436 302 0
867 -146 0
-838 0
363 -809 0
-902 -404 0
-361 0
804 -11 0
-128 -600 0
-748 -996 0
-4 0
-55 -18 0
-380 -627 0
-912 0
-104 649 0
965 -498 0
-919 462 0
-797 -243 0
539 -436 0
608 -977 0
581 -843 0
-757 310 0
-846 27 0
-358 -251 0
-484 0
60 -947 0
294 -345 0
-125 0
-321 0
689 -835 0
-562 0
-576 0
134 -889 0
-286 -249 0
857 -343 0
-478 629 0
-152 0
-401 0
-920 -237 0
976 -215 0
-661 454 0
200 -298 0
-466 863 0
-230 0
929 -164 0
-477 373 0
921 -329 0
394 -733 0
-862 0
-884 0
-534 381 0
-712 0
680 -284 0
-449 0
-89 0
312 -946 0
-927 0
-464 -950 0
-127 0
-547 0
-775 0
-368 -737 0
-85 -787 0
1 -903 0
-790 -244 0
-151 0
-726 0
-559 -889 0
476 -161 0
-579 -386 0
-67 358 0
-79 0
-748 0
-551 -35 0
-245 279 0
-511 -84 0
-196 0
-444 0
-189 -692 0
-630 0
-435 527 0
-176 0
4 -210 0
-803 0
-112 -863 0
-886 -665 0
-527 597 0
34 -709 0
-158 405 0
185 -819 0
-152 351 0
-884 0
-789 -818 0
-697 0
818 -961 0
-450 0
-63 363 0
-679 401 0
952 -250 0
17 -193 0
418 -933 0
-377 0
-270 0
-189 -91 0
-182 0
374 -681 0
-287 0
-404 0
-400 -586 0
704 -946 0
-808 -770 0
-803 0
-625 0
-118 0
-113 0
913 -818 0
88 -903 0
-130 0
-920 0
-830 -993 0
-557 957 0
-533 799 0
-909 0
-711 468 0
128 -39 0
259 -497 0
-145 0
-768 0
-735 0
680 -566 0
-509 0
-655 0
-807 619 0
-949 -346 0
884 -692 0
-984 -140 0
292 -738 0
-369 0
472 -833 0
-154 0
-661 -538 0
-982 -884 0
32 -764 0
-929 0
-559 235 0
-211 839 0
-800 0
315 -313 0
-45 0
-647 82 0
-782 859 0
250 -409 0
-106 327 0
-697 0
-150 875 0
-788 0
-640 862 0
65 -750 0
-604 0
728 -668 0
168 -638 0
282 -347 0
210 -972 0
-675 -809 0
-723 494 0
682 -658 0
-748 -723 0
-56 0
-942 0
-704 0
609 -721 0
-195 0
-267 0
-592 0
250 -270 0
-418 0
-574 -459 0
-903 476 0
-142 244 0
-749 0
-587 -66 0
-972 878 0
-821 -108 0
-116 271 0
757 -674 0
-925 -996 0
-215 990 0
-438 0
-231 708 0
-47 810 0
315 -804 0
-891 0
-269 -427 0
-319 732 0
-951 859 0
217 -11 0
-441 831 0
-592 493 0
-676 0
-824 -195 0
-838 412 0
-685 0
-928 -354 0
-681 0
-867 0
-845 0
-78 765 0
712 -275 0
-245 -659 0
307 -236 0
-69 828 0
-515 0
344 -986 0
-234 759 0
20 -873 0
-203 0
-928 942 0
81 -301 0
-229 0
-54 0
761 -574 0
-500 517 0
-498 0
-95 -506 0
352 -551 0
-794 0
-716 0
-386 0
-486 -347 0
-320 -812 0
-727 0
561 -98 0
-966 -786 0
-935 753 0
-238 0
300 -849 0
-207 703 0
-932 631 0
241 -305 0
-105 -833 0
-942 0
400 -799 0
-939 0
-148 0
51 -385 0
-742 0
-630 613 0
-501 0
-700 0
-82 0
-46 -182 0
-798 0
-103 -853 0
-691 0
-570 -313 0
-710 0
658 -718 0
-406 0
-698 0
-253 310 0
-14 0
601 -147 0
-312 428 0
-582 302 0
-224 -137 0
-502 -188 0
-520 909 0
-167 0
-215 -653 0
-879 -154 0
-556 -19 0
-422 -546 0
-782 -93 0
-105 0
-758 887 0
-414 -189 0
-605 -977 0
-99 0
-655 0
-162 0
-390 0
-529 0
-423 755 0
-286 0
457 -734 0
-685 0
-737 0
-814 0
-364 0
-176 0
-697 0
-188 0
-374 0
-264 238 0
-392 -846 0
-95 0
-274 0
-318 -497 0
224 -198 0
-224 -691 0
-94 0
-36 0
346 -385 0
-647 850 0
-351 740 0
-814 0
-118 -885 0
-430 0
-592 0
241 -791 0
-538 0
589 -394 0
-581 0
-660 0
-16 679 0
-975 -406 0
-686 0
-762 0
608 -130 0
-575 -929 0
-907 0
-780 -692 0
-982 -881 0
-45 -211 0
-630 -401 0
1000 -873 0
-581 -389 0
-235 -385 0
-675 -146 0
705 -973 0
-470 0
-290 0
264 -107 0
-688 0
176 -27 0
-619 0
-622 -68 0
-29 -922 0
-749 0
-288 -78 0
-541 253 0
280 -221 0
-660 0
-625 0
-650 -129 0
546 -146 0
-171 -738 0
-317 0
-37 0
-599 -921 0
-595 0
-591 895 0
-318 909 0
449 -474 0
449 -11 0
-343 0
-620 0
696 -652 0
-495 0
-395 0
886 -785 0
708 -994 0
-967 0
-885 517 0
-572 -610 0
682 -662 0
-311 941 0
-772 989 0
-591 -484 0
339 -425 0
539 -249 0
417 -871 0
-516 -988 0
-880 -565 0
601 -35 0
-775 532 0
128 -611 0
-701 0
926 -57 0
-984 850 0
-771 0
161 -777 0
-505 0
-927 779 0
-277 0
-502 0
-688 -361 0
-866 0
-201 0
870 -905 0
-624 -475 0
-167 0
-548 -707 0
-520 0
-109 -940 0
-986 0
-54 0
-435 0
250 -828 0
592 -610 0
-45 0
-17 -657 0
-400 -314 0
-141 -581 0
-265 0
-543 0
-535 498 0
366 -553 0
-837 -969 0
-962 0
-766 -547 0
-542 949 0
-767 0
-982 -322 0
-15 -90 0
907 -441 0
-608 0
-964 -234 0
-373 -643 0
892 -714 0
-833 383 0
-893 0
-128 647 0
-263 -518 0
-741 0
-288 0
-699 318 0
-634 -82 0
-535 -970 0
-251 0
-209 0
-71 0
-431 0
-214 0
-795 0
523 -28 0
-640 494 0
-654 -77 0
-136 0
-584 991 0
-211 55 0
-572 -274 0
-280 99 0
-718 685 0
188 -635 0
-773 -553 0
178 -710 0
-427 503 0
501 -83 0
-807 869 0
26 -324 0
-952 398 0
-975 -650 0
-943 -29 0
-916 0
-430 523 0
261 -803 0
-261 -554 0
457 -214 0
-607 282 0
-794 -729 0
-479 0
706 -82 0
-822 0
-123 0
-702 -309 0
-933 -946 0
-337 0
-785 0
-197 0
-166 -429 0
615 -153 0
-149 0
-918 612 0
-475 0
-13 0
-168 -391 0
240 -701 0
468 -674 0
-627 0
-509 0
-335 579 0
-40 -945 0
-786 0
-225 0
-658 0
-770 0
-72 -374 0
282 -473 0
-198 359 0
416 -772 0
-820 0
-965 -969 0
-386 0
-959 0
276 -562 0
-833 0
-830 0
-664 -199 0
-400 -867 0
-669 -92 0
388 -972 0
-971 -145 0
946 -802 0
928 -491 0
-832 0
-875 814 0
-997 0
-923 0
-278 -641 0
-447 0
520 -282 0
-593 0
-679 -803 0
683 -355 0
-496 0
-970 -649 0
-152 78 0
-435 -993 0
-654 422 0
-640 -75 0
-864 176 0
834 -702 0
-873 0
-572 -571 0
-172 0
-591 0
441 -286 0
-467 0
-122 719 0
304 -538 0
-88 -234 0
169 -449 0
-508 -25 0
-626 351 0
-991 0
-437 0
-123 686 0
-952 -537 0
-460 -633 0
-920 -20 0
858 -818 0
-648 471 0
-667 0
-581 764 0
-229 -580 0
-984 -317 0
-326 -958 0
-961 -985 0
-44 -314 0
-861 -801 0
773 -521 0
-206 0
-815 716 0
-357 0
-806 -166 0
-895 0
-279 -7 0
-832 -375 0
-985 0
-304 126 0
-941 0
-319 14 0
-687 -244 0
744 -382 0
-686 0
721 -894 0
-904 -372 0
-261 -316 0
625 -958 0
-664 0
-469 0
-222 0
-739 0
986 -982 0
-629 759 0
-604 0
-623 0
-766 845 0
-693 0
-404 0
-820 495 0
-64 522 0
-944 -381 0
-975 0
-592 -349 0
-427 0
-732 0
-703 0
-456 0
-363 0
616 -565 0
-632 613 0
-181 700 0
866 -562 0
-679 0
-172 0
-69 0
-755 -49 0
696 -322 0
-916 406 0
-568 -906 0
438 -250 0
-193 -273 0
-878 -242 0
-952 -252 0
-808 159 0
955 -11 0
-417 0
816 -353 0
224 -580 0
140 -265 0
-146 0
643 -125 0
-422 0
-348 -171 0
-59 -554 0
-458 0
-194 70 0
-321 0
-639 0
-214 0
398 -930 0
816 -398 0
-943 0
624 -130 0
-435 0
-113 0
-619 0
-116 0
-632 -172 0
-136 0
-633 0
-53 -786 0
-8 717 0
-408 643 0
-407 246 0
-846 -145 0
723 -75 0
-653 0
-388 -929 0
96 -706 0
-936 95 0
-950 0
-482 0
-256 0
-700 0
-186 0
-592 -574 0
-864 0
-283 0
-431 0
-443 54 0
-693 0
840 -913 0
488 -706 0
-57 0
-662 0
-767 0
-439 0
-164 0
-951 282 0
309 -649 0
-123 0
-43 0
761 -738 0
-84 0
-311 780 0
-310 -275 0
-248 -548 0
13 -217 0
-204 0
116 -547 0
-60 0
267 -44 0
-225 0
497 -517 0
986 -700 0
321 -578 0
-719 0
-214 0
-504 969 0
-573 0
-932 0
-465 0
-50 -969 0
-968 831 0
-585 0
-695 725 0
-880 0
80 -978 0
456 -826 0
-234 0
-575 412 0
-600 -723 0
-668 0
-771 0
-405 0
56 -406 0
-113 0
-840 -252 0
-353 0
-204 -28 0
-762 -89 0
-669 -628 0
456 -100 0
630 -153 0
-749 563 0
-455 0
402 -366 0
-973 127 0
-655 -465 0
-983 0
-905 0
-207 997 0
-112 220 0
-945 0
-216 -791 0
-342 0
-320 -175 0
-218 0
-89 0
442 -966 0
-227 -323 0
460 -99 0
-455 814 0
-439 573 0
722 -963 0
-638 -658 0
-656 0
-847 0
-328 0
-999 869 0
-492 -442 0
-734 0
-333 0
-474 0
419 -66 0
-137 0
-635 0
404 -43 0
-924 0
-512 0
-85 0
-773 0
-318 -382 0
475 -508 0
704 -438 0
-572 0
-91 0
817 -293 0
-389 0
915 -419 0
-104 923 0
-109 0
-343 171 0
-188 -969 0
768 -950 0
-148 -946 0
-915 -611 0
672 -662 0
301 -321 0
-74 870 0
-659 0
-555 -89 0
-307 0
-392 -305 0
-909 0
-442 0
-992 -907 0
301 -722 0
-586 0
-530 0
817 -745 0
565 -337 0
-624 0
800 -461 0
-906 0
-580 -363 0
-384 878 0
584 -864 0
-232 447 0
-544 0
-312 367 0
616 -102 0
-996 0
-822 211 0
-38 -25 0
-437 0
-704 -658 0
-112 0
-353 0
-67 0
28 -747 0
-582 -666 0
218 -659 0
-619 0
9 -586 0
-792 -961 0
-232 403 0
656 -762 0
-573 -67 0
-640 0
-251 0
-279 0
435 -738 0
-779 615 0
-978 0
-687 846 0
-322 0
-214 -834 0
973 -945 0
-921 0
952 -329 0
-269 0
-521 0
-248 875 0
-136 0
633 -506 0
881 -730 0
-154 0
-807 339 0
448 -693 0
-887 0
457 -842 0
-284 0
-166 323 0
-510 -28 0
-382 0
-71 0
821 -922 0
-927 -421 0
-647 0
-656 349 0
-243 334 0
-176 0
-647 0
-792 919 0
-287 0
-619 0
-385 0
-658 983 0
724 -33 0
-370 0
84 -643 0
481 -189 0
409 -937 0
872 -805 0
-728 0
690 -404 0
-46 0
337 -638 0
-124 -539 0
-477 -833 0
-253 926 0
-669 -507 0
-302 783 0
-127 -561 0
-944 -481 0
-126 -509 0
865 -44 0
-687 -679 0
-783 -990 0
-787 0
-110 0
-228 149 0
-596 965 0
456 -481 0
321 -177 0
-308 0
-541 0
-826 0
-991 -811 0
-927 -979 0
-180 -409 0
-544 201 0
-992 -973 0
-122 0
120 -819 0
-943 0
-127 0
-826 -657 0
-484 197 0
248 -317 0
-850 862 0
138 -278 0
-502 -621 0
-326 0
-927 0
-785 0
-883 0
-37 0
-798 0
-316 0
-96 0
-156 -401 0
308 -498 0
-185 0
960 -170 0
-852 -833 0
-525 -660 0
-526 327 0
-676 167 0
-988 0
341 -394 0
-943 -100 0
516 -122 0
-56 163 0
-445 0
-912 878 0
-359 -927 0
-491 0
-940 159 0
-485 0
-771 0
-887 423 0
-937 0
-517 -66 0
-638 -746 0
-280 0
-295 -291 0
-513 0
-480 -642 0
-206 0
-256 -161 0
-415 -635 0
-314 -754 0
-410 -113 0
-65 0
-457 0
-314 0
-634 -201 0
-878 95 0
-863 614 0
-214 92 0
-621 -169 0
-654 205 0
-566 0
-918 967 0
-685 -939 0
683 -891 0
-954 567 0
349 -658 0
-9 0
-868 -682 0
906 -409 0
419 -133 0
-800 980 0
-134 -193 0
217 -283 0
-333 0
-544 0
-344 0
-485 -785 0
713 -485 0
-129 -641 0
736 -586 0
-130 0
-176 0
-828 -275 0
-765 629 0
872 -371 0
-50 0
-195 -915 0
-603 0
-439 0
-188 -955 0
-655 0
-390 0
-791 0
30 -385 0
-192 91 0
-768 993 0
-448 -964 0
-712 -453 0
-382 319 0
-761 0
905 -913 0
-1000 -550 0
-245 0
-394 -617 0
724 -978 0
-352 908 0
-844 0
-775 -498 0
888 -960 0
905 -740 0
-46 0
606 -241 0
-885 0
-314 -25 0
-628 239 0
-365 -299 0
-987 -354 0
208 -926 0
-674 -529 0
-928 0
-159 0
680 -331 0
-504 0
-443 0
-266 0
187 -138 0
288 -313 0
-205 0
644 -609 0
-599 -749 0
618 -811 0
-254 0
-887 -654 0
714 -598 0
446 -233 0
-862 -126 0
-678 0
-679 -667 0
-256 541 0
-600 833 0
-814 0
-52 -514 0
-277 412 0
-587 -306 0
235 -250 0
-669 0
-877 0
-953 0
-791 -634 0
-95 -961 0
224 -573 0
-524 -859 0
-475 0
-255 170 0
-17 0
-79 -219 0
-110 0
747 -642 0
72 -227 0
-652 52 0
-469 -132 0
-533 0
-848 519 0
532 -113 0
-39 538 0
-952 29 0
-301 150 0
-665 0
-904 0
-509 343 0
-712 0
-217 0
81 -845 0
-733 0
-552 463 0
-949 223 0
-835 -186 0
-485 -715 0
952 -506 0
-107 -322 0
-540 -930 0
-476 0
-761 0
-7 0
-445 606 0
-168 -876 0
151 -49 0
-344 -42 0
-348 972 0
858 -685 0
-668 0
-87 0
691 -907 0
-622 -763 0
-485 0
-887 0
-349 0
-881 0
-310 0
331 -843 0
-251 0
-82 -698 0
452 -978 0
-530 0
770 -509 0
-870 -613 0
-973 -25 0
-879 0
30 -881 0
-38 0
-968 -607 0
-399 -197 0
-844 0
-67 0
-358 453 0
-486 0
-826 0
-398 0
698 -866 0
8 -762 0
-93 0
-160 -95 0
-159 0
840 -408 0
-372 215 0
-191 0
-247 0
-184 0
952 -734 0
775 -449 0
370 -761 0
-973 0
-96 0
-684 -146 0
-164 -723 0
-845 0
-22 0
-696 0
-54 621 0
-296 -685 0
-387 0
-983 662 0
-598 0
-149 -803 0
-150 0
-677 991 0
354 -76 0
-355 0
944 -857 0
426 -684 0
-711 462 0
-602 0
-968 -155 0
-450 838 0
777 -403 0
-18 0
-410 567 0
-688 -818 0
-849 0
-778 -417 0
-681 0
-310 0
-866 0
489 -837 0
-997 0
939 -131 0
-297 0
-820 0
-949 -778 0
-806 0
-382 903 0
-82 0
-848 -293 0
316 -673 0
752 -753 0
-85 853 0
-519 -914 0
-662 0
-734 -305 0
-952 0
-849 0
-264 -274 0
-285 0
132 -708 0
-629 -834 0
-701 76 0
-144 986 0
-591 922 0
-149 79 0
-912 0
-761 0
-254 949 0
-650 0
737 -308 0
-192 0
-957 0
-840 63 0
-95 0
-85 0
-608 260 0
-48 0
804 -370 0
-933 0
-620 0
-924 -738 0
-451 581 0
-54 0
-753 0
18 -67 0
-145 0
-194 0
-104 967 0
-505 0
-386 0
-519 28 0
-913 0
-782 0
-487 -843 0
-498 0
-423 894 0
-780 -793 0
-653 0
-200 0
-344 798 0
-15 489 0
-158 -874 0
-916 -322 0
-274 0
882 -946 0
-282 0
-475 0
-890 0
-726 0
-1 0
-748 -3 0
-415 0
-331 0
336 -914 0
-543 177 0
42 -941 0
-218 0
-421 0
-892 -443 0
-846 327 0
241 -942 0
433 -452 0
458 -465 0
-731 0
646 -865 0
-311 0
-637 0
-659 0
-608 -636 0
-638 -246 0
-887 -789 0
585 -380 0
-221 -90 0
361 -623 0
-45 567 0
581 -169 0
-942 366 0
-472 -368 0
88 -874 0
962 -587 0
-974 0
-4 0
-645 0
963 -681 0
172 -122 0
-961 0
-482 0
-374 0
-935 0
-698 0
289 -673 0
-579 0
-189 -642 0
-856 0
-341 999 0
-665 0
-451 -329 0
-368 -324 0
-599 571 0
-408 143 0
-341 0
544 -126 0
-565 772 0
614 -73 0
-353 0
210 -852 0
-418 0
-564 0
-832 0
-748 0
785 -274 0
-924 -682 0
-359 -761 0
19 -477 0
-601 0
-313 0
347 -625 0
-183 423 0
-875 0
-951 31 0
-151 -174 0
-118 0
-121 0
-593 0
-514 0
-758 0
-514 0
-662 0
216 -291 0
-477 0
-723 558 0
-396 879 0
667 -242 0
-742 -449 0
584 -819 0
-971 654 0
-813 -715 0
-28 -906 0
530 -254 0
-838 0
928 -342 0
-59 0
496 -490 0
-614 119 0
370 -649 0
-309 -194 0
-835 0
-964 -226 0
-119 -124 0
-84 0
-159 140 0
-107 0
-102 0
-856 -274 0
-520 -509 0
-688 -917 0
-252 0
-576 0
-288 793 0
-175 0
-174 -308 0
-472 -613 0
-800 0
-367 0
-34 0
-262 708 0
-208 886 0
-372 0
-302 -769 0
-26 0
-513 0
-77 -481 0
-88 0
-537 0
-451 246 0
313 -299 0
618 -843 0
-656 -613 0
-814 -259 0
264 -712 0
-598 35 0
-477 -557 0
-318 -322 0
-544 -42 0
-136 0
-341 435 0
-670 477 0
-320 0
-425 0
-280 -838 0
-648 294 0
-533 964 0
-278 0
-870 406 0
-796 0
-710 718 0
146 -916 0
-907 0
-948 -555 0
88 -107 0
-492 0
794 -149 0
-742 578 0
-411 0
-765 828 0
-899 95 0
-24 0
396 -771 0
-343 0
-43 -217 0
-824 -222 0
-330 0
-463 -825 0
-446 0
361 -833 0
-575 0
-400 0
-325 301 0
991 -353 0
145 -969 0
610 -490 0
-158 0
-664 229 0
-792 -200 0
-313 0
772 -233 0
-462 502 0
753 -229 0
581 -849 0
-182 0
418 -877 0
837 -282 0
945 -510 0
-791 -257 0
-175 -95 0
-997 0
-413 0
-631 0
-120 587 0
-573 0
486 -817 0
-741 11 0
-941 -906 0
-666 0
-536 0
-32 905 0
-575 -956 0
810 -557 0
-709 580 0
-282 0
-348 0
867 -658 0
-352 0
-117 22 0
-998 -262 0
548 -643 0
-382 -613 0
523 -349 0
-575 0
-167 0
880 -268 0
-723 -417 0
-78 0
876 -714 0
455 -225 0
-80 0
-428 -460 0
-575 -698 0
-527 -765 0
-508 -123 0
-643 0
-737 0
-450 0
-127 711 0
-668 0
92 -467 0
-176 978 0
-907 0
851 -627 0
130 -805 0
-983 -19 0
-209 0
-814 0
-968 721 0
-113 -33 0
-731 0
-789 823 0
-398 0
-699 0
-422 -777 0
-875 0
-681 0
-725 774 0
701 -290 0
932 -850 0
-871 -434 0
402 -779 0
-695 438 0
-233 0
-886 0
-59 0
-880 -218 0
372 -882 0
-247 0
-648 0
-951 -574 0
450 -691 0
-709 0
-929 0
-155 0
-997 0
-997 0
-848 -711 0
88 -982 0
-632 0
-621 -540 0
826 -885 0
-345 727 0
477 -650 0
-557 -906 0
-933 0
-252 0
-991 -766 0
-902 0
-342 0
688 -937 0
-452 -930 0
-856 949 0
-549 0
-712 0
786 -609 0
-137 0
913 -917 0
-798 -330 0
-605 -514 0
-930 0
-616 -375 0
227 -106 0
-815 668 0
-336 223 0
216 -403 0
-207 0
-723 0
125 -242 0
-448 0
-614 403 0
-378 366 0
-968 598 0
-554 0
-423 121 0
-563 0
-626 -969 0
-406 0
-986 0
-320 0
-823 -835 0
521 -756 0
-210 0
-92 582 0
874 -427 0
-532 957 0
-83 0
-603 327 0
-316 -498 0
-997 0
-571 0
840 -751 0
-89 0
-996 0
-504 -737 0
-155 0
-701 0
-926 643 0
-374 -801 0
-689 0
-319 -598 0
-285 -434 0
-506 0
-617 0
-623 0
-958 533 0
-907 -458 0
-374 -533 0
-876 0
-79 -78 0
82 -813 0
-536 0
667 -578 0
-571 0
801 -58 0
-562 0
-483 0
280 -223 0
-648 676 0
-555 -625 0
-63 343 0
-939 -137 0
-373 740 0
-880 398 0
-732 -722 0
441 -741 0
621 -186 0
832 -900 0
-222 0
-304 0
628 -618 0
-822 -346 0
-100 -177 0
-576 0
-484 919 0
-462 0
929 -441 0
396 -699 0
-602 775 0
-100 236 0
-733 -212 0
-657 0
-606 -236 0
-157 -585 0
-811 0
-742 0
-544 0
-268 -875 0
920 -266 0
941 -946 0
-515 0
-596 942 0
-511 139 0
-583 476 0
259 -915 0
25 -897 0
-63 355 0
-320 -139 0
-909 0
-458 0
-655 0
987 -644 0
-985 0
-450 0
-56 -782 0
-334 -926 0
-696 768 0
-746 0
80 -716 0
-184 0
-16 18 0
-400 -289 0
216 -69 0
-768 773 0
104 -162 0
-530 0
-841 -249 0
-998 0
-387 0
-594 -673 0
-602 0
-222 -852 0
-375 0
56 -655 0
-333 0
-88 0
360 -18 0
-568 721 0
-559 -27 0
-104 178 0
44 -986 0
-330 -890 0
-309 -804 0
-70 612 0
-766 0
-815 447 0
-718 0
44 -275 0
-966 0
-998 754 0
722 -524 0
-800 0
-774 0
-959 -681 0
-283 0
267 -979 0
-824 -667 0
-678 0
-955 262 0
-899 0
-446 -874 0
-168 -235 0
-428 -97 0
-97 0
-278 898 0
-435 0
-687 68 0
-453 -346 0
918 -210 0
837 -442 0
-605 -20 0
-228 0
709 -938 0
-941 -933 0
-136 178 0
-63 749 0
-48 0
-944 -465 0
-177 0
-685 0
-997 -265 0
-798 0
-264 -417 0
-285 0
-319 -66 0
-656 738 0
-681 0
-758 293 0
-344 -17 0
914 -796 0
-559 -873 0
-552 102 0
374 -881 0
-415 -195 0
312 -127 0
-661 861 0
-80 129 0
-870 -396 0
626 -172 0
-112 0
-63 -839 0
148 -810 0
-973 164 0
-541 164 0
736 -28 0
-992 274 0
-807 0
-487 -385 0
-587 -705 0
-634 0
-270 0
-553 0
-302 42 0
657 -667 0
-372 0
-104 -96 0
-701 151 0
24 -338 0
438 -306 0
-232 0
-723 39 0
-206 390 0
-59 269 0
346 -610 0
-928 0
-670 -362 0
-610 0
134 -937 0
-522 0
-628 471 0
851 -804 0
65 -73 0
-917 0
-368 -464 0
-590 699 0
194 -27 0
-382 0
180 -57 0
-15 0
-217 879 0
586 -774 0
-393 0
-487 -189 0
418 -126 0
274 -585 0
-657 303 0
121 -309 0
-942 594 0
-40 538 0
-227 0
-824 0
-648 666 0
-118 388 0
-323 399 0
-136 0
-648 -403 0
-189 980 0
8 -643 0
-133 413 0
688 -634 0
-520 -67 0
-788 -291 0
-583 -697 0
-504 0
-197 0
-530 0
-999 618 0
-219 0
-737 0
485 -425 0
-548 0
-750 -913 0
-108 0
-362 0
-161 0
-232 0
747 -4 0
-734 149 0
882 -292 0
-605 589 0
-468 86 0
-425 0
-552 169 0
-823 -846 0
154 -853 0
-334 0
-400 -202 0
553 -617 0
-710 -221 0
-116 0
-24 0
-806 482 0
-392 0
-706 0
-50 0
-52 189 0
465 -900 0
-962 0
-816 245 0
-38 -349 0
-896 -392 0
-975 0
771 -868 0
409 -847 0
-478 499 0
-30 0
-464 0
525 -529 0
-59 -811 0
-510 -317 0
-64 0
-376 -637 0
-101 711 0
-499 0
-331 -785 0
-331 375 0
-208 -698 0
-932 255 0
-362 0
-200 519 0
-920 0
353 -548 0
-34 0
-391 515 0
-198 -761 0
-315 798 0
-89 0
-119 0
-877 0
-774 989 0
785 -125 0
-685 0
-837 -194 0
-86 -668 0
-82 0
153 -473 0
106 -613 0
-238 383 0
307 -257 0
400 -666 0
-111 0
-687 0
249 -842 0
-968 423 0
-511 61 0
-903 123 0
-549 0
-886 -995 0
449 -433 0
-518 0
-865 0
-846 0
-469 0
-918 0
321 -37 0
-114 -953 0
-107 0
-442 0
91 -397 0
641 -225 0
-654 0
-252 0
-41 0
-1000 0
-183 0
-758 0
-400 318 0
-982 0
-754 0
-591 -726 0
696 -620 0
-208 847 0
-80 -840 0
-549 0
-976 0
-712 0
-950 660 0
-404 -561 0
-359 909 0
-306 -258 0
43 -425 0
-281 0
-519 802 0
-642 0
-644 0
-423 951 0
-299 0
10 -653 0
-310 428 0
968 -986 0
-734 0
-385 0
-827 -809 0
-55 0
-911 -734 0
-508 0
-667 46 0
-334 -810 0
-495 554 0
-384 -348 0
-270 0
169 -921 0
-172 0
-97 0
-744 0
60 -180 0
-35 0
-475 0
-139 0
-838 0
-831 0
88 -780 0
-72 359 0
-106 0
-21 -162 0
251 -419 0
-566 -326 0
-109 0
920 -389 0
-663 187 0
-744 0
914 -53 0
-182 0
-599 -341 0
-932 0
-616 649 0
-86 0
-67 0
-695 606 0
-259 0
-790 0
170 -363 0
-544 715 0
129 -547 0
-71 346 0
-638 0
957 -506 0
-533 0
-343 -19 0
779 -10 0
-377 0
-390 0
724 -787 0
-183 -868 0
-796 0
-748 157 0
-918 -108 0
-73 79 0
-72 -194 0
-569 0
-603 0
-828 0
452 -292 0
-903 0
-1000 -559 0
660 -876 0
-126 518 0
-922 -633 0
-415 0
952 -880 0
-237 836 0
-877 0
-791 0
-415 924 0
337 -854 0
-496 -34 0
745 -209 0
-475 0
900 -562 0
-140 0
409 -937 0
-509 84 0
760 -563 0
-896 0
700 -129 0
-423 -898 0
-168 -402 0
-41 0
-77 0
-773 0
-668 484 0
-703 -755 0
73 -915 0
-727 -97 0
-947 0
-551 -58 0
-198 -509 0
369 -805 0
-607 0
-950 0
-710 0
-743 0
-678 0
-112 0
-415 237 0
-292 981 0
-214 199 0
-902 0
-482 0
259 -57 0
-726 -67 0
-401 0
-506 0
-266 0
858 -756 0
56 -370 0
-552 -102 0
-149 0
90 -445 0
-398 110 0
928 -319 0
-899 -881 0
-574 74 0
-991 217 0
-647 679 0
-856 -158 0
-119 -282 0
-799 781 0
487 -217 0
-884 0
-246 0
728 -440 0
914 -738 0
-504 99 0
-999 0
-250 -282 0
-37 -556 0
-285 933 0
-816 0
412 -106 0
-888 -749 0
-327 0
-273 0
-342 0
-741 -771 0
-268 318 0
-616 652 0
-643 0
-561 711 0
-413 0
-488 0
833 -428 0
-965 0
-828 -817 0
-696 230 0
-63 670 0
-169 0
-640 235 0
445 -465 0
-855 795 0
-750 0
-959 580 0
713 -866 0
-260 0
-984 357 0
-247 484 0
-407 -698 0
264 -392 0
492 -11 0
-222 0
-984 -605 0
-904 0
-928 296 0
-456 0
472 -999 0
-554 -74 0
-567 679 0
898 -100 0
-680 -956 0
-654 -363 0
-423 0
-414 0
-983 -818 0
-728 0
-60 0
451 -179 0
-42 0
-319 0
-451 0
-117 0
-916 -18 0
898 -947 0
-357 -265 0
826 -774 0
611 -417 0
-760 -865 0
-135 579 0
-632 961 0
697 -277 0
556 -33 0
-847 926 0
812 -257 0
164 -153 0
-472 0
-467 -586 0
772 -811 0
360 -921 0
-11 -147 0
-974 0
-507 0
-974 579 0
-423 0
-832 0
-112 0
936 -535 0
-774 0
-47 294 0
60 -585 0
-720 0
-46 -661 0
-944 0
-975 -676 0
-827 0
684 -731 0
-812 972 0
-464 0
-734 -635 0
-858 0
-612 -811 0
-280 636 0
-176 646 0
384 -156 0
-782 -972 0
523 -140 0
-839 0
706 -204 0
153 -252 0
688 -854 0
-862 -93 0
-474 0
848 -695 0
-239 485 0
-698 30 0
-645 643 0
-464 -320 0
752 -857 0
-150 838 0
-53 0
-747 0
-174 804 0
-876 -979 0
-621 494 0
-715 -882 0
-984 71 0
980 -51 0
-231 -289 0
808 -220 0
599 -57 0
-563 0
811 -573 0
18 -945 0
-596 -988 0
-108 0
-110 236 0
-79 -581 0
-965 411 0
428 -330 0
625 -489 0
-852 805 0
-615 516 0
-431 0
-738 0
-461 -242 0
904 -889 0
-936 190 0
-340 157 0
-116 -684 0
284 -866 0
-848 -253 0
-470 0
-583 0
163 -434 0
980 -617 0
-685 0
-815 -822 0
-812 975 0
-211 270 0
-927 279 0
-341 277 0
620 -794 0
-487 0
-326 -563 0
-806 0
-776 197 0
301 -298 0
-678 0
-502 783 0
211 -41 0
-957 0
72 -377 0
-262 979 0
-557 0
-831 -771 0
-948 0
-846 0
213 -338 0
-806 0
-137 0
-643 0
225 -748 0
-119 -67 0
712 -921 0
892 -889 0
-717 -779 0
763 -858 0
-323 -898 0
704 -959 0
-23 660 0
-725 -60 0
-244 0
-312 -244 0
-454 475 0
-306 0
-455 436 0
-189 589 0
568 -229 0
-460 0
339 -882 0
-888 171 0
-680 678 0
-303 -13 0
-848 0
-515 0
-860 0
-606 -812 0
-517 484 0
-764 0
196 -51 0
-428 0
-77 119 0
-136 -842 0
-724 0
-5 0
788 -281 0
-963 421 0
-261 517 0
563 -786 0
-781 0
-508 607 0
-295 753 0
-554 0
-519 0
134 -865 0
-995 0
-326 0
-744 381 0
-788 957 0
776 -259 0
-165 0
-969 0
82 -801 0
-712 -70 0
-970 0
-136 0
-749 -826 0
-506 0
-999 -102 0
-673 0
701 -201 0
-484 0
-189 503 0
-15 765 0
-733 -625 0
-960 -311 0
-143 0
-692 0
-935 -566 0
-360 -609 0
-950 0
-644 0
-424 -719 0
509 -433 0
961 -21 0
716 -963 0
-29 76 0
-323 0
972 -747 0
-591 988 0
-325 551 0
-670 -910 0
-20 181 0
-484 0
-135 -71 0
-101 -483 0
-342 -691 0
-362 -578 0
-575 -950 0
-408 0
-527 -575 0
-379 0
-970 911 0
-352 -707 0
-78 76 0
-377 0
-830 644 0
459 -867 0
-517 0
-751 550 0
473 -387 0
-166 182 0
-877 -507 0
-923 -401 0
-674 -81 0
-436 0
-504 0
-933 719 0
-175 665 0
-500 0
-354 0
290 -349 0
-439 907 0
-638 -780 0
-103 0
96 -495 0
-925 -18 0
496 -389 0
-971 0
-664 1000 0
-632 -468 0
-52 0
250 -148 0
992 -935 0
-492 -770 0
-224 54 0
-163 -57 0
-369 0
-43 0
148 -268 0
522 -516 0
-36 0
496 -747 0
-481 0
116 -465 0
-829 0
738 -820 0
643 -818 0
-176 -846 0
-288 -160 0
-544 428 0
-854 498 0
-120 815 0
-608 -577 0
-302 0
-170 0
-734 0
-848 970 0
-739 0
-399 0
115 -260 0
-111 473 0
-1000 0
473 -204 0
-347 0
187 -497 0
-734 0
-9 -921 0
-225 0
-59 0
785 -475 0
-151 0
-473 159 0
-234 0
-854 -259 0
-978 -81 0
-387 358 0
-583 254 0
-143 -159 0
-153 0
-254 787 0
-325 0
-936 -790 0
115 -812 0
-45 0
-386 0
-539 -875 0
412 -316 0
-590 0
-98 0
-46 0
-471 227 0
-631 0
-347 0
-103 0
-257 0
-103 -877 0
-853 -901 0
-480 0
425 -988 0
-14 0
-469 860 0
-163 0
-592 799 0
-455 372 0
-506 15 0
-676 -428 0
-344 0
-535 541 0
-566 982 0
-795 0
-312 -741 0
221 -881 0
982 -794 0
178 -570 0
370 -884 0
-270 -210 0
-138 0
-183 0
-310 -172 0
-965 0
969 -836 0
-209 0
-211 29 0
-757 118 0
164 -322 0
-30 0
-170 0
-198 397 0
-788 -273 0
-795 0
-743 791 0
32 -683 0
-687 -836 0
-805 0
-959 668 0
-5 0
-681 0
-720 566 0
-40 134 0
-464 -66 0
-488 -875 0
-133 -242 0
-902 0
-652 0
-127 0
-47 0
-818 0
-245 0
-361 0
-116 -540 0
896 -340 0
-991 -734 0
-341 0
-550 254 0
-831 350 0
356 -531 0
-948 0
-517 0
-534 0
-194 -145 0
-310 -166 0
139 -826 0
-968 -509 0
-867 0
-638 84 0
613 -555 0
-452 836 0
-120 -222 0
-168 -153 0
930 -938 0
-86 0
-95 -193 0
-389 -409 0
-696 -631 0
-213 799 0
-701 0
-401 0
-670 -252 0
-304 700 0
-668 0
358 -722 0
-110 -58 0
220 -483 0
-844 0
-493 0
-147 0
-620 774 0
-464 979 0
-697 0
864 -661 0
680 -348 0
-692 0
-407 0
-359 -837 0
172 -194 0
-657 0
846 -113 0
-880 436 0
-776 534 0
-356 0
-558 0
-305 0
-45 0
-695 -321 0
448 -524 0
-771 0
-82 0
-750 0
-269 0
-429 -329 0
-343 284 0
-118 661 0
-935 0
-965 382 0
297 -10 0
-208 244 0
-879 -441 0
-895 111 0
-280 -494 0
-900 20 0
-828 0
-922 -193 0
-673 0
-636 143 0
624 -440 0
-326 -933 0
-73 0
-269 918 0
746 -721 0
-917 766 0
-325 -820 0
-845 -436 0
240 -397 0
-664 0
-8 829 0
-958 0
-973 -27 0
-541 494 0
-207 0
-355 7 0
-980 0
-908 942 0
-681 0
-699 615 0
-37 0
-42 0
536 -146 0
-167 0
-971 0
-77 708 0
-253 0
614 -721 0
-244 0
-312 259 0
-262 0
-879 0
-387 0
898 -570 0
-744 0
110 -9 0
760 -574 0
-969 0
500 -107 0
-371 750 0
-144 217 0
-634 0
-256 423 0
616 -135 0
123 -771 0
-140 645 0
-332 -378 0
-152 548 0
-68 727 0
-200 0
-823 0
-37 349 0
-155 0
97 -306 0
-756 0
-132 0
-764 -721 0
-312 0
-94 0
852 -586 0
-60 0
-6 -501 0
-640 458 0
-690 -986 0
993 -116 0
-397 926 0
-425 0
-544 -438 0
425 -561 0
-557 0
579 -956 0
140 -259 0
-888 -538 0
-471 -870 0
-524 0
-955 0
-303 -363 0
-712 -432 0
-983 -940 0
-594 0
-401 0
-220 285 0
-208 667 0
83 -173 0
-41 0
25 -858 0
-440 -847 0
496 -806 0
291 -924 0
-672 0
-593 183 0
-795 0
-122 0
-250 47 0
-428 0
-678 -837 0
-732 0
-278 0
-935 -511 0
889 -691 0
-996 0
-73 0
-574 483 0
-160 -796 0
-7 -101 0
171 -962 0
-470 862 0
-246 -37 0
-408 0
-6 -530 0
-26 0
-565 0
-571 -425 0
-312 751 0
27 -196 0
-182 540 0
-864 855 0
-756 0
-841 0
-743 0
-637 -540 0
-628 -259 0
-688 132 0
-625 0
-950 -733 0
-391 0
-630 702 0
-514 0
-872 0
913 -777 0
-469 0
176 -381 0
-122 0
-909 614 0
553 -684 0
296 -63 0
-981 0
-481 279 0
897 -971 0
-72 931 0
-551 119 0
-959 340 0
-424 132 0
-393 0
672 -22 0
-93 -186 0
-373 61 0
-113 0
-526 0
-692 0
-599 0
-381 534 0
332 -106 0
642 -475 0
-843 0
324 -361 0
321 -298 0
-773 -570 0
-435 0
284 -851 0
-772 0
-648 0
386 -385 0
-102 -508 0
-592 241 0
-623 503 0
-615 236 0
-240 0
349 -251 0
-389 0
-576 -981 0
-40 0
-382 0
958 -762 0
-998 0
-485 0
-158 -805 0
-352 342 0
-9 0
-540 -811 0
-332 -931 0
-160 358 0
-566 828 0
-865 0
652 -698 0
-783 460 0
-941 0
-211 53 0
-758 -977 0
-987 0
-764 0
-680 784 0
-71 -11 0
-48 -724 0
777 -941 0
-550 -563 0
-971 0
-120 0
-364 0
5 -73 0
-887 964 0
-788 -977 0
97 -970 0
25 -940 0
-135 -644 0
-863 -614 0
-742 0
-177 0
-694 0
-136 972 0
-853 -450 0
-700 0
-64 -964 0
-329 0
-75 0
-361 0
-928 -300 0
-547 477 0
-923 0
-289 0
-631 0
364 -106 0
-350 0
-312 475 0
-139 335 0
-997 0
-173 0
-47 0
-423 0
66 -698 0
-668 0
-466 -241 0
-997 -194 0
659 -409 0
89 -810 0
-477 0
-507 0
-30 540 0
-926 0
114 -649 0
-401 0
264 -436 0
-900 -619 0
-693 0
-459 0
-38 0
-104 427 0
-119 0
-114 0
-56 -727 0
-224 841 0
-776 -24 0
-672 -495 0
-270 619 0
-980 0
-604 871 0
-888 0
-859 0
-79 0
-366 844 0
-594 0
-392 0
-813 916 0
272 -894 0
-752 346 0
-720 693 0
-103 -829 0
-735 0
-104 0
-796 0
561 -102 0
736 -317 0
-774 -307 0
-30 595 0
-183 -516 0
368 -611 0
-555 0
-224 661 0
-331 422 0
962 -170 0
-332 301 0
-34 0
-293 0
-463 -441 0
739 -762 0
-376 57 0
-784 733 0
-925 76 0
-466 0
-359 519 0
-346 0
-696 556 0
-976 0
-429 0
-865 0
-130 0
-180 0
675 -609 0
-375 0
-781 -275 0
-358 659 0
-325 541 0
-336 659 0
-120 -400 0
-190 0
-589 998 0
-929 0
-39 0
-175 0
-660 -418 0
-708 0
-224 483 0
-52 -754 0
-348 0
-112 805 0
-173 -618 0
258 -29 0
976 -686 0
-981 0
-673 0
-574 0
-926 0
-784 0
-896 860 0
233 -273 0
-289 0
-652 -451 0
121 -389 0
-561 0
78 -265 0
-146 0
-134 294 0
-478 0
31 -817 0
-257 991 0
432 -387 0
-984 44 0
105 -510 0
681 -612 0
-484 853 0
-959 602 0
-904 -839 0
-578 0
-968 447 0
784 -582 0
75 -529 0
-61 0
-146 0
84 -347 0
586 -452 0
-360 0
-314 159 0
-451 -953 0
-512 0
-677 0
-584 0
-512 0
664 -995 0
-583 -801 0
388 -924 0
-80 439 0
-888 0
-391 0
-10 0
158 -922 0
882 -389 0
-274 0
-109 -402 0
-363 0
-508 -51 0
736 -527 0
-786 0
-943 -814 0
-517 0
-982 0
-136 -679 0
-435 -274 0
-608 0
-360 -894 0
-413 0
-426 559 0
-557 0
-564 255 0
-469 -869 0
-291 0
-614 0
-479 -882 0
830 -233 0
-6 -618 0
-32 810 0
-753 0
-834 0
-615 -801 0
-864 -11 0
-979 0
-816 0
-477 727 0
-430 -985 0
-533 742 0
-894 327 0
-525 573 0
-611 0
937 -716 0
-960 763 0
-385 0
-52 0
-870 -547 0
-574 0
-526 594 0
945 -202 0
-972 0
-274 0
1 -495 0
-964 0
-605 0
704 -989 0
-286 0
-472 541 0
-304 -882 0
-363 -875 0
-928 -667 0
724 -914 0
434 -809 0
-875 895 0
-971 0
-524 -593 0
314 -329 0
-950 0
-927 0
-494 -755 0
-663 453 0
-995 -409 0
358 -2 0
-988 653 0
-743 389 0
-694 255 0
392 -729 0
-917 955 0
-25 0
-693 0
-215 0
-688 0
173 -434 0
-385 0
-349 0
-624 -804 0
-8 -93 0
-336 0
-142 389 0
96 -543 0
-112 0
-434 0
-763 535 0
-600 825 0
-751 -289 0
42 -700 0
-920 0
394 -68 0
297 -462 0
-195 0
-977 183 0
-668 -667 0
-830 754 0
-278 453 0
-822 0
-837 0
-338 0
171 -243 0
-979 0
361 -179 0
-887 631 0
-315 0
944 -155 0
471 -73 0
-570 0
-768 -452 0
-499 0
-309 0
-211 -754 0
584 -970 0
-429 0
-637 687 0
-257 0
-663 -401 0
-158 787 0
-608 0
-758 -188 0
-222 188 0
-869 92 0
-388 0
874 -589 0
778 -481 0
-372 383 0
-442 0
-436 0
808 -262 0
698 -201 0
-88 0
-837 0
-531 71 0
-693 931 0
-200 921 0
-846 -577 0
-911 487 0
-77 -745 0
-893 -756 0
-830 0
-740 0
-58 559 0
-147 -834 0
979 -225 0
-526 0
-315 0
-983 0
-348 327 0
-699 0
-878 -993 0
-355 7 0
272 -669 0
-350 0
568 -574 0
114 -923 0
-928 211 0
-334 0
-340 0
-631 0
-10 0
-667 0
845 -953 0
-980 0
994 -773 0
-83 0
66 -733 0
-606 -597 0
-634 0
-209 0
-506 0
-314 0
-938 0
-967 350 0
-996 0
-504 0
-777 0
-861 517 0
-216 -250 0
-259 0
-811 0
689 -470 0
-906 0
-655 -714 0
284 -43 0
-459 -858 0
257 -364 0
-555 382 0
-600 -730 0
-458 0
771 -356 0
-438 0
-924 -556 0
-664 0
-277 -849 0
-628 0
-751 0
-389 -858 0
786 -108 0
-807 -157 0
-286 -34 0
-410 0
-844 799 0
-634 0
-116 -650 0
-845 -532 0
-140 0
-714 0
-898 95 0
-163 0
-95 -201 0
-486 700 0
-582 0
-638 -613 0
-895 0
-646 0
233 -174 0
865 -573 0
-320 0
-964 -988 0
-3 783 0
-458 0
-349 62 0
-892 508 0
-227 0
381 -931 0
-119 651 0
-535 -610 0
-735 35 0
-64 724 0
-469 0
-278 379 0
-253 0
-95 551 0
-686 932 0
571 -4 0
-261 -1 0
-281 0
-549 589 0
-637 413 0
-647 0
-175 0
-335 0
537 -387 0
-39 0
-261 -66 0
-790 0
-40 145 0
-546 0
-167 925 0
3 -956 0
-279 0
-888 0
-274 -289 0
-37 102 0
-246 0
-244 822 0
-291 0
221 -513 0
-614 -187 0
-279 567 0
181 -617 0
-283 0
-560 -730 0
908 -866 0
-752 -433 0
-520 0
-894 21 0
-492 -922 0
-400 379 0
-1000 0
-540 -242 0
-181 -172 0
-962 0
-549 246 0
-785 783 0
-925 0
156 -172 0
-942 645 0
-260 -411 0
58 -286 0
-943 0
745 -387 0
-901 15 0
-647 0
-230 0
-430 0
-728 -618 0
-766 718 0
-387 0
604 -930 0
195 -371 0
-548 709 0
-344 -171 0
-20 0
-252 0
932 -737 0
932 -905 0
99 -953 0
690 -995 0
-720 -380 0
-544 304 0
-320 419 0
-799 0
-290 0
-521 0
-880 0
-846 -733 0
528 -10 0
-523 0
-236 0
-687 -453 0
-663 0
593 -556 0
-400 -158 0
-824 -815 0
-930 0
-10 471 0
-699 -434 0
-890 0
-558 -701 0
-278 0
-104 -591 0
681 -451 0
-245 0
-310 -630 0
-447 -154 0
-357 0
-182 -525 0
-618 0
285 -474 0
-473 0
-56 -448 0
-851 0
-38 0
-372 0
-215 422 0
-412 910 0
625 -861 0
425 -889 0
-508 286 0
-182 156 0
-391 0
-498 0
689 -777 0
-748 0
-108 287 0
-568 0
-168 14 0
-304 270 0
-939 0
-959 769 0
-391 0
-667 126 0
-767 114 0
-399 0
-394 0
425 -118 0
-799 -730 0
-715 62 0
-899 0
-414 535 0
-320 337 0
658 -699 0
-192 657 0
-687 174 0
12 -355 0
-359 0
-56 338 0
-983 478 0
-575 -332 0
-180 0
896 -521 0
288 -294 0
-468 0
-251 0
-353 0
-339 0
-487 -434 0
-288 50 0
-886 317 0
-976 -579 0
-200 0
-11 0
-240 490 0
-886 0
-842 0
-276 309 0
-893 -901 0
-295 0
-148 -19 0
-366 0
-180 629 0
-563 0
-886 -906 0
-509 -172 0
-256 0
-272 -961 0
29 -170 0
-382 948 0
-949 222 0
-87 -444 0
-891 0
-281 0
-272 452 0
-773 6 0
-196 862 0
-152 -941 0
-648 0
703 -793 0
-595 0
-820 0
-639 -915 0
-916 0
-424 0
-542 0
824 -797 0
-329 0
273 -763 0
-496 541 0
-691 -898 0
627 -37 0
-911 -193 0
40 -518 0
-551 0
465 -477 0
83 -754 0
-143 -939 0
717 -770 0
-872 547 0
-320 -332 0
-727 -358 0
945 -364 0
-217 0
-133 0
-699 383 0
-370 0
-380 -433 0
-496 -413 0
396 -289 0
-735 -726 0
-442 0
-756 -803 0
-728 938 0
52 -171 0
-504 0
-288 -935 0
-529 0
987 -954 0
-70 159 0
-574 -597 0
-425 0
-20 0
-24 -765 0
827 -658 0
-414 0
-392 -790 0
168 -248 0
-419 0
-247 -666 0
406 -914 0
-598 -321 0
-107 0
-364 0
-228 0
-475 0
-270 -403 0
-200 -497 0
-890 0
275 -483 0
-949 703 0
-331 343 0
-304 274 0
-978 0
-696 -971 0
500 -635 0
-691 0
-595 -66 0
-291 -235 0
-816 -236 0
-396 -370 0
-936 330 0
-696 0
-843 -290 0
-740 0
802 -467 0
-582 175 0
-928 0
-463 0
-34 0
-40 0
-362 0
-828 0
-237 -260 0
-678 0
-432 0
-791 0
521 -628 0
-114 0
-254 0
-610 999 0
830 -385 0
-116 789 0
-432 0
-469 0
-225 0
-677 -538 0
-56 -966 0
-856 0
-174 99 0
-346 0
-424 751 0
970 -885 0
-309 0
-374 -85 0
-886 0
-431 0
-448 -886 0
-648 973 0
-101 0
-895 0
808 -267 0
490 -662 0
-624 0
-529 0
-999 -803 0
400 -997 0
-624 -417 0
-976 -552 0
-803 471 0
-558 883 0
-96 0
-886 -618 0
-173 475 0
516 -35 0
-229 0
-48 459 0
-244 0
-432 253 0
-244 -562 0
-357 878 0
835 -349 0
418 -617 0
-395 0
-341 0
-636 0
-73 0
-287 0
186 -950 0
-997 0
-843 701 0
-38 -21 0
-470 -763 0
-216 -783 0
-446 -85 0
-314 0
544 -766 0
-918 -683 0
-168 154 0
-789 0
-80 -833 0
-331 0
-771 0
-59 119 0
-900 0
630 -378 0
794 -707 0
-814 355 0
876 -90 0
-192 0
-130 -185 0
-816 -309 0
773 -978 0
757 -705 0
-127 -245 0
-553 0
-913 0
-865 0
-170 0
464 -497 0
-469 0
-430 0
-817 0
-397 0
256 -550 0
80 -436 0
-270 751 0
-150 -257 0
-204 0
-365 -251 0
-888 0
-847 765 0
-736 458 0
707 -157 0
-348 557 0
-830 139 0
-294 -622 0
-350 132 0
-152 -538 0
-924 0
-157 0
-204 260 0
-455 0
-856 324 0
-583 -718 0
128 -714 0
-720 708 0
488 -175 0
-308 -121 0
296 -82 0
-48 684 0
-15 0
-616 0
-232 -21 0
-559 0
323 -162 0
539 -300 0
-436 0
-543 0
-511 -718 0
-170 -258 0
-688 0
897 -377 0
-157 0
891 -117 0
890 -113 0
-686 903 0
353 -857 0
-510 -611 0
865 -187 0
-404 500 0
-823 0
-8 713 0
-537 0
340 -345 0
-471 0
-678 997 0
-298 -962 0
-804 0
-214 0
-871 0
-189 0
305 -922 0
-446 0
-950 0
-376 -211 0
-408 0
-607 -613 0
-262 749 0
-48 -353 0
-381 -468 0
-575 0
-293 780 0
-1000 -670 0
-822 0
-916 0
-313 0
653 -586 0
-555 0
755 -515 0
598 -913 0
-684 -593 0
492 -731 0
-748 830 0
679 -849 0
757 -833 0
665 -540 0
-171 0
-147 -619 0
-791 375 0
-608 0
-789 963 0
666 -571 0
-439 -36 0
-98 0
262 -529 0
-343 893 0
-549 126 0
-22 158 0
-102 0
-955 0
-970 0
-185 0
-709 -611 0
-874 0
-488 0
-843 0
-59 0
-747 0
-458 0
553 -92 0
-600 0
-188 0
-262 247 0
-137 0
-284 0
-328 830 0
-58 0
-966 -684 0
-270 -57 0
-634 0
-495 0
-654 -270 0
-879 -764 0
-296 0
-805 -154 0
-547 0
-951 633 0
-147 -633 0
-112 0
-810 0
95 -321 0
-784 -444 0
-71 199 0
-334 0
-379 -786 0
-321 -553 0
-73 -185 0
-160 -402 0
-845 -27 0
-76 310 0
-386 279 0
-375 0
-145 0
-323 -250 0
-66 0
-794 -617 0
-185 0
-483 0
-695 427 0
923 -547 0
-432 352 0
-767 0
152 -342 0
-733 0
-786 0
-333 0
952 -957 0
-419 639 0
-867 0
58 -818 0
-455 -757 0
-83 0
-689 0
-858 0
-963 -361 0
-759 0
-88 -97 0
-605 0
-724 230 0
-192 20 0
-822 508 0
-992 -560 0
-365 0
289 -105 0
-501 -60 0
-473 0
-31 -598 0
-191 -639 0
-973 142 0
-501 0
-56 98 0
-51 775 0
111 -761 0
-170 471 0
-973 655 0
-205 39 0
-112 0
-476 157 0
-833 0
-285 621 0
-538 0
-556 0
-255 785 0
-380 -690 0
-360 0
-880 0
-560 -239 0
641 -636 0
-525 0
-597 0
-468 0
-784 0
-706 414 0
227 -691 0
-520 0
954 -489 0
931 -481 0
-84 591 0
-586 0
-49 0
-701 0
-230 -813 0
-828 0
-486 -372 0
-759 0
-776 -830 0
-453 0
-169 0
-557 -355 0
-563 0
-918 0
-232 -49 0
617 -4 0
861 -403 0
-424 239 0
-387 -17 0
-88 631 0
74 -349 0
-914 0
-864 -178 0
-584 0
-24 733 0
-295 0
-152 757 0
-910 -917 0
-791 0
-587 998 0
1 -116 0
-591 0
-55 0
-281 0
293 -347 0
-430 -554 0
-914 0
-627 0
-928 0
-721 0
95 -785 0
-460 -491 0
-946 0
-84 0
-609 0
-677 468 0
-502 -589 0
155 -514 0
-827 -91 0
-569 0
-16 -263 0
-297 0
-274 0
-161 0
-621 102 0
-897 0
205 -58 0
-472 0
-536 -639 0
-840 -544 0
-120 0
-565 0
-743 -715 0
-259 0
-607 0
-381 0
884 -346 0
-402 0
-246 -37 0
717 -202 0
738 -609 0
-789 0
-427 0
-576 -441 0
752 -423 0
-172 765 0
-679 0
-183 0
-611 390 0
-134 -246 0
-537 0
646 -217 0
-130 0
-30 -677 0
-61 0
-795 847 0
-599 -686 0
-946 0
-890 0
-231 475 0
-228 -449 0
-950 165 0
-401 0
-483 0
-557 0
-815 -481 0
-982 0
-49 0
-173 0
-803 0
-384 -211 0
-626 0
-576 459 0
-45 956 0
-401 0
-342 615 0
-945 0
-404 911 0
-295 0
-251 654 0
-823 -969 0
-383 0
-170 0
-418 0
-263 0
-724 149 0
-568 237 0
-719 -737 0
-379 0
-192 -323 0
-407 164 0
548 -338 0
429 -602 0
-194 -409 0
-24 -661 0
234 -562 0
-51 991 0
-956 167 0
355 -964 0
-278 677 0
-159 -129 0
854 -522 0
-825 0
-509 -524 0
545 -694 0
-444 326 0
-834 0
-565 -43 0
-246 -42 0
-443 0
-799 914 0
-534 0
-355 -75 0
-541 0
184 -357 0
-936 -139 0
-769 0
-951 -7 0
-755 0
-375 0
-288 0
-54 957 0
-39 340 0
-950 -761 0
-576 132 0
-370 -889 0
-775 -795 0
-168 678 0
32 -268 0
-874 0
277 -850 0
-971 0
-892 0
-336 0
-935 388 0
-532 0
-595 0
-796 0
97 -988 0
-350 175 0
968 -993 0
-406 -681 0
-46 -291 0
-814 0
409 -402 0
-272 -833 0
-169 0
-721 0
524 -651 0
-495 828 0
-340 -548 0
-895 -919 0
-780 135 0
-750 639 0
-965 -635 0
-55 0
-884 -426 0
-882 0
-519 0
210 -486 0
-632 0
-249 0
-955 919 0
-14 -153 0
-110 0
212 -866 0
-813 0
-20 0
-776 -245 0
-359 -685 0
-766 511 0
-397 0
-19 0
474 -740 0
-990 0
-438 -897 0
-971 0
-854 -206 0
-568 0
-149 0
-14 -524 0
-360 -561 0
-590 982 0
-638 -713 0
-688 764 0
-900 -1 0
-916 0
-976 0
-691 0
-437 0
-573 0
-706 -265 0
-326 707 0
-169 0
-364 863 0
-97 423 0
649 -578 0
-742 0
-657 0
-817 0
-66 103 0
-253 0
-152 636 0
-893 0
-332 0
393 -761 0
-896 666 0
-659 0
-751 -739 0
-338 151 0
-463 0
-928 173 0
-940 0
-56 34 0
-617 0
-164 0
-997 -986 0
-566 518 0
-714 0
-803 0
-215 685 0
-825 0
-285 0
-202 0
-189 774 0
-142 0
-431 0
-875 0
-343 0
-708 0
-752 54 0
-374 174 0
-184 -469 0
-176 0
-24 819 0
-204 0
-631 473 0
-479 -347 0
-838 0
-429 -241 0
268 -722 0
-744 895 0
-350 0
-448 721 0
-752 557 0
-86 -292 0
-399 -873 0
-701 -299 0
525 -1 0
-271 -539 0
-740 0
-357 988 0
-670 -459 0
-797 0
-587 -74 0
-438 0
643 -858 0
52 -59 0
-649 0
-843 0
-18 -225 0
-8 0
-272 0
-391 167 0
-966 0
-596 0
-944 562 0
-624 -15 0
-823 0
-368 -149 0
-343 0
427 -443 0
755 -92 0
-87 0
792 -982 0
560 -178 0
-450 0
-367 516 0
-931 0
-791 146 0
-855 170 0
-972 0
-26 0
-16 898 0
-521 0
-134 391 0
595 -66 0
-557 902 0
-391 0
986 -290 0
-906 447 0
-307 0
-385 0
-526 142 0
-697 0
-326 0
-562 0
-486 -477 0
-180 -67 0
-662 0
-547 0
502 -681 0
-250 246 0
-166 53 0
-256 707 0
-484 0
-510 0
-88 -51 0
-109 0
-163 0
-928 469 0
248 -928 0
-959 -251 0
-527 -212 0
-887 0
-205 662 0
-303 0
-712 0
517 -642 0
773 -850 0
-669 0
-692 0
-221 461 0
-849 0
184 -124 0
-639 -754 0
912 -801 0
-554 0
-386 0
-162 0
-462 0
992 -475 0
787 -378 0
-86 990 0
499 -675 0
-960 857 0
-567 0
-555 0
272 -326 0
-277 438 0
-103 -174 0
-322 0
176 -936 0
-412 -449 0
-955 0
-561 0
274 -85 0
-420 -994 0
-551 0
-244 0
-894 0
-887 0
-411 0
-755 0
176 -653 0
-515 0
-908 0
-852 541 0
-455 266 0
-644 503 0
-143 0
-391 -115 0
-440 0
-659 670 0
-821 -43 0
420 -708 0
-165 -164 0
-374 0
-182 -509 0
-391 -597 0
-94 -810 0
-776 -282 0
-184 0
-328 182 0
-775 0
777 -572 0
-319 789 0
-276 0
-34 0
426 -921 0
-488 -106 0
-68 0
-616 0
670 -258 0
-92 0
-72 291 0
-440 -337 0
-439 0
-571 0
-5 387 0
976 -422 0
-28 13 0
707 -621 0
-937 271 0
736 -172 0
-685 0
67 -733 0
163 -953 0
-533 0
-256 0
-638 0
-964 0
-176 467 0
-703 -303 0
-740 255 0
-537 0
867 -252 0
-526 0
-139 0
227 -537 0
-445 0
-496 -527 0
-382 -129 0
-830 0
-944 -787 0
-487 0
-268 0
-575 0
-436 -194 0
152 -158 0
-208 0
-38 204 0
-355 0
-852 869 0
537 -827 0
-968 0
-431 0
-664 638 0
-184 0
-532 0
-477 0
-485 -660 0
-13 460 0
-983 511 0
-816 -466 0
-103 -177 0
-465 0
163 -748 0
-722 0
-194 0
-903 -513 0
-348 0
-279 -25 0
-884 0
-432 0
-526 0
537 -462 0
-323 -410 0
-832 0
383 -321 0
-483 719 0
-163 0
603 -837 0
-909 0
-399 -929 0
-598 43 0
-460 0
-751 -793 0
-8 465 0
-196 110 0
-276 0
-432 659 0
-213 804 0
-511 718 0
376 -293 0
-879 0
-870 62 0
-152 988 0
-198 0
-188 -211 0
861 -122 0
-24 -907 0
-229 -89 0
336 -418 0
-579 -834 0
-106 -266 0
-746 0
-968 -461 0
-964 0
237 -810 0
106 -406 0
-499 29 0
941 -674 0
-83 0
32 -122 0
-805 -626 0
-5 0
-33 0
-782 0
-591 0
-167 0
368 -574 0
-224 913 0
-325 -340 0
451 -642 0
-319 52 0
-375 -629 0
-392 -730 0
-335 0
-221 86 0
-335 756 0
-605 0
-155 0
-605 -898 0
-722 0
-601 -777 0
551 -161 0
-503 -909 0
-270 -562 0
-326 238 0
-569 559 0
-288 269 0
-622 0
-312 0
-167 0
717 -786 0
-40 0
-85 -859 0
-528 -717 0
-572 0
-159 -661 0
-430 490 0
89 -935 0
-716 0
-401 0
-832 -732 0
-485 -123 0
-4 0
345 -662 0
-35 839 0
-708 -435 0
-686 0
747 -618 0
-344 -167 0
-183 890 0
-126 -786 0
-609 -153 0
168 -341 0
776 -125 0
-672 -236 0
-91 0
-432 0
-14 0
538 -147 0
-719 -606 0
-374 516 0
-457 0
-966 652 0
234 -357 0
658 -372 0
82 -894 0
-331 -881 0
-724 -252 0
-848 180 0
-544 245 0
-19 -657 0
-473 0
-286 -106 0
-66 0
-905 0
-553 0
-165 278 0
-765 147 0
-184 0
-640 523 0
-765 0
-257 0
-561 0
-696 542 0
-124 0
217 -686 0
-607 0
433 -530 0
868 -739 0
864 -130 0
953 -4 0
-539 -465 0
-184 0
880 -282 0
-968 923 0
126 -618 0
-477 -243 0
-888 0
-280 709 0
-384 -581 0
-555 0
-889 0
-11 21 0
-110 0
-108 679 0
-43 213 0
-936 462 0
2 -689 0
-637 0
-153 0
-125 982 0
-446 -878 0
-433 0
619 -179 0
-181 139 0
-823 -170 0
-741 645 0
-544 -714 0
-13 796 0
-944 0
-399 -997 0
-440 -158 0
-16 0
-248 274 0
640 -948 0
745 -829 0
-775 820 0
-611 -249 0
713 -683 0
-523 430 0
-420 254 0
14 -881 0
-959 -724 0
-544 0
-123 0
-85 -236 0
-170 -530 0
916 -820 0
-228 0
840 -772 0
-786 0
-744 -61 0
-953 0
-223 994 0
-158 -579 0
-118 -996 0
-976 -951 0
-75 783 0
-241 0
-538 0
-74 0
-130 0
-881 0
-512 0
-740 -722 0
-831 0
-242 0
-664 -809 0
-598 955 0
-447 0
-922 0
-502 0
179 -76 0
-102 556 0
46 -666 0
562 -171 0
161 -486 0
466 -798 0
-482 0
-744 355 0
-486 -529 0
-503 319 0
-607 -452 0
-402 0
-116 -508 0
794 -732 0
-133 0
-384 0
-329 0
-66 950 0
683 -50 0
-695 -669 0
412 -977 0
-493 -179 0
800 -836 0
677 -282 0
426 -33 0
-596 660 0
-686 0
-335 -342 0
-857 0
271 -545 0
-304 536 0
-736 999 0
-819 678 0
-830 -90 0
-348 0
314 -643 0
936 -291 0
-930 0
-582 206 0
-406 0
-854 -194 0
-574 0
875 -676 0
-94 655 0
-35 0
273 -98 0
-722 0
-757 -539 0
373 -867 0
-143 92 0
-249 -497 0
-40 760 0
-470 -36 0
556 -595 0
-893 686 0
-776 0
-704 0
741 -179 0
-191 -202 0
747 -836 0
849 -278 0
-68 358 0
-431 468 0
-872 171 0
-925 580 0
-415 -820 0
-395 0
-294 0
203 -474 0
-548 -724 0
-174 0
-992 -802 0
345 -454 0
-876 -617 0
-632 274 0
-414 0
160 -757 0
379 -621 0
-40 0
-746 0
-749 -188 0
-143 -57 0
-512 -833 0
242 -43 0
-153 0
861 -98 0
-442 0
-172 0
989 -554 0
-206 -332 0
-267 0
-782 -521 0
-687 321 0
-758 146 0
-979 0
-868 0
-62 -211 0
436 -514 0
-216 931 0
-839 -786 0
418 -267 0
-431 0
-504 -380 0
-504 -94 0
-112 261 0
-105 0
-336 0
-6 0
-731 0
706 -193 0
-594 0
-56 521 0
-381 0
-539 -555 0
-103 582 0
338 -105 0
-829 895 0
-559 703 0
-455 -428 0
-650 0
-565 0
-741 -43 0
-381 0
-28 -395 0
964 -698 0
-148 0
-586 0
-582 291 0
-887 557 0
32 -571 0
704 -937 0
-391 -810 0
-208 57 0
-380 0
-108 -834 0
90 -710 0
-399 0
-820 892 0
-939 0
417 -858 0
-826 0
-635 0
857 -461 0
322 -309 0
-834 0
-621 -476 0
-82 0
-863 -867 0
-568 -14 0
-736 -526 0
-422 700 0
427 -194 0
-112 0
-968 625 0
-592 -690 0
-403 0
-475 -161 0
-240 837 0
-629 212 0
-445 710 0
-461 661 0
-511 0
-272 0
-180 0
-679 316 0
-620 487 0
-473 0
-580 -857 0
-898 0
-838 831 0
-166 0
-491 0
-366 0
-645 0
-40 395 0
-638 19 0
-20 828 0
-453 0
-188 0
-6 -412 0
736 -619 0
-70 -228 0
-671 0
-930 0
-56 809 0
486 -2 0
-657 0
-286 0
-730 0
-158 0
-259 510 0
-610 30 0
-640 -836 0
-752 468 0
-108 0
-774 -66 0
-970 0
-616 -265 0
-745 0
-439 108 0
-463 -542 0
-223 429 0
-256 27 0
152 -373 0
-484 -737 0
-508 941 0
-660 0
-775 -646 0
-207 31 0
-43 0
-136 94 0
-266 0
-5 839 0
-247 0
-87 0
626 -337 0
-175 158 0
-576 207 0
-38 0
-801 0
-301 -545 0
-240 -719 0
591 -713 0
-424 0
-526 -788 0
-126 0
-962 0
-844 -595 0
-119 0
-157 340 0
-790 629 0
-959 0
429 -626 0
-256 758 0
-839 -763 0
-342 285 0
-297 0
-818 0
-361 0
-558 355 0
-879 0
-214 0
528 -438 0
-840 442 0
288 -397 0
-616 0
-300 0
-876 822 0
-304 0
-639 0
-711 -348 0
-2 0
-248 540 0
-37 0
-544 110 0
-672 169 0
-140 -466 0
-141 0
-875 -897 0
-326 -618 0
770 -470 0
-630 -666 0
-242 0
-320 0
-688 0
-760 -113 0
964 -27 0
104 -348 0
88 -965 0
-440 0
776 -222 0
-897 0
611 -618 0
-171 198 0
-770 7 0
-420 0
-226 223 0
-381 -466 0
-45 862 0
-645 70 0
865 -421 0
-541 -561 0
869 -770 0
-877 0
-643 0
286 -482 0
-15 -254 0
-4 943 0
-167 578 0
-984 0
-319 -596 0
37 -265 0
-669 780 0
-864 0
-924 0
-455 218 0
120 -629 0
-541 -892 0
-58 0
136 -96 0
-461 -345 0
-52 0
-589 357 0
-736 0
-957 398 0
-500 -811 0
-578 0
-405 -914 0
152 -930 0
-329 0
-418 0
-995 0
-363 0
-40 0
-407 444 0
-536 -509 0
-416 0
-718 0
-24 -173 0
-164 0
-926 0
-392 307 0
-708 0
-153 0
-101 -500 0
-559 0
-434 0
-805 70 0
-102 0
-535 -594 0
-573 0
329 -299 0
-163 0
-44 510 0
-230 -780 0
-1000 185 0
998 -281 0
-169 0
-69 -498 0
-313 0
-503 762 0
-958 0
-180 631 0
-945 0
-140 0
-936 -161 0
-531 238 0
-975 834 0
594 -35 0
-98 -930 0
-158 -682 0
-916 868 0
-693 0
12 -747 0
-279 542 0
-983 842 0
-392 0
-903 -734 0
66 -637 0
-535 -989 0
-805 0
51 -780 0
-129 0
-992 150 0
-416 -219 0
-93 0
-746 0
-199 -737 0
-502 875 0
-4 453 0
-581 -938 0
-617 0
-610 0
-952 -74 0
-989 382 0
-285 -987 0
808 -505 0
-27 0
50 -309 0
-354 0
-559 146 0
-359 -407 0
-116 0
-271 -477 0
-107 0
922 -877 0
-264 258 0
-918 0
-609 0
-735 181 0
-169 0
-310 787 0
-652 166 0
170 -203 0
186 -906 0
-814 0
-391 0
-177 0
-147 0
884 -457 0
-610 0
-536 0
916 -659 0
-786 0
-943 -117 0
-676 566 0
-715 0
-620 0
-91 422 0
-318 0
675 -692 0
-3 -209 0
-100 0
-676 -138 0
-923 0
-88 -134 0
-396 -931 0
819 -436 0
-592 0
-903 851 0
-741 0
-469 0
-37 0
-586 303 0
-192 -167 0
-469 583 0
-144 484 0
-299 0
-36 79 0
-248 0
-564 0
-92 0
-439 0
-943 0
-863 0
-669 836 0
923 -73 0
-630 0
851 -76 0
130 -372 0
-815 0
-64 478 0
-606 -763 0
-240 -591 0
-942 0
-770 0
-486 0
-952 0
-391 0
-621 0
-279 0
-371 -82 0
-932 0
-798 -486 0
-762 719 0
-789 0
-932 -547 0
-135 229 0
-252 534 0
-930 0
563 -485 0
332 -969 0
-543 0
-768 530 0
-944 -575 0
-421 -403 0
-418 0
-200 963 0
-302 0
490 -163 0
-96 -162 0
257 -132 0
-510 -154 0
589 -442 0
-181 0
244 -561 0
-254 0
-208 173 0
-174 0
298 -689 0
-69 0
898 -53 0
480 -284 0
643 -498 0
-456 0
906 -948 0
-264 743 0
-174 180 0
-393 0
-405 0
-336 0
912 -417 0
444 -170 0
-31 0
880 -878 0
-872 -513 0
-517 0
235 -330 0
-871 -497 0
-176 0
-874 0
-335 708 0
56 -743 0
-925 0
-848 674 0
353 -49 0
-293 429 0
-293 0
-60 0
-83 0
-576 0
-256 -964 0
-403 -82 0
876 -739 0
-72 -119 0
366 -138 0
-580 0
274 -267 0
-717 0
77 -419 0
50 -234 0
-25 0
-501 652 0
-646 46 0
-74 0
-265 0
-504 0
-487 0
610 -67 0
-443 0
-550 -891 0
832 -560 0
-128 676 0
-723 0
-118 0
648 -652 0
52 -945 0
-458 -442 0
-582 254 0
-976 0
-551 -61 0
-542 0
996 -915 0
-637 214 0
976 -641 0
-138 0
-164 -163 0
-930 887 0
656 -788 0
-651 0
478 -857 0
-641 0
-719 -606 0
-135 0
-454 -726 0
-796 -163 0
-258 0
473 -173 0
-233 0
-779 0
-87 0
1000 -443 0
458 -669 0
285 -330 0
-699 0
-240 -539 0
-482 0
-728 -233 0
-706 0
-111 0
200 -74 0
984 -870 0
-24 -838 0
-374 563 0
-842 0
-316 718 0
-744 -698 0
-306 0
-831 0
-167 -133 0
-357 0
-715 -442 0
-474 0
-511 0
-97 0
67 -161 0
-499 0
-341 0
-18 0
874 -514 0
-742 179 0
-659 0
-593 0
-652 0
-411 677 0
-748 0
-732 623 0
-182 -738 0
-521 0
-736 828 0
-690 0
-786 0
-751 0
-412 822 0
-739 -458 0
-201 0
-319 -459 0
570 -681 0
-899 0
-769 0
-609 0
-630 0
-429 549 0
700 -537 0
-926 719 0
-200 -931 0
-496 585 0
-582 391 0
-291 261 0
328 -23 0
-435 0
-56 459 0
-239 95 0
577 -141 0
-136 0
-663 0
-20 0
-323 -561 0
-910 0
-892 0
-784 0
-828 0
-720 583 0
-783 0
-616 -497 0
-591 0
-30 172 0
186 -42 0
-844 0
154 -757 0
504 -139 0
154 -541 0
-686 0
-805 0
-728 -971 0
-26 0
-934 -950 0
-308 0
-175 211 0
-299 157 0
-223 -342 0
-884 0
-591 932 0
-23 -279 0
-198 115 0
-522 0
-411 887 0
-531 0
-822 842 0
-372 446 0
-448 -349 0
-512 617 0
201 -197 0
-770 -625 0
550 -905 0
-341 -667 0
-741 0
66 -51 0
-930 0
-824 819 0
-387 0
-151 -309 0
-550 -995 0
-925 -859 0
643 -845 0
796 -177 0
-418 0
-791 -899 0
692 -977 0
-299 0
-526 -673 0
-233 943 0
-133 0
954 -763 0
-283 0
-891 423 0
848 -300 0
-229 -346 0
-748 0
643 -889 0
-610 822 0
187 -401 0
-740 0
568 -305 0
-709 0
-368 0
-991 0
-592 0
-249 -961 0
-82 0
-216 0
-134 -484 0
-148 -627 0
-886 -878 0
-454 0
-892 0
-309 499 0
370 -373 0
-672 0
-110 -929 0
-171 23 0
-701 -843 0
-279 -969 0
360 -517 0
-840 -819 0
-76 0
-438 74 0
-615 275 0
-181 -146 0
-224 0
-854 0
91 -106 0
-95 -589 0
-542 0
-868 -866 0
-544 947 0
-448 0
-84 0
-987 -65 0
69 -722 0
-885 0
-418 -89 0
-15 142 0
-166 -4 0
-928 0
-737 0
993 -410 0
-240 0
-667 0
-859 0
-598 93 0
-858 0
-506 0
-83 0
-578 0
-231 -174 0
-331 -665 0
488 -436 0
-837 0
-199 0
-389 -85 0
444 -626 0
711 -137 0
256 -23 0
-485 0
-418 -545 0
-464 0
-128 736 0
-736 46 0
-287 0
-131 319 0
-422 -686 0
-331 982 0
153 -595 0
51 -409 0
-856 0
-101 277 0
-856 0
-910 -403 0
-264 63 0
-243 862 0
-63 0
-270 -597 0
-732 -18 0
-79 0
-488 0
-463 0
-866 0
-367 948 0
848 -209 0
-481 0
-374 -731 0
-311 0
-190 0
-729 0
363 -857 0
-614 317 0
905 -817 0
-531 0
-888 -877 0
-642 0
-273 0
-660 0
-384 -555 0
-78 10 0
-639 382 0
-102 0
-504 -271 0
-454 0
-815 -670 0
-229 0
-178 -353 0
-679 0
-864 596 0
-616 378 0
-508 -107 0
824 -309 0
-973 838 0
-150 0
-918 508 0
-356 -187 0
-386 0
-472 0
-60 -945 0
-271 0
745 -587 0
-462 -915 0
-928 130 0
-208 -782 0
-352 -607 0
-550 0
-332 0
-352 -454 0
-93 -171 0
-46 0
267 -853 0
-533 0
-144 0
-29 990 0
-372 -811 0
-549 0
-903 811 0
-803 0
-636 0
-852 844 0
-558 -645 0
-408 -630 0
74 -386 0
-618 0
-929 0
-647 410 0
-618 0
-968 -87 0
-148 0
468 -554 0
-986 0
768 -547 0
-596 -218 0
-238 94 0
-299 0
-470 0
-244 869 0
-909 0
-511 0
-624 -265 0
-410 0
-188 382 0
-580 -145 0
-416 -181 0
-295 558 0
-913 0
-374 0
-111 -349 0
-15 0
388 -961 0
-186 0
-335 924 0
-408 -734 0
-800 858 0
-461 0
-247 522 0
-182 0
897 -786 0
-122 0
-327 0
-810 718 0
-760 0
-296 -957 0
246 -817 0
-628 -90 0
-992 0
-512 -762 0
-409 0
-839 -159 0
881 -147 0
-204 735 0
-991 0
-991 0
-747 0
-460 -723 0
-16 0
-590 -268 0
-74 0
568 -105 0
-100 0
-343 0
-711 524 0
-15 0
-462 0
-947 0
-795 -875 0
-314 0
-999 0
-786 0
-208 -814 0
-892 -250 0
-117 757 0
-201 967 0
-264 -421 0
-188 -275 0
-895 -164 0
-295 0
-678 196 0
552 -6 0
635 -747 0
-790 -186 0
-827 405 0
-477 389 0
122 -473 0
-407 0
-705 0
-571 0
190 -897 0
181 -345 0
252 -401 0
-803 0
-88 245 0
-562 807 0
-943 391 0
-633 0
-183 474 0
-991 213 0
-847 0
-555 -402 0
1 -94 0
-680 -542 0
-65 0
-584 -57 0
-574 -203 0
-214 493 0
472 -793 0
-469 -890 0
-526 0
-735 452 0
-16 232 0
-698 0
-433 0
-452 332 0
-793 0
-732 -682 0
-663 666 0
81 -131 0
-278 -955 0
-760 614 0
837 -554 0
-631 0
944 -129 0
433 -106 0
-270 0
-243 0
-876 375 0
-32 -501 0
225 -434 0
-709 550 0
-493 -860 0
-709 -532 0
-870 772 0
-400 -451 0
-911 269 0
313 -850 0
49 -228 0
-37 0
217 -166 0
-799 -289 0
-785 -297 0
-408 928 0
-224 831 0
-515 654 0
-83 0
60 -435 0
-54 0
-562 0
818 -969 0
-874 0
837 -777 0
-479 -159 0
-206 0
-920 -852 0
377 -162 0
-626 -297 0
-305 0
-932 -508 0
505 -821 0
-492 -443 0
-99 0
-619 0
-968 0
217 -189 0
-415 0
-528 -296 0
-838 0
-139 0
-329 0
-504 0
584 -842 0
-887 0
-721 0
-704 -817 0
-918 0
-357 0
-704 0
-856 0
685 -634 0
-24 169 0
-988 0
-806 0
-306 0
-212 86 0
-124 -834 0
-767 903 0
-776 85 0
-652 -401 0
-419 0
945 -913 0
-661 0
-626 -706 0
-719 0
-998 -995 0
-224 0
-178 0
-439 890 0
-35 0
-286 598 0
-766 0
-166 4 0
-877 -489 0
-661 -826 0
888 -900 0
-802 0
-126 0
-667 0
749 -27 0
-904 -722 0
779 -740 0
-713 0
-763 0
-302 7 0
96 -670 0
829 -953 0
-630 567 0
-729 0
-320 314 0
-569 0
-573 0
-678 0
-712 -468 0
400 -540 0
418 -905 0
-47 669 0
-314 119 0
-446 726 0
-197 -10 0
-479 -118 0
-68 926 0
-253 0
-528 -284 0
-823 428 0
226 -769 0
450 -444 0
144 -930 0
-975 658 0
-104 897 0
-838 -435 0
-435 0
413 -618 0
164 -612 0
-742 0
-627 0
921 -109 0
-652 103 0
-820 527 0
-360 85 0
-623 0
-31 378 0
-845 0
-287 301 0
-657 -89 0
-195 0
-405 -539 0
-857 0
-83 0
-1000 -986 0
-172 0
288 -846 0
-707 661 0
-943 990 0
-375 -666 0
-856 198 0
885 -58 0
-308 0
77 -26 0
-647 0
-999 -946 0
-458 0
-5 750 0
-78 0
-997 821 0
-606 0
-16 -473 0
-469 997 0
-348 0
-846 100 0
67 -154 0
-485 0
-740 0
-624 0
-522 -209 0
-142 0
723 -538 0
-269 949 0
-46 -906 0
-890 0
-240 -726 0
-311 0
112 -502 0
-630 212 0
-911 -539 0
-3 0
-283 0
-111 0
-848 -725 0
-503 937 0
41 -589 0
-109 -996 0
-131 7 0
522 -515 0
-479 0
-654 303 0
-472 -722 0
-18 0
-488 -76 0
-615 242 0
-521 0
-176 31 0
-154 0
-524 22 0
-939 -665 0
-401 0
-760 0
-406 -810 0
-435 0
-301 923 0
-286 -243 0
-933 0
-871 -809 0
-42 0
-547 0
-775 810 0
-235 0
-462 0
381 -465 0
-932 -330 0
-306 0
-280 155 0
-252 0
-349 -980 0
-635 55 0
-126 666 0
-8 564 0
-993 0
-227 983 0
-754 479 0
-427 0
-400 949 0
-281 0
-274 0
970 -570 0
-128 -773 0
-752 314 0
-318 -182 0
-49 0
-624 0
-16 -215 0
-240 966 0
-84 -123 0
194 -526 0
-289 0
-763 0
710 -770 0
-958 -644 0
-790 731 0
-586 -618 0
-272 0
-349 0
383 -153 0
-614 0
-128 -363 0
-133 -491 0
-512 626 0
-398 0
-286 0
-982 213 0
-47 0
-682 -809 0
-767 861 0
-166 0
-221 572 0
-436 0
-966 0
225 -557 0
-171 -985 0
-811 0
-497 0
-465 0
157 -593 0
-853 -484 0
751 -193 0
-230 0
744 -144 0
-118 0
-876 -675 0
-206 0
-810 -538 0
290 -123 0
-757 -531 0
-327 0
-808 0
-310 -996 0
-839 -795 0
-109 0
-597 335 0
-519 0
-680 67 0
-836 0
-800 -805 0
-65 0
-814 450 0
-127 -917 0
-674 23 0
-922 0
-229 790 0
-576 732 0
978 -604 0
-807 -882 0
819 -939 0
969 -555 0
-107 -891 0
-611 0
275 -843 0
-135 0
-87 823 0
-295 -413 0
-822 -706 0
-157 0
-103 0
-668 804 0
-815 0
-891 0
280 -228 0
357 -994 0
-839 995 0
-114 0
136 -239 0
-11 823 0
-11 0
-216 -753 0
-714 0
-744 792 0
-789 387 0
674 -254 0
-834 -282 0
-324 0
536 -478 0
-662 -545 0
-694 -629 0
-507 607 0
-60 774 0
-536 -580 0
-252 -641 0
769 -316 0
-671 333 0
-397 0
-913 0
-572 0
-407 0
267 -489 0
-624 873 0
-798 -132 0
80 -526 0
-260 0
-391 0
-783 0
-960 0
-859 -138 0
-314 270 0
-496 -1 0
-510 0
-116 -235 0
-152 -923 0
736 -31 0
429 -665 0
-848 -334 0
-626 0
-935 0
-803 0
-350 -517 0
-423 291 0
336 -721 0
-591 834 0
-607 669 0
-14 0
-788 0
-13 -650 0
-746 0
-256 0
-37 -781 0
-324 0
-47 0
-184 515 0
-308 0
962 -765 0
-950 -860 0
51 -57 0
-800 -657 0
-503 0
-77 0
-358 -605 0
-679 -953 0
-87 -565 0
-193 0
-859 -202 0
260 -834 0
-535 21 0
-695 -923 0
64 -740 0
-152 -334 0
-548 0
-677 -457 0
-765 0
585 -781 0
706 -678 0
-180 0
-661 0
-259 0
-214 0
-771 0
-638 -899 0
-451 294 0
-174 -509 0
-680 -765 0
-975 285 0
473 -186 0
-503 0
-888 493 0
-21 0
-963 0
-384 -709 0
-226 0
635 -577 0
-184 0
-576 0
-893 799 0
-87 0
-111 0
-169 0
-178 0
248 -486 0
-605 151 0
-172 0
-459 -625 0
-560 0
-328 -369 0
-636 0
-864 -171 0
-952 0
-851 255 0
-539 0
824 -230 0
80 -926 0
-118 -273 0
-62 947 0
-678 -171 0
88 -279 0
-200 -439 0
-261 -365 0
-549 -36 0
-6 0
-563 527 0
104 -594 0
-85 0
-494 0
520 -267 0
-48 0
-700 751 0
-980 -177 0
-416 266 0
746 -291 0
-599 -979 0
-276 0
688 -33 0
-480 -287 0
-898 334 0
-515 0
-662 0
-944 752 0
-928 0
824 -988 0
-933 -706 0
-495 0
-536 0
-926 0
-93 0
-983 53 0
-838 394 0
-792 16 0
-640 882 0
-493 886 0
-836 -753 0
-296 16 0
-589 -500 0
-957 0
-108 0
533 -305 0
224 -220 0
-588 0
-653 0
292 -801 0
-338 -578 0
-146 -169 0
-731 0
-559 0
-133 0
-625 0
-863 0
-785 0
-763 0
-590 -602 0
-688 -758 0
-280 -738 0
-3 0
731 -284 0
-608 0
-647 0
-87 0
-799 0
-975 293 0
-64 106 0
-872 0
-460 0
-545 0
-815 -644 0
-424 0
-523 23 0
235 -393 0
-939 0
-979 349 0
-957 0
-395 -609 0
-581 701 0
504 -19 0
441 -508 0
-598 0
-734 0
804 -833 0
-141 -140 0
-128 0
-344 -231 0
-304 0
-904 0
-862 0
-797 838 0
-831 461 0
-2 327 0
5 -409 0
-98 0
-332 0
597 -897 0
-426 270 0
-451 0
-935 0
-92 0
-394 0
-892 471 0
-568 -311 0
-660 581 0
8 -922 0
-610 -313 0
-910 99 0
-612 0
-695 509 0
-744 -986 0
-238 0
-702 261 0
-40 0
-772 -379 0
-429 -557 0
-16 -706 0
-869 -369 0
458 -452 0
-718 0
-897 0
-533 0
-113 0
697 -28 0
-246 387 0
-758 972 0
-551 0
-976 -219 0
-602 535 0
-583 170 0
-209 0
-620 -945 0
821 -706 0
-691 0
-113 0
-749 0
-896 -308 0
-145 0
-18 0
-296 0
-202 0
-225 0
-391 485 0
-8 197 0
-686 0
-87 -299 0
-352 0
680 -198 0
-208 -698 0
-824 0
-296 0
-477 0
-619 0
-848 495 0
-660 638 0
-590 0
-885 589 0
-884 700 0
-71 0
-808 378 0
-830 -884 0
-576 -474 0
-568 0
-374 311 0
-992 746 0
-585 0
688 -626 0
-867 0
-736 -55 0
-266 0
-138 0
-416 -931 0
-591 0
-256 317 0
482 -813 0
-572 0
-275 0
383 -105 0
-768 329 0
-239 -604 0
-171 342 0
982 -481 0
-583 -195 0
-119 -278 0
-127 -787 0
-849 0
-384 -918 0
-904 202 0
620 -987 0
-208 0
-924 478 0
-303 155 0
196 -602 0
-944 0
-380 -866 0
552 -855 0
-445 659 0
446 -201 0
-209 839 0
-977 655 0
-587 0
-775 948 0
-58 0
-651 -194 0
-295 -109 0
-288 192 0
573 -673 0
569 -563 0
-112 -605 0
-620 -740 0
-567 533 0
-32 -192 0
-181 -436 0
914 -510 0
-493 0
-79 366 0
-811 0
-851 0
-216 -636 0
-126 0
-798 -355 0
-432 16 0
-79 0
363 -797 0
-844 0
-418 0
-623 604 0
778 -587 0
-574 -890 0
-919 0
-269 935 0
-807 -868 0
-764 -931 0
369 -190 0
968 -164 0
-781 -986 0
-420 0
-607 556 0
-703 -717 0
543 -505 0
-628 -146 0
-316 0
-622 557 0
-64 0
-700 -625 0
-118 87 0
-284 0
-327 445 0
-710 839 0
-867 431 0
-736 -446 0
989 -49 0
-352 0
-373 0
808 -699 0
-281 0
-999 0
-333 935 0
-31 570 0
-100 287 0
850 -554 0
-96 0
-659 0
-931 0
-607 99 0
-650 0
352 -463 0
-944 0
-663 0
907 -364 0
-567 0
-940 0
-422 0
-478 853 0
-639 -623 0
-284 0
-32 0
901 -257 0
947 -41 0
-853 397 0
-668 0
-771 0
-713 0
376 -738 0
-120 -436 0
88 -603 0
-528 -781 0
-925 0
-40 -997 0
-903 -550 0
601 -525 0
-439 -263 0
646 -665 0
-379 -673 0
-804 381 0
-515 0
308 -172 0
-608 -194 0
-230 0
-176 0
-407 0
-427 0
-90 0
593 -626 0
-348 0
-574 197 0
-969 0
-44 559 0
-386 0
32 -645 0
-124 0
-62 -493 0
380 -457 0
-544 0
-616 446 0
-938 719 0
-527 -255 0
-647 362 0
-342 0
-71 -843 0
840 -652 0
-888 0
-694 0
-849 0
-958 492 0
-686 580 0
161 -356 0
-543 0
75 -893 0
-632 879 0
-160 -450 0
-526 0
-730 0
995 -451 0
-734 446 0
-658 0
-118 0
-524 0
-325 -419 0
-479 347 0
-111 314 0
-67 0
-451 -777 0
-35 581 0
-215 0
-420 0
-303 0
-431 0
-815 -365 0
-936 -616 0
-882 0
-780 0
-167 422 0
-432 0
-936 748 0
-520 0
-583 438 0
169 -713 0
378 -140 0
-411 0
-273 -841 0
-205 -930 0
-822 -502 0
-94 -253 0
-368 596 0
60 -618 0
-317 -411 0
-160 251 0
-339 -657 0
-400 0
910 -145 0
-448 954 0
-130 0
-628 -868 0
-779 -242 0
-372 -538 0
-685 -156 0
-550 0
-864 -769 0
-133 -801 0
-748 0
-904 655 0
-3 -833 0
-71 571 0
-156 0
-879 581 0
-911 -458 0
697 -482 0
-367 123 0
708 -578 0
-596 0
-366 0
-756 -386 0
-8 753 0
-567 0
-102 156 0
-927 18 0
-608 -306 0
-879 -27 0
-783 -324 0
-274 0
-991 0
-920 109 0
-344 -490 0
-696 -273 0
968 -760 0
-263 723 0
-426 0
616 -495 0
-344 -452 0
561 -931 0
-956 0
-876 956 0
-861 0
-230 -341 0
-724 -802 0
-903 725 0
-55 205 0
-48 0
-757 -332 0
107 -586 0
433 -794 0
816 -256 0
536 -333 0
-899 0
-135 -657 0
-808 148 0
-586 0
-271 0
-426 0
970 -478 0
-517 0
435 -925 0
-920 643 0
-406 535 0
-824 638 0
-35 0
323 -682 0
-887 0
-121 71 0
-993 0
-364 0
-407 847 0
-958 0
-615 342 0
-939 0
-181 613 0
-551 996 0
-203 -739 0
-896 0
-205 -417 0
-757 0
-146 86 0
-614 0
258 -123 0
-870 253 0
-154 -945 0
-328 -332 0
72 -102 0
48 -64 0
890 -258 0
-915 -682 0
-407 0
80 -345 0
-386 -97 0
-344 65 0
-303 -438 0
-297 0
-870 877 0
-468 -722 0
-720 0
-468 -465 0
168 -176 0
-280 0
-405 0
-424 0
-762 0
-669 0
-484 -906 0
-636 0
316 -43 0
-495 610 0
-232 0
-4 198 0
-783 -763 0
322 -217 0
-127 -234 0
-932 0
-51 -35 0
-882 -329 0
-111 670 0
497 -609 0
-592 0
-393 0
-982 -252 0
131 -617 0
-938 847 0
-182 0
-551 948 0
-112 430 0
-276 45 0
274 -212 0
-966 -331 0
842 -957 0
-384 0
-438 0
-615 0
-488 713 0
-223 -387 0
-64 0
-836 0
-201 0
-375 67 0
-516 21 0
-98 0
-946 0
-536 0
-674 0
305 -507 0
-920 -918 0
-714 623 0
-637 702 0
-814 571 0
-548 782 0
-86 0
-8 -455 0
-283 0
729 -523 0
-683 0
-703 213 0
88 -259 0
-319 0
-735 210 0
-379 0
99 -93 0
-438 0
-674 0
400 -399 0
-463 -238 0
-853 0
-288 0
-837 0
-702 -347 0
-801 0
-341 479 0
-675 -138 0
-55 717 0
-615 0
-497 -681 0
-15 -812 0
-641 0
-514 0
-995 0
-462 -852 0
577 -254 0
-623 655 0
-806 0
-926 -745 0
-250 0
300 -259 0
-647 75 0
326 -705 0
-564 0
433 -342 0
907 -505 0
-704 617 0
27 -98 0
-318 46 0
921 -276 0
-61 0
-711 302 0
-374 0
962 -609 0
-237 0
-960 522 0
-248 -220 0
-593 0
-376 0
-287 0
-300 -435 0
493 -210 0
640 -632 0
-582 0
-398 -286 0
-587 0
-899 -570 0
-547 0
-422 751 0
151 -265 0
-195 0
-130 150 0
609 -309 0
-272 -755 0
110 -49 0
-432 0
-765 268 0
-171 0
-674 0
-672 0
-510 -622 0
-298 -18 0
455 -593 0
-99 0
195 -194 0
-867 0
-333 0
-44 0
-766 -413 0
-317 0
808 -84 0
-200 0
98 -827 0
-919 0
254 -506 0
-631 0
985 -515 0
669 -369 0
-907 0
332 -353 0
-680 0
-383 934 0
705 -810 0
-176 -781 0
-268 0
-448 -134 0
472 -316 0
-864 0
797 -595 0
-798 0
-241 0
-4 0
926 -234 0
-122 0
306 -964 0
-231 0
-862 0
-584 762 0
-98 0
-111 0
-911 -321 0
-103 0
899 -683 0
-119 0
-99 -90 0
960 -938 0
624 -364 0
-618 -97 0
930 -677 0
-24 0
-785 0
845 -721 0
-848 18 0
-676 0
-893 0
-628 783 0
-847 -799 0
-64 0
152 -163 0
-460 -91 0
-95 385 0
-589 0
144 -207 0
-340 687 0
-769 0
-718 0
385 -877 0
-259 0
-710 0
231 -977 0
-984 760 0
-828 0
191 -113 0
-131 0
-750 0
-512 -404 0
608 -585 0
-444 -651 0
-39 -305 0
-994 0
109 -819 0
-959 0
-854 0
-918 -747 0
-396 -889 0
773 -203 0
-494 261 0
-134 0
936 -301 0
88 -531 0
-428 0
92 -994 0
-292 990 0
-326 658 0
65 -130 0
648 -140 0
-92 431 0
-305 0
777 -885 0
-319 0
-831 0
-300 0
-118 -834 0
-304 0
-30 0
-860 295 0
-144 -982 0
-640 -962 0
-827 0
-995 0
-20 0
-695 0
-685 -125 0
-219 0
-709 -987 0
-201 0
-975 -999 0
452 -473 0
24 -746 0
-687 -75 0
-604 -762 0
-469 -596 0
-811 0
-889 0
-51 0
-120 0
-825 0
-867 -409 0
-797 0
818 -905 0
-111 535 0
968 -755 0
-949 0
-368 -548 0
-877 -372 0
-272 0
540 -907 0
-428 -697 0
-811 0
-599 0
-417 0
-305 0
-488 -473 0
-294 47 0
-480 -624 0
-21 0
-485 -636 0
-903 -33 0
68 -786 0
-69 0
-242 0
-991 -851 0
712 -783 0
770 -892 0
-204 495 0
432 -533 0
515 -877 0
-45 0
-862 0
-783 0
-761 455 0
-712 0
-31 -957 0
445 -505 0
-894 -652 0
-688 179 0
-850 0
-452 0
-795 0
-687 70 0
-296 0
-640 0
-46 0
-509 0
-277 0
-128 0
840 -557 0
-327 0
353 -891 0
-563 0
-4 -531 0
-501 0
108 -378 0
-500 0
-763 0
-718 0
-7 0
290 -900 0
-359 58 0
-479 0
-754 0
-883 0
-239 -716 0
-702 139 0
170 -700 0
-256 653 0
-692 0
-86 0
522 -706 0
-122 0
-956 0
-89 0
586 -866 0
82 -522 0
-67 0
-768 267 0
-343 -99 0
-696 0
-63 -273 0
-865 0
-992 0
378 -549 0
-369 0
-608 0
-173 -853 0
-528 301 0
-396 495 0
-561 -193 0
818 -347 0
-950 0
-866 0
-80 0
540 -979 0
-400 0
290 -530 0
888 -983 0
-930 0
-438 0
-549 500 0
-648 0
-117 -882 0
-419 0
-343 -778 0
-307 -489 0
361 -353 0
-224 634 0
-595 886 0
-923 0
-742 -244 0
-373 0
-814 76 0
-385 0
998 -465 0
-198 0
-38 78 0
-343 -298 0
-563 -722 0
304 -353 0
520 -784 0
-104 -586 0
-664 -603 0
-97 0
-743 623 0
-368 0
-347 574 0
-606 0
482 -515 0
993 -885 0
-256 0
53 -289 0
-45 0
-263 -459 0
-47 0
-245 -201 0
-807 0
-836 111 0
-334 0
-631 0
-621 0
656 -834 0
-855 -858 0
-881 0
128 -22 0
-547 -610 0
-784 0
-298 198 0
-973 687 0
-967 0
-582 0
-8 -612 0
-664 0
-939 0
-488 -555 0
-511 460 0
-567 0
-222 0
-334 0
539 -381 0
-318 0
-320 -891 0
-208 244 0
822 -465 0
-512 390 0
-632 -899 0
275 -450 0
360 -325 0
-904 0
-403 0
489 -660 0
-855 271 0
670 -273 0
-755 477 0
-792 -663 0
-685 0
384 -353 0
448 -750 0
-266 0
-688 -435 0
608 -68 0
-911 254 0
-974 878 0
-583 -306 0
-877 -634 0
-761 0
776 -449 0
-357 0
-734 335 0
-481 0
-852 -2 0
-486 0
449 -382 0
-360 -530 0
-430 -222 0
-312 -732 0
-184 204 0
430 -90 0
-615 277 0
-334 0
-224 0
-253 229 0
-467 5 0
896 -395 0
-542 -405 0
-200 0
321 -860 0
-946 0
578 -460 0
-942 -829 0
-819 0
-775 -734 0
-789 0
-573 763 0
-621 -737 0
-777 0
-324 -195 0
-900 0
-264 -115 0
-251 0
-19 0
-870 0
-8 0
-954 0
-328 636 0
-737 0
-216 -15 0
-525 0
-751 -610 0
-886 0
-223 0
314 -297 0
-300 0
994 -420 0
314 -82 0
-434 511 0
-658 -754 0
-570 -697 0
-449 0
-616 -383 0
-255 916 0
-27 0
-246 911 0
-576 -651 0
-928 408 0
-299 0
-346 0
-287 229 0
-36 0
602 -580 0
9 -195 0
242 -189 0
-642 0
890 -753 0
-686 557 0
800 -435 0
-808 98 0
172 -921 0
-573 0
-24 921 0
-497 0
-784 889 0
-400 405 0
240 -356 0
-350 311 0
-339 0
-291 983 0
-458 0
-487 0
789 -250 0
-89 231 0
-569 0
-683 437 0
-573 295 0
-630 404 0
-595 -802 0
652 -545 0
281 -982 0
-879 -433 0
-246 0
-838 0
-55 0
-684 901 0
-338 0
250 -309 0
-571 0
-407 0
-93 -444 0
432 -687 0
-584 0
-907 0
-182 0
276 -946 0
-402 0
-443 0
-738 0
-75 0
-560 -353 0
-392 0
-802 0
785 -234 0
49 -349 0
-957 0
-1000 996 0
875 -473 0
791 -993 0
-406 -218 0
-2 0
178 -254 0
-32 774 0
775 -449 0
-672 -556 0
-458 -946 0
147 -603 0
-960 106 0
835 -81 0
-622 0
-519 43 0
-157 0
-757 614 0
528 -552 0
369 -203 0
-383 148 0
-3 0
-261 925 0
-806 455 0
-235 319 0
-751 -407 0
-589 0
88 -819 0
556 -393 0
979 -588 0
-807 0
506 -681 0
-762 0
-705 0
-355 23 0
-541 0
-919 -519 0
-167 0
-777 0
-941 222 0
-616 0
-143 0
-464 0
-96 0
-55 -498 0
-373 -412 0
-573 -172 0
82 -398 0
-305 0
-636 -452 0
-447 -562 0
-500 0
-82 0
954 -795 0
-798 315 0
-23 0
-456 0
-413 701 0
-384 -563 0
889 -203 0
-376 0
-628 0
-600 154 0
275 -988 0
-126 -579 0
-793 -545 0
-969 0
738 -469 0
-907 486 0
896 -102 0
-880 638 0
-375 822 0
-728 0
-318 578 0
-443 0
601 -605 0
-608 0
-345 0
-971 0
-936 0
-22 0
-557 0
-124 -569 0
481 -230 0
-33 0
651 -482 0
-381 0
-286 318 0
-996 -137 0
675 -977 0
-312 -260 0
117 -297 0
-801 0
-165 -697 0
-455 -605 0
-801 0
-888 -658 0
161 -961 0
-815 0
-648 453 0
-74 0
-215 441 0
428 -897 0
-988 0
-518 0
-96 0
9 -577 0
-880 -207 0
-965 205 0
-216 411 0
440 -917 0
-87 0
-471 11 0
945 -622 0
-672 -376 0
528 -632 0
-160 860 0
662 -898 0
210 -507 0
-647 -667 0
-284 31 0
-601 0
-492 0
-177 -521 0
-583 -211 0
-582 0
-724 605 0
-14 0
840 -667 0
488 -700 0
-841 735 0
-69 85 0
-344 -948 0
-688 -100 0
468 -979 0
75 -538 0
747 -313 0
-562 0
-596 0
-503 -91 0
-101 -459 0
946 -502 0
370 -715 0
-228 0
-528 218 0
-98 -634 0
-728 -985 0
-576 0
-980 0
160 -818 0
-691 0
-950 -42 0
481 -511 0
-279 0
-312 536 0
-232 -903 0
-731 0
-543 0
269 -459 0
-178 0
-702 -714 0
-384 -486 0
520 -833 0
-564 0
-206 0
-586 0
-129 0
-351 0
-691 430 0
-4 0
-678 -578 0
-982 0
-869 0
-339 0
-277 -132 0
852 -498 0
-128 -646 0
-27 0
17 -214 0
-983 0
-352 0
-888 -714 0
-212 0
-631 0
-476 0
-167 711 0
-476 -690 0
-849 -577 0
-613 -841 0
-979 -362 0
-36 0
-631 -474 0
-13 0
-332 -291 0
-544 0
-483 0
-538 0
-533 742 0
-996 0
-655 0
-405 0
-518 599 0
-182 0
-559 499 0
-981 0
-974 -196 0
-29 -618 0
-736 0
-638 717 0
-355 0
-679 207 0
-135 0
-689 0
-75 0
283 -107 0
-896 0
-166 259 0
496 -946 0
-767 -277 0
-686 263 0
648 -910 0
-48 0
41 -207 0
-268 -492 0
-532 0
578 -5 0
616 -911 0
-755 -313 0
-463 0
-289 -593 0
810 -435 0
-670 0
477 -169 0
-454 68 0
-895 0
-757 0
-867 -345 0
-210 6 0
-121 -273 0
-170 0
986 -641 0
-508 719 0
-247 37 0
-86 877 0
-671 -116 0
261 -202 0
-328 0
-46 991 0
498 -362 0
-688 774 0
789 -625 0
993 -781 0
865 -908 0
-483 0
-404 621 0
-992 0
-487 79 0
-308 0
-415 834 0
832 -496 0
-614 157 0
-789 772 0
-62 0
-506 0
-472 0
1000 -691 0
-104 -59 0
50 -674 0
-15 141 0
715 -557 0
-639 0
337 -268 0
424 -278 0
-716 0
33 -451 0
-642 742 0
-357 0
172 -114 0
-477 0
-443 0
-746 0
-504 -218 0
-456 0
-46 0
-448 -493 0
32 -665 0
-753 0
596 -587 0
-1000 0
-847 -964 0
-284 0
-513 0
-439 83 0
-957 -603 0
-763 0
-60 127 0
-335 612 0
-540 -235 0
-559 543 0
-7 -196 0
925 -465 0
-365 0
-7 727 0
186 -241 0
-750 151 0
384 -885 0
-816 0
80 -36 0
-616 0
-248 0
-761 0
880 -677 0
839 -873 0
-37 182 0
-747 0
369 -121 0
-380 -268 0
-348 0
-487 0
-582 -291 0
-356 0
-420 0
-348 -769 0
-454 476 0
-405 0
731 -267 0
-143 517 0
-867 -914 0
-978 0
-905 0
364 -363 0
-314 0
-103 500 0
-151 0
-710 0
-454 -106 0
620 -867 0
289 -466 0
-566 0
-334 -653 0
-134 123 0
164 -817 0
-803 541 0
-35 -841 0
-765 407 0
-623 0
281 -209 0
-982 580 0
-767 231 0
-119 -197 0
-947 0
-406 -1 0
-998 -773 0
-435 309 0
-275 0
-402 0
475 -954 0
-300 0
280 -354 0
637 -83 0
861 -585 0
-648 0
-785 0
-858 -25 0
-55 0
-218 0
-130 902 0
-515 886 0
-928 0
-734 0
-45 0
-724 0
-286 0
-655 0
-867 -185 0
-788 -594 0
-25 0
-991 0
469 -42 0
89 -866 0
-183 35 0
-478 0
733 -465 0
-433 0
-893 -428 0
257 -531 0
-695 667 0
-254 0
-592 262 0
-232 824 0
-368 -366 0
-213 571 0
-844 0
96 -279 0
409 -894 0
-767 0
-464 0
-730 0
-577 0
-602 359 0
-376 447 0
489 -756 0
-69 -491 0
-14 0
-709 0
-296 0
-165 0
-766 -244 0
-984 0
-464 -695 0
-744 0
185 -767 0
-591 0
-940 726 0
-611 -530 0
-514 0
-172 0
-97 0
185 -35 0
35 -546 0
-768 0
258 -409 0
115 -218 0
-247 97 0
-919 -601 0
-508 0
547 -449 0
-712 243 0
-312 -100 0
456 -890 0
-951 0
-481 0
-229 0
-487 -826 0
-97 0
-998 -371 0
-365 0
-962 0
998 -241 0
-673 0
-455 0
423 -121 0
-810 0
-620 -795 0
-205 0
-109 612 0
-793 919 0
-166 -361 0
-83 0
-819 0
-112 0
-886 -994 0
-864 0
-368 172 0
53 -587 0
-584 976 0
-679 -613 0
-323 -98 0
-294 -460 0
-592 -934 0
-576 0
-251 0
714 -604 0
-971 0
-514 591 0
-675 0
786 -421 0
-982 -329 0
673 -563 0
-476 0
-847 -41 0
-481 0
835 -404 0
-271 -489 0
-625 -369 0
-324 0
-703 387 0
-89 0
-999 37 0
736 -382 0
-952 -434 0
-123 0
-175 -161 0
-191 178 0
-550 -854 0
-567 -347 0
-48 0
800 -101 0
-469 0
-390 29 0
-684 0
120 -578 0
-307 0
-263 -35 0
-256 871 0
-360 -715 0
108 -68 0
-845 707 0
-289 -529 0
-885 301 0
-92 -379 0
82 -75 0
-738 0
-807 -93 0
-350 -382 0
-294 -836 0
-270 661 0
-845 686 0
368 -76 0
-686 0
69 -657 0
-16 33 0
-137 0
558 -193 0
-709 0
-5 -43 0
992 -550 0
-67 -385 0
-230 -842 0
-125 799 0
-13 0
-797 -913 0
-400 -601 0
-74 -657 0
-392 -18 0
-464 0
-160 0
-780 0
-6 676 0
-655 244 0
665 -441 0
-927 758 0
-266 0
-823 -111 0
-503 340 0
-238 239 0
110 -625 0
-889 0
-694 -459 0
-806 0
-859 0
-437 0
-129 0
-754 0
-72 -808 0
-145 0
-353 79 0
-447 0
-225 0
-287 0
-335 0
-686 -531 0
837 -218 0
-389 -410 0
792 -272 0
-359 -489 0
-208 914 0
-38 0
-346 0
-799 0
-743 0
379 -729 0
642 -718 0
-915 0
-748 -579 0
840 -856 0
-255 -127 0
-468 350 0
-85 -425 0
-727 348 0
-987 -330 0
-288 0
-563 0
578 -610 0
-943 -670 0
-943 -161 0
-909 0
-982 650 0
-962 0
-429 0
-669 -588 0
-508 0
-853 -331 0
-961 0
-494 0
-236 0
-46 -877 0
-584 0
-707 -426 0
932 -483 0
-406 0
-987 0
-43 0
269 -611 0
-78 -365 0
-483 -75 0
-23 -477 0
-54 981 0
38 -625 0
-59 0
-429 411 0
-782 83 0
-162 0
-38 0
-345 0
-309 630 0
-594 0
-477 0
-526 987 0
-919 -513 0
-73 0
-151 174 0
-537 0
-502 59 0
154 -614 0
-240 -1 0
-412 -724 0
-624 -125 0
-800 0
-441 0
-844 13 0
-3 0
968 -458 0
552 -2 0
-318 -902 0
-344 0
-972 0
-110 0
497 -580 0
921 -619 0
-353 0
-167 670 0
-336 0
-376 0
-411 0
-451 0
-728 -375 0
586 -594 0
-702 -625 0
-919 701 0
-486 932 0
265 -513 0
-508 0
-949 0
-264 -528 0
800 -457 0
-196 0
820 -721 0
-439 0
-759 348 0
-377 0
656 -553 0
-696 65 0
-386 0
-994 0
-140 0
-466 0
-751 0
-485 0
-218 359 0
539 -261 0
-904 492 0
99 -241 0
-407 -845 0
-1000 -609 0
-774 0
-532 0
-278 0
-1000 -894 0
-519 0
-840 0
-487 0
-99 701 0
-286 87 0
-888 755 0
-44 -281 0
-301 0
-53 0
-512 617 0
-591 -161 0
377 -173 0
550 -921 0
-511 0
-163 0
713 -506 0
803 -914 0
-29 0
-508 0
-812 -689 0
-121 0
-736 150 0
808 -448 0
-693 -466 0
-3 701 0
480 -409 0
408 -641 0
-684 0
900 -523 0
-100 62 0
-773 0
790 -754 0
840 -531 0
-400 0
-257 0
-68 -219 0
-991 0
-244 0
636 -761 0
129 -772 0
-528 0
-882 0
852 -193 0
-238 -36 0
-279 -705 0
605 -595 0
-795 0
-387 0
-156 0
-409 0
-409 0
-320 147 0
-475 -802 0
-217 0
-916 -995 0
-59 -635 0
-758 -409 0
915 -837 0
283 -177 0
371 -5 0
-587 901 0
-186 0
848 -29 0
-344 -71 0
18 -571 0
-260 0
186 -366 0
-385 0
-815 0
-158 0
-238 399 0
69 -851 0
-430 835 0
994 -211 0
672 -216 0
245 -794 0
-763 0
-877 -780 0
-904 -567 0
356 -276 0
-9 0
-426 -617 0
-665 0
-395 0
963 -833 0
-186 0
-342 -417 0
-686 -76 0
-775 387 0
-295 -292 0
-246 -262 0
-807 581 0
48 -628 0
441 -964 0
-54 293 0
-183 -619 0
27 -748 0
955 -340 0
-467 -193 0
-906 679 0
-27 663 0
-460 0
928 -44 0
-853 0
-445 310 0
379 -145 0
929 -885 0
-936 -228 0
-770 0
-450 0
-559 0
-632 0
442 -347 0
-257 0
-596 0
-666 0
-822 -21 0
936 -186 0
-118 -347 0
-428 261 0
-712 921 0
-93 -442 0
-988 0
-975 0
-528 -51 0
-759 0
-679 0
-974 62 0
-669 0
-857 -521 0
793 -412 0
-34 0
-580 0
-28 78 0
-127 -923 0
-583 0
-939 0
-202 0
-870 -37 0
-184 911 0
196 -841 0
-140 0
-501 0
-236 -577 0
362 -555 0
-960 0
466 -257 0
-514 0
-268 -539 0
-30 -341 0
715 -115 0
-326 -180 0
-431 0
-388 0
-355 903 0
-527 0
896 -67 0
-869 543 0
-656 476 0
-380 0
-685 -955 0
3 -509 0
-365 0
-982 -739 0
-788 334 0
-44 0
384 -388 0
-668 -827 0
-654 0
929 -237 0
648 -289 0
-515 0
-164 0
-485 -418 0
-983 -156 0
-903 -353 0
-750 0
-234 0
777 -733 0
-771 -58 0
-66 0
-675 0
-172 -410 0
-714 0
-190 772 0
113 -311 0
255 -961 0
-479 0
-491 0
-154 0
-417 0
-486 333 0
-923 0
-500 0
-880 0
-599 789 0
-226 0
-184 -838 0
557 -906 0
665 -730 0
591 -857 0
-248 59 0
-616 84 0
-856 -914 0
-6 -301 0
594 -164 0
-288 0
-519 602 0
-53 0
-294 -507 0
-899 -258 0
-296 193 0
-376 459 0
-448 824 0
-359 0
-380 0
-42 0
-804 0
-712 0
-918 509 0
-583 0
-208 141 0
-590 991 0
-507 0
-829 0
-870 358 0
-999 0
-185 0
-185 0
-103 0
34 -941 0
-744 -53 0
-699 0
-328 -669 0
-729 0
753 -541 0
-944 59 0
-884 0
-583 -571 0
-29 806 0
-310 0
-399 -202 0
-135 950 0
-732 167 0
-549 0
58 -172 0
-880 560 0
-553 0
-846 -76 0
-62 -978 0
-657 -113 0
-292 0
-844 0
-310 -821 0
-287 925 0
737 -707 0
109 -505 0
-358 -33 0
597 -11 0
-503 0
-637 683 0
-441 0
567 -649 0
-414 4 0
976 -95 0
-940 413 0
-916 0
-972 0
-291 0
-989 0
-361 0
-827 0
-44 0
-741 0
-19 0
-460 702 0
-286 869 0
-10 0
-935 227 0
-46 0
-432 -213 0
763 -51 0
-274 0
-750 319 0
522 -617 0
-669 0
-272 195 0
8 -736 0
-293 0
-678 406 0
-504 580 0
-328 0
-892 38 0
-522 0
-568 0
869 -585 0
-678 0
-511 0
-995 0
-350 -429 0
304 -930 0
971 -37 0
-168 -613 0
-825 0
-769 0
-142 -756 0
-241 0
218 -937 0
-361 0
-543 0
-888 -61 0
-517 -641 0
571 -394 0
-727 -45 0
-416 927 0
-536 -114 0
-653 0
-815 0
-296 0
-998 0
-918 0
-866 0
-56 873 0
-982 159 0
-336 499 0
-288 0
-945 0
-581 -460 0
810 -203 0
-437 0
-220 0
-380 0
-112 543 0
-924 -764 0
886 -457 0
-21 253 0
434 -205 0
-944 406 0
-870 149 0
-739 0
-525 0
450 -718 0
-308 0
-424 -690 0
938 -428 0
-836 -313 0
724 -651 0
-328 140 0
-234 0
-581 772 0
-197 0
-752 0
-590 0
-496 216 0
-410 0
-68 556 0
-502 677 0
-873 0
697 -169 0
575 -953 0
-285 0
-728 0
-541 -378 0
-912 173 0
966 -705 0
-511 118 0
-360 -66 0
834 -534 0
-808 916 0
-499 309 0
-813 0
-860 0
99 -227 0
-713 0
-352 0
-479 -682 0
-131 -313 0
288 -542 0
-142 -771 0
154 -418 0
-859 0
-828 -540 0
-864 896 0
-303 612 0
188 -521 0
-574 0
-132 -996 0
-381 -369 0
-353 0
-82 0
-180 0
-321 0
845 -634 0
-463 218 0
-441 0
-912 -692 0
-336 313 0
-223 0
-808 -735 0
-873 0
-2 0
488 -44 0
-208 817 0
-757 165 0
-797 0
-972 0
-675 0
-962 0
-349 0
-5 828 0
-335 199 0
-216 0
-693 94 0
-741 -529 0
-869 973 0
-21 -804 0
-485 0
-953 0
-879 123 0
-920 686 0
-671 125 0
-313 0
-820 -226 0
-847 -798 0
-145 0
-184 939 0
-695 0
489 -851 0
512 -338 0
-256 0
666 -67 0
-447 0
-633 0
-796 -105 0
-884 0
984 -820 0
-92 0
412 -435 0
-793 0
-190 156 0
-316 0
-271 0
-892 0
-63 426 0
-753 -849 0
-855 458 0
914 -386 0
530 -68 0
-724 -484 0
-820 0
-860 -33 0
-357 0
-672 -675 0
-741 0
-210 0
-50 0
485 -842 0
722 -662 0
-328 -987 0
-885 0
-390 -11 0
992 -854 0
-546 0
826 -261 0
-433 0
-792 -498 0
-286 -106 0
-294 -604 0
937 -627 0
182 -329 0
-191 523 0
337 -780 0
-135 983 0
-112 0
-501 0
-320 -315 0
-475 0
616 -587 0
-872 0
-873 0
-656 75 0
-661 0
-380 -627 0
853 -745 0
589 -403 0
172 -467 0
-71 0
-220 -65 0
-344 396 0
-24 -672 0
531 -586 0
-145 0
803 -10 0
-432 -908 0
593 -753 0
-688 -674 0
236 -394 0
524 -428 0
-686 0
-470 -781 0
-861 0
-797 -161 0
-194 0
19 -429 0
497 -780 0
-430 -174 0
678 -130 0
888 -493 0
-391 -443 0
-566 0
610 -673 0
-115 902 0
-387 0
488 -795 0
475 -649 0
-556 0
-224 0
-408 51 0
560 -781 0
680 -117 0
753 -811 0
-563 829 0
-576 868 0
-556 647 0
-430 -796 0
298 -540 0
-112 262 0
-53 0
-955 0
35 -818 0
-785 0
-236 0
-782 0
-44 -451 0
211 -9 0
-422 708 0
-618 0
-323 0
-702 212 0
-111 0
-714 -250 0
-693 0
-18 0
-231 142 0
-65 0
516 -601 0
-1 615 0
-950 0
-429 -133 0
-587 0
-918 0
-60 -988 0
-612 0
-347 0
-294 -124 0
-378 0
608 -606 0
-775 0
-498 -297 0
-546 0
-182 0
755 -162 0
-265 0
-6 -524 0
-607 0
340 -634 0
-89 0
-574 914 0
51 -956 0
-304 -837 0
-215 588 0
-893 -929 0
715 -365 0
-245 -682 0
-991 0
-294 21 0
-440 366 0
-834 0
-592 0
-27 0
114 -157 0
-907 0
-157 774 0
-439 0
-734 -251 0
-517 0
617 -454 0
-894 -457 0
-681 0
-511 -361 0
-760 0
544 -942 0
649 -214 0
884 -25 0
-339 -641 0
-460 0
-631 -62 0
-562 0
-782 0
-279 0
-955 0
-319 -717 0
-150 692 0
169 -202 0
-220 0
41 -606 0
-542 679 0
-728 -205 0
-480 155 0
-954 -601 0
-301 0
475 -939 0
-720 0
-826 0
-608 -522 0
-548 -252 0
-224 55 0
-427 0
-862 639 0
-487 374 0
-814 0
-929 0
-136 813 0
-85 -781 0
-851 0
-52 -402 0
-213 -713 0
-227 783 0
-788 0
-489 0
843 -605 0
923 -506 0
-696 264 0
-847 -809 0
478 -889 0
-136 529 0
-835 0
538 -989 0
-87 572 0
-536 0
-498 0
-742 -788 0
-869 -641 0
-236 0
-584 966 0
-614 799 0
43 -844 0
-665 0
-894 -612 0
83 -945 0
-715 0
-550 -142 0
-93 0
-190 0
-794 0
-928 15 0
-125 -874 0
386 -786 0
-901 -589 0
-60 543 0
-289 0
-920 734 0
-911 -5 0
-95 -989 0
-565 0
-280 0
907 -612 0
-94 21 0
-954 0
-64 682 0
-389 268 0
-561 0
-653 -337 0
-147 -922 0
-285 -922 0
-880 0
-920 869 0
938 -43 0
-787 -379 0
-741 716 0
-203 278 0
108 -953 0
-19 0
-941 -666 0
398 -313 0
-735 212 0
-245 0
-982 0
-255 0
-240 -887 0
585 -361 0
-98 0
-376 0
-869 183 0
-614 0
-312 0
-359 -918 0
-380 14 0
-521 0
-894 570 0
-264 0
548 -210 0
-295 -748 0
-478 0
339 -133 0
-350 0
-23 -740 0
-887 0
-285 462 0
449 -76 0
-346 0
-176 -584 0
-109 239 0
-551 628 0
728 -287 0
377 -722 0
-164 0
-535 567 0
777 -338 0
-533 0
-833 0
-148 0
-246 595 0
-701 0
-896 0
382 -329 0
-379 653 0
-788 0
857 -229 0
-111 0
-317 140 0
248 -318 0
-564 0
-404 0
960 -359 0
-711 0
-387 0
-424 318 0
-295 0
-816 -647 0
-71 0
-358 0
-7 926 0
-444 0
-706 0
842 -692 0
-328 980 0
-961 0
-156 0
-995 0
-965 0
-189 -860 0
-312 -882 0
-860 -514 0
-131 0
-682 0
134 -250 0
-14 293 0
-883 0
-212 0
-933 0
84 -155 0
-516 0
979 -817 0
-142 0
-768 -4 0
-8 -482 0
-883 0
-765 260 0
-488 -131 0
-162 0
-691 0
-61 -819 0
131 -836 0
-975 0
514 -275 0
-479 771 0
508 -83 0
-613 0
317 -706 0
-219 0
-23 0
-103 571 0
435 -721 0
-823 -662 0
-717 0
-493 0
-484 879 0
816 -307 0
-171 0
-68 -403 0
-910 0
-389 0
-23 -772 0
-209 0
-597 828 0
269 -915 0
-463 -37 0
-143 121 0
-862 779 0
-995 646 0
-598 0
-218 0
-928 688 0
-636 -532 0
-350 615 0
-943 -895 0
-225 0
708 -532 0
-326 699 0
-846 390 0
-333 0
962 -417 0
-111 -266 0
-269 -644 0
-750 0
-235 0
-239 507 0
-230 0
-9 0
249 -682 0
-176 494 0
-129 0
-678 914 0
-639 0
-924 -796 0
-275 0
-476 0
-763 0
-332 0
-512 0
-452 -665 0
-710 -955 0
580 -841 0
577 -527 0
-220 0
-622 -355 0
-256 912 0
-318 316 0
-469 0
-23 9 0
-575 167 0
-141 -332 0
-400 0
-876 0
-172 -867 0
-478 0
-422 0
-960 0
81 -30 0
-479 66 0
-636 860 0
337 -145 0
-191 0
605 -649 0
509 -386 0
-758 322 0
73 -561 0
-983 0
-127 863 0
-566 963 0
-193 0
-5 0
-350 0
-106 0
50 -621 0
-364 317 0
-730 0
-965 995 0
-578 0
400 -13 0
-63 50 0
-896 847 0
-72 26 0
-102 927 0
-32 709 0
-836 0
-516 367 0
-57 0
-869 -532 0
-522 0
-349 0
-837 -610 0
-779 869 0
-293 695 0
-847 -926 0
-911 -479 0
-314 -737 0
-226 0
-222 -145 0
-870 0
928 -609 0
-56 0
-112 -789 0
-439 0
-615 -638 0
-812 0
123 -445 0
-280 516 0
-382 -786 0
-273 0
-432 -902 0
352 -669 0
-724 0
449 -900 0
-364 782 0
-315 0
-680 302 0
-172 -337 0
-488 0
161 -531 0
34 -561 0
-594 0
-356 0
170 -710 0
-342 -457 0
-915 0
-589 -970 0
-401 0
-941 262 0
-104 260 0
-587 0
710 -889 0
-495 -245 0
-539 -602 0
-423 79 0
-784 0
-551 0
-44 701 0
691 -805 0
-907 94 0
449 -50 0
-396 0
-624 -10 0
-399 0
-673 0
-512 301 0
-633 0
362 -265 0
-325 0
-130 0
-447 0
600 -620 0
448 -517 0
-460 0
-33 0
-906 0
97 -452 0
-455 191 0
-325 -770 0
-272 794 0
-752 -35 0
345 -117 0
-916 0
198 -121 0
-963 0
-301 -842 0
-783 0
-995 118 0
-215 -307 0
-11 0
235 -594 0
-999 0
-560 32 0
-30 94 0
-311 -82 0
-33 0
445 -282 0
-804 0
514 -253 0
-152 -684 0
-916 421 0
938 -907 0
-971 -338 0
-164 0
37 -753 0
-167 746 0
-899 0
-739 479 0
-951 438 0
374 -481 0
-487 0
-93 989 0
-66 0
-297 0
-233 -25 0
612 -642 0
-684 0
-611 -826 0
-60 -418 0
-880 -397 0
-312 46 0
-662 741 0
-402 -90 0
-61 -906 0
-502 -418 0
656 -268 0
-174 -378 0
-52 332 0
-83 0
-990 0
-212 0
-191 -106 0
-931 -226 0
-360 0
-59 0
-286 -227 0
-800 -953 0
-687 -829 0
-22 255 0
-792 0
-893 -763 0
-912 -194 0
-317 911 0
-168 701 0
-796 0
-768 -575 0
-252 679 0
-875 0
-378 0
955 -522 0
-39 0
-367 993 0
-613 -932 0
-707 0
-229 0
164 -218 0
-360 0
-427 935 0
-972 661 0
-478 0
-191 202 0
-961 0
-780 0
-227 0
-222 375 0
317 -425 0
-968 716 0
-269 0
-829 251 0
754 -206 0
-808 0
-187 -835 0
-899 0
-95 -966 0
-295 0
-900 0
-476 0
-260 101 0
954 -985 0
-894 0
-1000 0
590 -577 0
-751 0
794 -97 0
-688 0
-108 861 0
-970 -194 0
-903 0
-953 0
-749 -124 0
-315 966 0
-628 61 0
755 -985 0
52 -977 0
-227 0
-868 527 0
-68 404 0
-997 671 0
322 -917 0
358 -186 0
-239 563 0
746 -657 0
-942 -494 0
-973 -322 0
-180 0
-138 0
-439 111 0
-800 -795 0
-268 0
-125 487 0
-930 0
-23 222 0
-899 0
-374 547 0
-309 582 0
424 -270 0
-829 -113 0
746 -25 0
-328 256 0
956 -794 0
-757 719 0
512 -421 0
-463 -749 0
-877 -467 0
-240 0
-908 0
-944 377 0
-67 0
-200 0
-622 0
-318 0
-500 0
-736 191 0
-136 0
-508 165 0
-404 0
-75 911 0
-994 527 0
-946 0
-275 181 0
-218 0
-175 -916 0
-427 -131 0
745 -308 0
-800 777 0
739 -586 0
-303 -692 0
-16 0
-758 287 0
-472 0
638 -258 0
-562 0
-206 -746 0
-864 -555 0
-408 -994 0
-290 0
-623 0
-190 798 0
-149 700 0
2 -170 0
286 -585 0
529 -399 0
-314 0
-92 -284 0
968 -1 0
-452 0
-472 0
777 -22 0
877 -481 0
-199 893 0
-150 0
-377 0
-541 0
-630 263 0
-565 0
885 -170 0
-142 0
-880 -42 0
937 -501 0
-555 -801 0
-264 878 0
-39 319 0
-778 0
-608 -320 0
499 -804 0
-629 597 0
-967 0
-821 0
-389 0
-538 0
-930 0
-510 0
-458 -250 0
-872 0
-167 -482 0
-698 0
-237 -196 0
-126 0
-783 0
556 -177 0
-918 -306 0
-861 78 0
-59 0
-139 -769 0
-839 687 0
-472 33 0
-730 0
-903 500 0
8 -534 0
411 -170 0
616 -418 0
636 -219 0
-31 0
-261 0
-733 366 0
-626 894 0
-6 0
-472 0
-579 0
-620 308 0
-322 0
-924 908 0
-766 645 0
-495 868 0
-558 0
-431 847 0
-254 -398 0
565 -537 0
-779 0
-192 31 0
-248 779 0
-557 0
-328 186 0
-1000 168 0
-781 0
-51 0
-137 0
-647 0
-514 0
-102 837 0
516 -171 0
756 -57 0
-182 -1 0
561 -169 0
539 -26 0
-304 164 0
-110 0
-972 0
625 -948 0
-47 -177 0
606 -330 0
-707 0
976 -692 0
-330 0
-968 -572 0
-372 0
-368 0
-215 -570 0
-832 -275 0
373 -99 0
595 -817 0
-846 861 0
456 -930 0
-335 621 0
-949 -66 0
-844 269 0
425 -657 0
-798 431 0
-102 0
-532 0
-494 950 0
290 -89 0
650 -973 0
-248 210 0
-946 0
-327 -858 0
-972 949 0
-870 0
-692 -913 0
-503 817 0
976 -931 0
899 -762 0
-751 -561 0
160 -197 0
-24 0
656 -449 0
-136 439 0
680 -489 0
-508 -195 0
-223 0
817 -949 0
562 -221 0
-294 -444 0
-809 0
-823 0
-478 0
-574 0
123 -641 0
-997 396 0
-561 0
490 -402 0
-454 0
204 -834 0
-271 0
-569 0
-16 290 0
-990 0
-647 732 0
-767 -770 0
-276 -946 0
-652 901 0
908 -548 0
-345 0
410 -493 0
672 -164 0
-807 139 0
-328 0
-215 -147 0
-722 974 0
149 -217 0
-820 0
337 -194 0
-938 0
-119 0
843 -261 0
-205 158 0
-9 -417 0
-208 -58 0
-504 -1000 0
-584 629 0
-119 -221 0
-881 0
-69 631 0
-862 0
-328 -853 0
-578 0
-133 0
595 -723 0
-995 0
-289 0
-111 823 0
570 -158 0
794 -83 0
-270 0
258 -555 0
-367 0
-676 711 0
-95 882 0
330 -589 0
-48 -700 0
84 -306 0
-935 249 0
-55 578 0
-740 -97 0
130 -940 0
-620 0
-927 350 0
-770 0
-988 0
-552 0
-776 912 0
58 -594 0
-869 0
-133 0
-342 0
-427 0
930 -533 0
-598 399 0
-624 -838 0
-844 0
-902 0
515 -649 0
-749 275 0
-696 70 0
-243 0
-853 0
97 -654 0
-829 219 0
-383 0
-998 0
-342 -493 0
-519 587 0
-101 -20 0
-696 873 0
-626 0
-513 0
-756 695 0
-72 441 0
-820 0
-735 -924 0
-965 0
-718 0
-118 334 0
-672 0
-900 0
-980 -329 0
-286 772 0
-615 0
-700 0
-333 -137 0
-895 0
-97 0
-382 -658 0
-97 0
-11 0
-15 299 0
-224 -212 0
-146 0
-91 0
626 -881 0
-98 0
240 -501 0
-4 0
347 -33 0
-484 805 0
841 -810 0
-879 14 0
120 -862 0
-238 602 0
-237 862 0
-558 0
-302 947 0
149 -657 0
-96 0
594 -173 0
-147 0
-332 862 0
393 -185 0
-589 0
-585 0
-889 0
-375 181 0
-232 621 0
-870 0
-762 767 0
-143 756 0
-641 0
808 -603 0
484 -658 0
-402 -258 0
-728 -425 0
-549 -186 0
-253 0
-136 800 0
-653 0
-181 118 0
-688 288 0
-678 -916 0
-548 -995 0
-172 -682 0
-592 0
-645 0
-150 405 0
-92 0
-727 0
572 -274 0
750 -889 0
-975 0
-339 0
67 -373 0
-624 0
-141 0
-846 0
-362 0
-123 0
-153 0
-718 763 0
-887 0
-561 0
-646 -102 0
971 -257 0
-110 855 0
-531 0
-840 0
-769 0
-529 0
691 -36 0
936 -229 0
-579 0
-918 -692 0
-949 0
-404 -515 0
-498 0
841 -323 0
624 -737 0
-437 0
-932 532 0
-621 0
-334 0
-1000 0
-509 -465 0
-963 279 0
-955 -371 0
210 -60 0
-325 813 0
-509 -754 0
760 -940 0
388 -825 0
-409 0
-939 0
-96 54 0
-644 -403 0
-631 414 0
-2 -329 0
-530 0
-981 0
-980 0
-630 0
-447 0
552 -42 0
-764 0
-623 -198 0
-867 0
-227 0
-686 711 0
-38 0
-525 327 0
-360 -758 0
880 -163 0
-197 -404 0
-503 363 0
931 -915 0
-603 0
552 -681 0
-170 -530 0
-920 0
-98 0
-792 0
-360 391 0
889 -965 0
395 -364 0
-57 0
-73 0
-598 0
-480 811 0
-917 500 0
-719 223 0
468 -980 0
-776 13 0
-877 0
-601 0
-233 0
662 -809 0
454 -514 0
400 -912 0
-640 -445 0
-466 0
-442 0
-582 882 0
73 -94 0
-704 -435 0
-513 0
817 -37 0
-310 -515 0
-877 0
-436 -186 0
-973 678 0
-328 -825 0
243 -650 0
-309 -260 0
-263 0
-3 0
-775 0
-988 0
-478 498 0
-686 -766 0
-630 0
43 -617 0
368 -175 0
155 -148 0
-564 -874 0
595 -397 0
-813 -17 0
-130 0
-965 -746 0
334 -33 0
689 -460 0
346 -162 0
-504 -646 0
-365 0
-858 0
602 -4 0
-883 0
-634 575 0
-941 0
-360 0
-663 0
-887 -561 0
176 -897 0
-968 -107 0
-26 0
-711 0
-628 0
-743 769 0
-872 -798 0
-200 0
174 -977 0
-975 0
633 -949 0
-889 0
-23 -53 0
-565 939 0
-864 725 0
-157 759 0
-455 -863 0
461 -609 0
-32 955 0
-938 775 0
-846 100 0
-791 0
-186 0
-510 -667 0
-585 0
-252 0
-780 917 0
771 -507 0
-787 0
-558 0
-847 931 0
-152 995 0
-289 0
-493 -748 0
-445 735 0
-782 0
-215 681 0
-152 0
-150 691 0
641 -513 0
-557 0
-873 0
811 -842 0
-972 -948 0
900 -899 0
283 -250 0
-630 -361 0
-351 0
584 -693 0
-839 566 0
-763 0
-107 0
-353 295 0
-493 0
-757 -43 0
-353 0
-875 0
-357 -324 0
-950 -882 0
-533 0
-14 266 0
309 -322 0
-444 0
-357 0
98 -794 0
-24 -954 0
-365 439 0
-14 -724 0
-250 0
-1000 0
-424 -665 0
-653 -402 0
-45 -164 0
-997 141 0
-790 455 0
-874 0
424 -615 0
-847 -554 0
-324 0
-589 0
-541 0
-974 0
-918 0
-32 -531 0
-770 0
-278 0
602 -178 0
-143 45 0
-119 198 0
-128 0
-250 0
-948 0
-728 -420 0
-291 0
-895 0
-884 0
-420 935 0
-829 967 0
528 -955 0
-802 -738 0
-185 0
-150 0
-578 0
960 -951 0
-725 -708 0
-638 34 0
-727 381 0
-592 331 0
-744 380 0
-928 -153 0
-252 0
-6 0
290 -316 0
-28 0
241 -818 0
840 -398 0
-712 767 0
-504 0
-992 0
-392 0
-809 0
-191 -450 0
-653 0
-123 0
-773 0
-395 0
-272 0
928 -988 0
-37 0
601 -340 0
-823 -857 0
-67 166 0
-613 406 0
297 -642 0
938 -260 0
-902 0
-676 -714 0
-606 -140 0
-123 -75 0
-977 0
712 -843 0
-422 -299 0
-253 -20 0
-134 0
-456 -979 0
-208 896 0
-933 0
-707 -874 0
460 -268 0
-448 777 0
-331 318 0
-978 0
-191 -502 0
-319 0
-198 0
588 -298 0
-414 762 0
-552 0
-662 623 0
-469 -468 0
-856 -444 0
-380 0
736 -541 0
-999 -484 0
-80 0
-533 0
-659 0
-575 0
-92 879 0
90 -93 0
-544 0
993 -900 0
-377 0
-724 -810 0
344 -507 0
788 -826 0
-950 773 0
-984 0
-200 898 0
-662 0
148 -667 0
129 -883 0
-264 0
-715 -50 0
-735 267 0
-680 0
-805 212 0
545 -511 0
-278 -666 0
-602 271 0
-861 0
-622 763 0
-262 0
-988 0
-436 831 0
-755 -657 0
-664 919 0
824 -427 0
756 -730 0
84 -722 0
-765 0
-882 343 0
-180 -41 0
-636 0
-494 551 0
376 -788 0
-360 -896 0
-676 -881 0
-970 479 0
-496 997 0
-839 0
-959 974 0
-400 650 0
-71 0
-829 0
-694 180 0
475 -225 0
-648 -235 0
66 -205 0
-589 0
-47 0
-982 -313 0
-365 0
-850 0
-136 0
-590 0
-848 -170 0
-260 206 0
-909 -292 0
-146 0
-118 331 0
-336 -247 0
163 -45 0
-36 0
-656 -593 0
-440 49 0
-359 -804 0
-324 750 0
-856 0
177 -819 0
-598 0
-463 -838 0
-855 -833 0
-848 0
602 -361 0
-241 0
-884 0
708 -842 0
-391 -443 0
185 -398 0
194 -113 0
-650 0
501 -545 0
-926 -17 0
-823 0
-71 693 0
-603 0
-308 479 0
-210 0
-812 0
316 -137 0
-837 -650 0
-548 -41 0
928 -804 0
-792 0
-16 0
-139 -954 0
-365 861 0
-262 0
-775 948 0
-707 0
-389 -891 0
-160 -568 0
-409 0
-552 143 0
-316 0
-512 0
-667 0
-328 -453 0
-358 -290 0
-715 0
-15 -733 0
666 -268 0
-461 -698 0
-317 0
-377 0
-357 222 0
-48 143 0
-777 0
-270 -282 0
-141 0
291 -396 0
-110 31 0
-656 0
-999 -173 0
800 -355 0
-990 0
-162 -721 0
-772 0
104 -829 0
-367 -548 0
-850 0
395 -241 0
-492 0
441 -145 0
-413 -211 0
-26 0
881 -410 0
85 -65 0
297 -314 0
-47 0
449 -401 0
-683 0
-227 735 0
-964 0
-480 -510 0
-828 526 0
-764 0
-292 0
-212 -985 0
-699 0
465 -334 0
365 -666 0
-899 0
-118 411 0
-927 -646 0
-157 0
-165 902 0
-200 -257 0
-514 0
-456 393 0
952 -359 0
-175 0
-800 0
185 -750 0
-380 0
-974 -789 0
393 -234 0
385 -559 0
-743 -442 0
-239 -95 0
-188 0
376 -112 0
-205 0
-120 977 0
-865 0
-51 -337 0
-848 122 0
217 -354 0
624 -583 0
-847 -706 0
-356 -436 0
-524 0
361 -659 0
-39 0
280 -180 0
-709 613 0
618 -107 0
-593 0
235 -233 0
-760 0
-998 0
-360 0
577 -739 0
-305 407 0
-246 -195 0
-289 0
-362 0
-397 -82 0
-119 0
-696 -190 0
-514 0
936 -960 0
-836 -897 0
-587 0
-104 0
-243 0
-693 -938 0
572 -586 0
-968 0
-39 0
848 -124 0
-660 0
-918 0
-240 0
-586 0
-532 0
-569 0
-250 0
-975 -466 0
-966 0
-694 366 0
175 -225 0
442 -260 0
-194 926 0
-824 -473 0
-496 -136 0
-563 805 0
-298 0
355 -220 0
-114 0
-72 -812 0
-7 0
-971 0
-707 278 0
-5 0
-119 -207 0
-652 -26 0
-328 -898 0
-284 6 0
433 -450 0
-159 0
-397 0
-527 0
362 -661 0
-561 0
672 -680 0
858 -74 0
-103 0
-248 -631 0
-258 0
-400 -903 0
547 -858 0
969 -459 0
-197 0
-247 874 0
-36 0
-921 0
-55 0
776 -690 0
37 -290 0
-256 740 0
-735 0
404 -347 0
-34 0
236 -153 0
-543 -427 0
601 -95 0
-985 0
-12 -450 0
-772 -257 0
485 -946 0
-435 0
308 -907 0
-275 0
-360 -215 0
-555 0
-739 0
-773 0
-240 75 0
-167 0
-565 0
-628 -353 0
-760 -91 0
-83 0
-974 -403 0
-892 0
-580 743 0
-776 415 0
-825 0
-868 0
-567 -955 0
-133 0
940 -19 0
-148 0
-300 0
-268 45 0
714 -915 0
-289 0
-926 324 0
598 -825 0
-582 0
-911 0
-448 165 0
-392 -759 0
-660 0
885 -786 0
-858 0
-870 0
-151 0
-328 0
-407 396 0
-758 -309 0
194 -930 0
-571 0
-404 917 0
-105 0
-736 -92 0
-327 0
968 -211 0
-952 877 0
-977 -889 0
-488 401 0
-322 119 0
-84 -58 0
-912 0
-698 0
-497 0
-623 418 0
-368 0
290 -475 0
-341 0
-593 0
-171 247 0
-485 -596 0
-792 894 0
-626 0
-674 742 0
-100 0
-341 0
-965 -970 0
-180 0
379 -594 0
-93 0
-679 0
-130 0
-543 0
-238 45 0
-358 0
-260 0
-604 0
-826 0
-634 -49 0
-154 0
-361 0
-840 -793 0
304 -345 0
-407 0
-213 387 0
-476 270 0
-752 185 0
-773 -763 0
-67 0
242 -465 0
-393 0
-632 0
-309 0
555 -659 0
452 -492 0
-701 0
-171 -635 0
-614 628 0
-110 0
284 -435 0
752 -466 0
-364 0
-142 911 0
-616 491 0
242 -649 0
-719 0
-124 0
-31 -45 0
420 -466 0
267 -332 0
-141 0
-401 0
-674 495 0
-504 0
-964 -329 0
829 -289 0
-6 -963 0
-760 -400 0
-432 0
-879 -845 0
-287 188 0
984 -71 0
-204 0
80 -737 0
160 -748 0
-31 371 0
-205 0
-530 0
-859 0
-543 0
-419 0
-51 0
-464 0
760 -647 0
-20 565 0
-431 257 0
-701 941 0
-992 0
249 -629 0
-971 0
-200 389 0
-24 0
328 -977 0
-530 0
-349 0
195 -666 0
-144 0
-617 0
-120 -638 0
-721 0
-643 0
-128 0
-876 943 0
-180 63 0
-939 0
-484 572 0
-560 -367 0
-813 316 0
674 -172 0
-573 -385 0
677 -786 0
-26 0
-336 0
-846 -830 0
187 -61 0
-392 0
-863 626 0
-662 -57 0
-104 0
-203 709 0
-955 0
-906 391 0
-893 0
-824 0
-40 48 0
-3 -337 0
707 -715 0
-718 884 0
945 -911 0
-882 -569 0
-603 334 0
-928 -20 0
-864 0
-798 -874 0
-413 995 0
705 -410 0
-963 894 0
-94 0
600 -997 0
170 -385 0
363 -298 0
634 -761 0
-98 0
-80 0
-941 -308 0
-245 540 0
-703 0
-384 -974 0
-779 0
-82 0
-827 655 0
-518 0
-921 0
-44 903 0
-781 693 0
-297 0
-515 166 0
-37 655 0
-448 763 0
-518 -589 0
-806 0
-306 -473 0
-276 0
-700 0
-505 7 0
-406 0
963 -761 0
-116 854 0
-335 0
-369 0
-949 0
-599 0
-862 931 0
-715 278 0
-939 270 0
992 -613 0
905 -110 0
-112 951 0
-830 0
-124 725 0
3 -602 0
-111 0
-139 294 0
-908 0
-182 0
-252 0
-217 15 0
541 -817 0
495 -249 0
-846 643 0
140 -465 0
-672 0
-28 -602 0
-866 991 0
-711 -49 0
-741 0
-595 0
-524 -409 0
181 -577 0
-939 0
-214 62 0
-463 0
777 -60 0
-214 0
-236 0
-533 0
-900 582 0
-106 0
-87 0
-929 0
-209 0
-840 -8 0
-931 0
-936 -691 0
-390 0
-239 461 0
370 -339 0
-450 0
-853 509 0
-13 0
953 -356 0
-691 0
-400 933 0
-846 438 0
354 -955 0
-991 501 0
-861 204 0
-657 0
-424 0
-179 0
-704 -703 0
152 -357 0
616 -510 0
-909 0
779 -860 0
-352 -798 0
-518 0
-528 793 0
-236 0
264 -740 0
309 -209 0
234 -877 0
-575 -690 0
148 -459 0
-486 0
-23 0
-962 0
616 -738 0
-364 -145 0
-104 -649 0
-438 0
-902 0
-694 -202 0
-295 -746 0
-639 0
314 -93 0
-722 0
931 -107 0
441 -986 0
-766 0
340 -2 0
411 -533 0
-95 309 0
-904 899 0
-335 -994 0
289 -634 0
-509 399 0
-272 -35 0
-60 182 0
-287 0
-987 534 0
-975 -209 0
-971 0
-766 691 0
-920 -183 0
432 -977 0
-735 0
-863 -626 0
-943 279 0
-30 0
-112 -729 0
-509 85 0
-426 0
522 -613 0
715 -2 0
80 -16 0
971 -75 0
-895 0
-402 -193 0
-287 -663 0
-166 702 0
-933 -660 0
-823 0
-928 0
-939 0
-827 0
764 -777 0
-24 0
-288 217 0
-662 0
-911 0
706 -402 0
-460 0
424 -713 0
-86 375 0
-539 229 0
-949 -779 0
146 -637 0
-758 0
-666 407 0
-958 -339 0
-261 0
1000 -201 0
-943 -713 0
-958 0
-306 -449 0
-239 958 0
-799 0
-660 445 0
409 -807 0
-924 -729 0
-991 0
-723 0
-662 523 0
-455 443 0
937 -315 0
-1000 0
-394 0
805 -51 0
-736 0
-142 -221 0
-737 0
-508 0
-504 -482 0
-345 215 0
-716 0
-334 554 0
-768 960 0
-811 -459 0
-285 0
-800 -292 0
-925 0
448 -306 0
-119 -763 0
245 -306 0
-403 0
-844 -395 0
610 -98 0
-71 102 0
-761 0
717 -803 0
-963 0
-61 0
-284 0
-190 -866 0
88 -352 0
913 -785 0
-470 845 0
-644 0
-592 854 0
-23 443 0
-260 0
-100 381 0
-177 0
-62 0
-338 0
-960 972 0
-647 0
221 -649 0
-857 0
-848 0
-982 -925 0
-622 0
-248 -600 0
753 -201 0
-318 -530 0
-256 -502 0
463 -521 0
-64 751 0
17 -457 0
-913 0
742 -273 0
-483 0
-726 -867 0
-134 462 0
-574 0
-382 0
-560 -153 0
-279 -451 0
-225 0
116 -931 0
-41 0
-672 -873 0
637 -593 0
-183 689 0
-537 0
-771 0
896 -402 0
-748 52 0
-43 503 0
-792 -902 0
-126 0
256 -328 0
-925 0
-157 0
-506 0
-206 -733 0
-283 -610 0
-308 758 0
689 -20 0
-404 0
-688 0
-170 0
-778 0
-782 0
-877 -25 0
-127 -843 0
-808 229 0
461 -154 0
369 -253 0
-207 0
-664 675 0
-713 0
-246 109 0
-767 0
-328 0
-481 0
-819 0
-304 20 0
-488 875 0
-479 406 0
-616 0
32 -985 0
-217 0
907 -51 0
-521 0
-988 0
-874 -353 0
506 -166 0
-990 0
307 -853 0
-419 0
-779 -891 0
-571 0
-727 613 0
82 -940 0
-224 0
-195 0
-670 -686 0
-623 0
610 -171 0
531 -954 0
-383 715 0
-799 0
-356 510 0
-495 0
-427 0
-189 0
-967 -398 0
-514 0
780 -761 0
-900 0
-597 348 0
-141 157 0
-87 0
-103 0
-959 287 0
-13 479 0
-24 330 0
-288 868 0
946 -965 0
-241 0
540 -899 0
430 -297 0
-885 -586 0
-949 0
-447 0
-61 0
115 -796 0
-520 -517 0
497 -758 0
-628 0
-209 0
-735 266 0
-687 772 0
-646 882 0
-439 0
-605 -282 0
120 -794 0
-179 0
-741 -220 0
-990 0
938 -923 0
521 -741 0
-576 0
-587 -354 0
-542 0
-439 -694 0
-183 -398 0
-604 0
-190 0
-996 -617 0
-448 -717 0
-925 -317 0
538 -114 0
-272 -458 0
-317 -522 0
-750 0
-978 0
-740 0
474 -681 0
-863 967 0
-253 -483 0
-246 298 0
-844 244 0
-155 0
401 -133 0
-663 375 0
-331 830 0
-549 0
-418 102 0
-789 0
-24 456 0
298 -225 0
-648 0
-854 0
-797 359 0
-885 -115 0
-519 167 0
-905 0
-437 798 0
938 -915 0
-614 871 0
-957 380 0
179 -170 0
-611 0
-70 0
681 -882 0
-964 0
-834 214 0
-913 0
-475 0
622 -978 0
448 -99 0
-165 0
-887 0
-351 0
-555 0
-904 556 0
-221 915 0
729 -51 0
-668 -452 0
-55 650 0
-725 365 0
-489 0
-327 445 0
-591 973 0
-576 -215 0
-203 733 0
-796 0
466 -454 0
-63 -698 0
-595 0
-511 887 0
-480 0
-704 -770 0
-150 507 0
-77 165 0
-486 636 0
-343 0
-979 510 0
-770 511 0
-171 0
-309 159 0
59 -653 0
-762 0
709 -171 0
-80 -964 0
355 -769 0
-776 0
-449 0
-709 0
477 -218 0
-650 -545 0
-286 -254 0
-899 -977 0
249 -155 0
-551 0
226 -515 0
554 -245 0
900 -473 0
-807 0
-359 0
192 -277 0
-856 0
-116 0
-517 508 0
-848 997 0
-187 -946 0
-837 0
-895 660 0
-111 -907 0
8 -135 0
-917 0
-192 244 0
-906 -401 0
-340 -692 0
-303 0
-817 0
-144 817 0
-987 0
912 -823 0
-438 914 0
-96 219 0
377 -534 0
-164 0
-571 0
-272 726 0
-314 158 0
83 -1 0
704 -404 0
-150 -817 0
-470 0
-856 997 0
384 -246 0
-69 -955 0
-76 0
-597 0
-727 0
532 -626 0
-482 0
-78 570 0
-253 -386 0
-598 0
-738 -497 0
-994 0
-653 0
-128 0
-439 0
-869 427 0
-335 561 0
-145 0
-836 0
-605 -961 0
-93 -786 0
-100 0
-924 0
-656 -828 0
-966 -526 0
-488 408 0
419 -555 0
-48 168 0
484 -906 0
-597 0
-30 742 0
-502 -987 0
-567 -398 0
-900 0
-751 -994 0
-584 0
659 -713 0
-743 0
-720 -675 0
-501 54 0
-46 943 0
-218 351 0
-445 -889 0
-194 0
347 -309 0
-253 0
-70 -804 0
707 -533 0
-86 -156 0
-902 0
-428 0
-6 20 0
11 -234 0
-171 717 0
-909 -65 0
-393 0
-465 0
-926 270 0
-215 972 0
-673 -633 0
-729 0
-352 0
-957 332 0
-376 0
-925 0
373 -633 0
-462 0
-538 0
614 -705 0
428 -481 0
-767 516 0
-135 21 0
-575 231 0
-45 0
-147 0
-16 0
491 -129 0
480 -365 0
-568 0
859 -324 0
-247 -903 0
505 -170 0
-550 0
-637 399 0
-314 0
558 -410 0
-120 0
-293 0
-865 0
-647 891 0
-893 542 0
-157 0
-852 0
-448 -862 0
-244 0
-141 -852 0
-978 959 0
550 -65 0
-725 110 0
-314 0
-542 0
-837 -98 0
-194 -905 0
-351 0
168 -97 0
-592 47 0
129 -443 0
-850 935 0
-64 0
-750 -730 0
-744 148 0
-164 -947 0
-689 0
-962 0
-667 0
-818 0
-167 -927 0
-448 622 0
-618 0
-127 -18 0
-31 437 0
-345 0
-332 0
-483 0
-23 0
-917 0
-829 0
-277 -177 0
65 -565 0
749 -802 0
-160 939 0
304 -174 0
-999 0
-639 317 0
-612 0
-4 0
-128 -18 0
601 -44 0
-167 873 0
-993 0
-871 0
-325 -586 0
-715 0
-413 0
-558 0
-436 0
8 -568 0
-803 -955 0
720 -452 0
-30 893 0
234 -69 0
-529 0
-999 -946 0
-423 0
-656 -644 0
-925 0
-22 -860 0
269 -473 0
-437 -77 0
-847 614 0
-194 0
-256 -531 0
-651 822 0
-472 -563 0
-526 686 0
-374 -653 0
-798 755 0
-927 22 0
-423 293 0
-776 0
-243 0
-502 0
-738 -449 0
-862 0
-10 0
-761 0
-370 255 0
-435 0
-961 0
-674 0
-866 -538 0
-674 0
-627 -657 0
-278 573 0
-101 -826 0
-266 -761 0
-716 878 0
-685 494 0
-676 -675 0
-55 7 0
-318 0
137 -371 0
-79 0
-782 242 0
-490 -865 0
908 -138 0
400 -183 0
-726 0
-155 0
-137 0
-939 0
-967 -391 0
-421 351 0
474 -726 0
-512 -490 0
-432 -663 0
-735 122 0
-902 0
-996 0
-446 0
-306 0
-430 867 0
-535 0
-643 -153 0
-683 815 0
-664 0
-161 0
121 -289 0
-97 0
-132 0
-704 0
-220 0
-312 388 0
-575 443 0
-345 0
625 -67 0
-486 886 0
-529 0
-295 0
-842 0
370 -649 0
-564 0
-508 278 0
-446 0
-139 214 0
-959 313 0
-163 -242 0
-928 714 0
-214 0
-341 927 0
-454 804 0
-781 -643 0
-824 -426 0
338 -300 0
538 -419 0
-304 0
-562 798 0
-528 348 0
-787 847 0
906 -93 0
153 -489 0
-432 0
-663 -567 0
-447 0
-304 -822 0
-850 863 0
866 -942 0
-883 0
-194 -466 0
-198 838 0
-902 0
-880 0
-191 -190 0
-990 0
900 -178 0
-654 0
291 -412 0
-414 0
-173 0
548 -938 0
-688 -218 0
936 -327 0
-189 -204 0
-342 -517 0
-625 0
-508 286 0
921 -290 0
-174 90 0
-378 0
-812 0
-505 0
-46 -369 0
-240 -898 0
706 -805 0
-3 -177 0
-484 0
544 -700 0
-112 -582 0
-769 0
-238 0
-775 0
-568 0
-290 0
-25 0
-376 0
-611 926 0
-151 -730 0
-934 907 0
-326 -730 0
-379 0
-796 0
-120 0
-962 494 0
-268 0
-221 0
615 -801 0
-909 724 0
223 -121 0
850 -261 0
202 -666 0
-451 -586 0
-73 0
-627 0
-333 -524 0
-145 0
-318 0
-813 -537 0
-13 0
-280 -765 0
507 -674 0
728 -484 0
-718 0
-242 0
-424 553 0
-164 0
-733 0
-979 -577 0
-671 0
-632 0
417 -644 0
-387 -595 0
555 -523 0
56 -221 0
-757 0
-742 454 0
-151 0
-944 706 0
-500 0
-857 0
-300 0
-773 0
-200 0
-63 0
-804 -699 0
-204 326 0
-838 940 0
-1000 -731 0
66 -901 0
-693 0
-697 -177 0
-290 303 0
-237 445 0
-960 0
-608 0
100 -803 0
-53 559 0
-281 0
-252 0
616 -928 0
-310 87 0
-706 0
-429 -546 0
-328 0
-644 -683 0
-182 710 0
-55 743 0
700 -626 0
-173 0
-341 -475 0
468 -914 0
-294 603 0
721 -293 0
-21 0
-493 -977 0
-878 477 0
-296 0
-132 806 0
136 -35 0
-312 -374 0
-93 574 0
-603 -762 0
-373 0
-195 0
-302 -514 0
162 -186 0
-277 -508 0
-109 -537 0
-672 -109 0
-356 -300 0
-472 -350 0
-295 714 0
-427 0
-361 0
-35 0
629 -370 0
-565 0
