p cnf 1245 6011
137 371 0
261 0
356 0
355 0
488 0
40 0
325 463 0
216 383 0
167 0
241 0
65 133 0
492 0
410 0
381 69 0
495 0
464 0
393 187 0
151 0
481 0
112 338 0
18 206 0
380 126 0
497 0
427 500 0
145 326 0
452 85 0
329 100 0
222 0
406 0
33 0
304 423 0
483 0
90 0
213 342 0
485 0
308 453 0
421 0
44 0
478 0
57 158 0
347 0
463 0
244 334 0
357 0
380 0
10 0
44 463 0
210 0
206 0
202 452 0
141 103 0
180 0
483 100 0
451 0
14 95 0
120 499 0
468 0
165 0
177 0
192 0
307 0
357 93 0
85 374 0
199 0
5 0
457 0
476 0
397 0
338 111 0
182 422 0
26 155 0
232 414 0
344 0
56 335 0
120 225 0
90 0
478 0
77 0
482 0
314 42 0
448 305 0
221 374 0
418 250 0
31 0
64 409 0
337 0
179 0
402 5 0
155 0
59 0
233 0
426 0
417 0
260 231 0
253 0
432 99 0
340 0
291 243 0
205 0
383 0
179 206 0
392 445 0
213 0
378 0
172 0
112 249 0
486 0
400 348 0
328 0
227 0
222 0
336 451 0
106 0
40 0
134 342 0
220 0
234 28 0
190 398 0
347 0
83 0
170 327 0
192 0
196 0
496 210 0
284 0
289 219 0
476 0
255 0
300 0
290 130 0
52 0
338 0
246 0
399 0
186 484 0
67 484 0
431 0
248 422 0
370 0
200 401 0
492 0
74 0
449 15 0
49 0
362 0
333 343 0
365 230 0
50 468 0
250 406 0
427 0
29 0
482 0
366 0
134 0
78 335 0
20 237 0
345 489 0
265 0
341 0
325 94 0
274 0
433 169 0
72 163 0
293 334 0
32 0
13 0
252 214 0
272 0
482 0
325 0
361 0
272 0
360 0
464 0
458 0
36 0
453 0
54 0
223 0
4 0
150 0
296 0
459 0
146 292 0
352 390 0
270 0
447 0
362 0
272 217 0
247 0
289 114 0
267 412 0
127 0
237 0
460 0
60 54 0
247 0
244 263 0
395 0
26 0
180 0
164 46 0
97 443 0
494 279 0
176 466 0
255 0
50 0
204 0
438 0
246 0
276 0
402 0
15 0
432 125 0
384 0
203 398 0
137 183 0
121 454 0
457 338 0
116 0
232 479 0
377 0
45 0
275 0
489 0
266 0
310 0
400 0
50 71 0
408 0
82 0
267 429 0
350 0
348 0
464 0
225 0
111 0
325 0
68 0
126 0
220 71 0
337 0
398 183 0
384 284 0
203 0
382 0
255 0
180 0
195 302 0
376 227 0
410 78 0
226 0
243 0
386 0
409 0
337 237 0
346 35 0
381 0
200 483 0
234 0
24 0
101 0
484 5 0
251 0
98 0
211 0
161 0
47 0
376 0
65 479 0
74 0
41 0
242 359 0
500 0
404 0
254 351 0
8 0
18 0
191 0
214 0
169 0
65 75 0
157 0
18 0
12 222 0
141 0
482 0
368 0
395 0
177 0
382 0
414 0
415 39 0
260 0
143 0
169 0
208 0
393 0
334 0
52 0
40 0
217 423 0
141 0
13 0
348 0
274 236 0
176 0
413 0
159 0
435 0
461 0
487 0
5 0
109 38 0
115 175 0
355 380 0
472 174 0
361 431 0
497 0
492 349 0
256 333 0
304 74 0
354 164 0
368 386 0
159 0
352 0
208 221 0
79 0
453 0
337 0
85 0
126 0
43 327 0
252 0
109 455 0
383 0
83 0
18 0
456 480 0
26 0
453 0
105 0
171 0
344 50 0
32 444 0
325 0
172 0
46 422 0
433 93 0
129 0
461 0
177 68 0
24 103 0
260 263 0
323 0
156 0
116 0
162 0
181 0
386 239 0
12 0
236 0
168 2 0
379 0
425 0
87 0
214 495 0
127 0
479 0
217 0
362 0
456 0
55 0
89 266 0
104 0
314 117 0
289 103 0
312 454 0
65 207 0
275 173 0
176 32 0
102 0
396 0
59 0
83 0
93 0
384 103 0
285 0
258 0
426 0
329 0
7 0
461 22 0
221 358 0
178 0
312 209 0
51 291 0
35 0
306 0
82 379 0
122 0
394 0
86 230 0
346 348 0
399 0
261 0
265 0
496 122 0
271 0
417 221 0
120 0
458 3 0
433 330 0
166 0
113 15 0
221 0
213 0
448 124 0
11 0
177 0
106 0
123 0
390 0
437 0
481 410 0
189 0
367 0
50 0
101 0
14 0
424 0
165 190 0
254 119 0
368 0
124 0
55 0
332 0
267 0
346 439 0
280 259 0
449 322 0
40 0
182 0
65 402 0
171 0
63 0
60 373 0
419 389 0
255 183 0
475 318 0
17 0
38 7 0
37 14 0
82 214 0
197 0
161 0
99 0
482 0
339 0
364 373 0
221 0
224 0
438 0
220 0
101 0
428 0
41 126 0
339 31 0
4 0
488 0
486 0
89 0
77 0
114 0
257 114 0
119 0
423 0
344 475 0
329 58 0
493 0
151 0
352 0
328 0
159 0
272 0
83 132 0
126 0
399 0
129 0
149 0
208 0
8 121 0
146 21 0
342 0
183 0
357 469 0
48 0
293 0
425 0
40 391 0
214 0
274 0
491 53 0
160 0
373 0
118 0
447 0
242 0
89 0
263 0
1 362 0
345 10 0
184 0
78 0
81 0
403 0
384 0
7 0
246 0
209 398 0
183 0
218 317 0
246 0
311 0
290 0
138 0
294 406 0
129 0
21 0
421 359 0
99 38 0
266 0
2 245 0
320 396 0
311 0
153 230 0
115 342 0
424 156 0
243 0
209 394 0
475 45 0
434 316 0
314 0
281 0
449 155 0
440 0
472 0
323 0
184 0
239 0
337 0
131 495 0
374 0
229 0
217 175 0
137 0
455 0
401 0
41 0
412 14 0
138 0
391 0
50 0
293 0
198 0
362 0
280 0
376 0
188 0
369 0
169 0
484 294 0
261 287 0
173 159 0
173 158 0
497 0
411 15 0
337 484 0
331 0
124 332 0
11 267 0
108 199 0
364 182 0
34 391 0
370 140 0
476 366 0
344 7 0
57 243 0
168 0
387 0
233 0
143 0
20 0
493 0
10 122 0
82 179 0
485 406 0
278 0
202 0
488 0
73 0
422 0
298 285 0
333 0
233 497 0
92 0
425 0
409 0
374 0
356 0
17 117 0
103 0
36 0
353 0
45 389 0
476 94 0
10 0
40 0
480 0
163 0
305 85 0
476 0
357 0
135 0
474 164 0
410 455 0
350 0
54 0
240 393 0
165 134 0
205 454 0
178 0
323 0
234 0
294 0
352 123 0
494 0
42 0
315 0
147 0
192 292 0
146 470 0
424 0
252 0
305 0
333 0
214 0
212 0
408 0
11 0
467 14 0
8 339 0
312 403 0
135 0
479 0
456 0
281 397 0
448 84 0
37 0
77 0
259 87 0
104 258 0
338 500 0
316 439 0
297 0
168 0
217 276 0
254 0
54 0
104 0
167 0
235 0
226 250 0
327 0
255 0
143 0
97 462 0
208 0
337 445 0
70 0
92 0
206 0
67 0
55 0
138 0
65 0
245 175 0
228 0
102 0
90 228 0
359 0
289 137 0
68 0
241 237 0
345 265 0
378 0
201 31 0
260 350 0
325 22 0
226 295 0
470 0
448 410 0
293 0
280 0
269 0
35 0
325 0
33 0
74 20 0
354 0
285 0
53 0
221 0
281 0
234 53 0
120 0
154 0
380 0
78 0
396 102 0
234 348 0
336 0
276 28 0
445 0
477 0
75 0
17 251 0
472 383 0
136 441 0
255 0
40 400 0
402 126 0
125 0
13 0
299 0
210 171 0
441 0
153 158 0
1 243 0
208 0
475 167 0
283 132 0
48 475 0
60 327 0
420 0
199 0
208 379 0
274 221 0
356 0
134 0
470 0
438 0
238 0
264 0
88 287 0
387 0
240 0
214 359 0
243 0
65 0
438 271 0
249 106 0
82 0
13 471 0
218 338 0
374 0
496 0
401 2 0
9 0
340 0
378 0
378 0
166 0
242 0
283 0
289 95 0
299 135 0
187 0
134 0
194 447 0
76 62 0
328 294 0
10 205 0
205 0
68 0
485 0
382 38 0
196 422 0
453 70 0
52 110 0
252 0
464 204 0
240 0
14 0
109 0
312 15 0
48 348 0
329 138 0
489 299 0
79 0
284 254 0
210 12 0
315 0
79 0
412 0
260 0
343 0
80 0
213 0
19 166 0
378 0
439 0
265 203 0
161 350 0
226 0
107 0
382 0
403 0
497 302 0
66 322 0
168 0
181 0
323 0
280 0
175 0
94 0
171 0
451 0
192 391 0
264 0
98 0
252 0
224 0
396 0
483 0
332 207 0
485 0
159 0
305 325 0
363 0
77 327 0
392 97 0
24 19 0
467 222 0
481 0
296 0
53 0
226 431 0
90 0
453 0
233 0
246 271 0
475 0
266 0
314 0
457 0
315 0
43 0
10 165 0
392 14 0
478 0
123 395 0
2 0
187 358 0
336 427 0
368 0
393 15 0
345 269 0
114 262 0
262 0
314 383 0
272 0
395 0
311 0
235 0
125 0
333 0
270 0
25 299 0
320 184 0
354 0
9 0
485 0
228 0
91 0
8 0
445 0
401 319 0
235 396 0
339 325 0
239 0
176 349 0
143 0
371 28 0
355 0
441 0
298 0
166 0
24 0
343 0
77 0
43 0
426 0
88 157 0
347 0
459 0
132 94 0
487 0
113 0
244 190 0
91 0
200 47 0
186 359 0
13 174 0
321 0
347 0
163 155 0
335 0
211 0
454 470 0
42 0
245 0
338 348 0
388 0
303 0
444 0
152 25 0
119 0
381 54 0
216 282 0
431 0
474 439 0
134 0
281 77 0
273 233 0
113 498 0
135 0
172 0
170 0
205 470 0
60 0
63 0
173 0
456 410 0
48 428 0
392 396 0
38 0
482 485 0
1 407 0
469 0
164 415 0
481 0
154 0
141 0
251 0
66 0
427 251 0
483 0
440 0
392 453 0
297 0
40 0
396 0
468 0
131 0
352 77 0
48 460 0
320 204 0
248 0
475 479 0
101 0
491 461 0
166 0
88 74 0
256 70 0
56 223 0
432 234 0
363 325 0
102 0
9 0
259 0
62 0
246 0
398 0
60 0
8 0
98 0
26 166 0
417 0
58 0
260 142 0
149 0
378 0
381 0
117 430 0
235 0
284 0
441 0
234 0
121 0
33 0
4 270 0
272 145 0
451 0
467 0
98 167 0
161 451 0
373 0
22 271 0
230 279 0
329 305 0
260 0
8 0
304 419 0
352 0
208 0
106 0
290 0
99 395 0
194 315 0
336 0
456 0
253 0
8 102 0
281 371 0
232 0
54 0
483 0
185 0
56 430 0
276 0
154 428 0
363 0
124 0
236 0
154 0
116 0
363 0
410 0
260 0
365 0
475 203 0
450 0
284 300 0
238 0
135 0
82 166 0
457 167 0
114 0
156 0
17 0
338 0
485 0
96 0
372 0
33 0
78 0
300 437 0
411 0
362 0
154 103 0
384 0
385 158 0
264 0
24 156 0
157 0
328 0
360 393 0
455 0
43 404 0
494 0
420 0
470 0
493 0
390 0
283 0
482 0
128 0
195 0
356 0
179 479 0
377 0
139 0
473 395 0
481 21 0
330 0
75 0
407 0
385 0
358 0
276 0
6 0
13 165 0
345 0
8 0
37 0
459 278 0
374 0
439 0
444 0
160 0
430 0
130 0
227 0
237 0
234 0
402 0
25 0
28 301 0
281 474 0
327 0
20 0
377 365 0
155 0
486 0
248 278 0
75 0
414 0
80 0
287 0
298 0
352 0
31 0
284 414 0
366 0
83 0
411 0
18 0
194 315 0
123 0
437 318 0
327 0
34 268 0
124 254 0
356 0
290 0
266 0
119 0
388 0
124 0
11 0
487 0
417 0
381 0
354 0
70 0
73 0
26 0
120 0
262 0
323 103 0
125 0
322 109 0
305 0
380 0
277 0
50 311 0
316 0
409 450 0
448 0
361 0
58 27 0
149 127 0
83 0
66 0
73 0
151 0
91 0
216 53 0
479 0
496 253 0
93 0
77 342 0
196 0
248 324 0
425 87 0
149 0
177 154 0
242 446 0
322 66 0
235 0
29 0
104 349 0
448 0
98 0
348 0
427 95 0
476 0
85 238 0
471 0
423 0
161 186 0
100 204 0
422 0
51 382 0
254 0
494 0
53 0
198 0
211 0
51 94 0
57 0
264 310 0
5 0
231 0
131 420 0
181 0
336 232 0
37 239 0
54 134 0
350 0
101 0
49 0
387 0
84 0
204 0
74 0
460 0
293 141 0
110 0
85 0
126 0
307 0
387 0
266 205 0
499 0
243 0
61 77 0
233 0
214 287 0
283 86 0
143 0
25 0
88 382 0
488 261 0
17 0
46 0
23 0
321 102 0
257 0
465 418 0
332 0
329 230 0
64 111 0
103 0
10 159 0
321 497 0
248 166 0
283 0
222 406 0
315 0
62 0
218 0
115 270 0
113 159 0
492 0
28 0
285 0
120 318 0
99 0
25 307 0
385 381 0
333 0
236 135 0
140 0
116 110 0
72 0
456 198 0
480 0
72 446 0
374 151 0
281 0
305 0
405 318 0
199 0
110 0
68 47 0
389 0
397 0
26 0
369 0
88 0
126 0
191 0
93 0
296 0
344 286 0
82 0
404 0
126 0
238 0
341 173 0
179 0
286 0
321 0
439 0
491 0
359 0
418 0
83 374 0
373 0
477 0
166 0
51 0
24 348 0
429 118 0
164 0
414 0
278 463 0
252 0
330 269 0
317 0
481 0
433 154 0
303 0
177 41 0
53 0
418 322 0
321 0
456 0
344 233 0
168 470 0
157 0
94 0
271 0
466 0
38 0
225 0
285 0
347 0
168 220 0
213 0
312 0
89 460 0
436 0
403 0
145 42 0
374 0
456 0
169 0
424 100 0
373 0
43 357 0
36 7 0
305 191 0
448 51 0
428 0
33 161 0
282 0
368 211 0
60 0
471 0
327 0
372 478 0
348 0
185 45 0
273 0
378 0
13 351 0
268 0
301 0
213 0
225 165 0
321 387 0
360 484 0
64 165 0
341 0
463 0
261 0
170 138 0
397 0
75 0
57 266 0
7 0
109 0
444 318 0
317 279 0
253 0
442 0
143 0
220 0
195 0
357 0
201 431 0
352 0
296 0
404 0
438 0
181 0
154 390 0
216 0
112 219 0
340 198 0
379 0
171 195 0
480 0
322 190 0
19 0
174 0
32 34 0
161 454 0
179 0
166 0
27 419 0
113 159 0
24 0
107 0
233 0
202 18 0
96 0
446 0
460 366 0
455 0
238 0
105 127 0
300 0
28 0
156 0
406 0
465 245 0
255 0
262 0
264 371 0
399 0
6 0
290 415 0
419 0
148 453 0
257 199 0
352 196 0
10 279 0
24 0
344 0
25 0
53 0
367 0
24 0
283 0
420 0
496 452 0
186 0
287 0
325 0
265 193 0
378 0
410 172 0
250 453 0
423 0
183 0
192 423 0
120 313 0
109 0
283 14 0
206 0
479 0
22 0
296 0
352 344 0
46 0
330 374 0
314 470 0
344 0
16 357 0
106 0
387 0
344 479 0
417 0
72 457 0
36 0
297 0
265 0
13 0
233 0
258 139 0
346 411 0
2 0
75 0
222 0
90 483 0
162 0
411 0
83 0
445 0
142 0
351 0
475 0
160 0
100 181 0
424 0
91 0
153 495 0
321 235 0
171 0
424 0
369 0
274 459 0
359 0
253 0
465 196 0
151 0
321 0
59 0
27 167 0
66 335 0
58 0
419 0
462 0
347 254 0
345 95 0
126 0
484 302 0
328 0
149 0
152 381 0
411 0
264 163 0
485 165 0
334 0
17 0
460 228 0
80 94 0
143 0
133 0
437 0
355 132 0
173 0
263 0
344 407 0
273 307 0
461 485 0
467 0
335 0
52 485 0
341 0
391 0
124 0
388 318 0
307 172 0
500 0
424 55 0
118 0
163 0
429 31 0
57 0
289 0
268 335 0
139 411 0
485 158 0
35 0
451 0
446 0
324 0
68 0
278 0
369 0
116 0
251 0
436 0
141 0
82 0
299 0
206 0
207 0
219 0
195 0
94 103 0
247 0
238 0
34 454 0
165 310 0
195 262 0
415 327 0
401 0
385 0
196 0
127 0
21 0
282 68 0
255 0
470 0
71 0
56 0
132 492 0
258 252 0
444 0
453 0
376 0
449 194 0
242 0
430 231 0
251 437 0
225 0
114 0
412 0
355 0
109 0
15 0
213 0
68 0
23 0
92 383 0
441 300 0
276 0
495 0
225 0
485 0
108 0
190 0
500 0
451 0
313 0
398 0
438 0
219 462 0
500 415 0
210 0
473 51 0
249 0
343 0
338 0
464 433 0
181 0
432 0
25 0
424 0
287 0
445 0
425 0
85 0
370 0
456 0
425 0
327 0
472 0
70 0
465 61 0
366 0
210 0
325 0
79 0
141 359 0
418 0
12 0
144 34 0
251 0
354 0
26 0
251 319 0
311 0
121 410 0
159 0
395 0
7 0
443 195 0
308 0
31 0
252 143 0
227 0
464 299 0
457 0
113 0
393 425 0
76 0
273 0
376 0
102 0
90 0
193 0
385 138 0
326 151 0
446 0
198 0
275 0
134 0
224 247 0
318 78 0
156 0
453 126 0
370 324 0
416 488 0
314 31 0
397 0
91 215 0
105 0
121 0
118 0
433 0
34 0
220 0
113 265 0
89 0
126 0
68 0
250 398 0
125 0
362 150 0
447 0
82 0
274 307 0
136 156 0
481 422 0
178 0
143 0
496 0
34 70 0
188 252 0
9 395 0
260 0
153 0
138 0
385 0
303 0
160 301 0
156 0
9 170 0
473 0
78 0
219 0
234 0
216 238 0
310 0
281 0
473 199 0
497 0
300 0
173 0
148 0
500 0
215 0
220 135 0
128 405 0
366 0
495 0
96 0
297 0
425 0
162 124 0
208 0
82 0
152 0
337 234 0
205 0
378 36 0
205 0
380 0
227 0
216 0
314 183 0
154 0
58 156 0
28 0
375 0
359 0
67 452 0
109 0
271 0
181 0
472 0
346 0
372 399 0
14 0
439 0
295 0
221 110 0
337 443 0
233 423 0
124 0
179 0
316 197 0
97 195 0
435 0
272 487 0
487 0
362 0
468 0
190 0
239 0
25 0
439 0
253 0
76 0
144 0
156 0
352 143 0
258 0
306 175 0
376 0
55 0
314 183 0
474 0
338 364 0
454 0
94 0
231 0
259 0
89 0
170 3 0
10 0
459 436 0
470 0
492 0
59 0
223 0
152 0
379 0
353 0
461 0
271 0
159 0
411 413 0
364 269 0
182 359 0
121 426 0
19 0
321 0
352 0
454 167 0
146 0
296 0
163 413 0
431 39 0
387 461 0
73 206 0
240 77 0
296 0
392 204 0
168 456 0
249 0
7 0
222 0
391 0
176 212 0
422 319 0
255 0
292 429 0
9 0
178 0
368 0
401 0
41 0
371 295 0
55 0
412 0
227 0
88 0
34 255 0
435 0
300 0
156 471 0
116 422 0
73 0
183 0
207 0
72 180 0
61 0
57 257 0
493 0
58 0
299 23 0
62 0
146 0
226 0
33 0
34 0
130 252 0
218 0
480 170 0
98 0
201 0
295 0
453 429 0
352 313 0
116 247 0
271 0
396 0
371 0
224 260 0
431 0
464 0
475 0
303 0
81 0
355 0
315 0
204 0
267 0
339 0
44 85 0
368 449 0
260 0
156 436 0
122 0
398 0
45 0
446 0
312 0
260 389 0
12 0
243 148 0
395 0
401 0
488 0
234 396 0
384 483 0
425 0
12 0
317 0
490 348 0
12 445 0
402 0
202 0
162 0
125 398 0
32 210 0
207 0
204 0
96 17 0
48 369 0
263 0
88 0
60 0
65 359 0
280 442 0
6 0
16 87 0
172 0
12 119 0
195 0
434 212 0
201 0
193 0
220 247 0
105 0
337 0
425 0
137 0
499 0
363 0
66 0
119 0
98 191 0
220 0
194 0
474 0
201 363 0
194 0
1 0
319 0
280 497 0
151 0
461 0
273 52 0
235 181 0
39 7 0
454 0
186 226 0
129 0
469 134 0
238 0
207 0
286 0
49 0
393 0
164 293 0
376 480 0
324 0
215 0
19 0
426 430 0
110 0
39 0
451 0
497 0
209 479 0
141 0
172 292 0
409 0
324 0
364 181 0
204 0
209 0
264 337 0
285 302 0
338 0
458 427 0
132 0
64 0
218 0
477 0
314 37 0
47 0
240 238 0
496 7 0
161 0
135 0
35 285 0
108 36 0
305 0
114 0
400 0
418 0
210 0
122 0
146 0
373 0
441 141 0
251 0
468 327 0
400 0
160 0
91 494 0
400 32 0
10 0
384 0
106 0
207 0
17 455 0
64 339 0
232 299 0
16 194 0
406 0
61 0
236 55 0
30 0
73 0
25 0
393 367 0
181 0
497 0
366 0
54 0
236 0
170 0
117 94 0
154 412 0
274 0
290 245 0
124 0
69 0
413 0
87 0
45 0
336 59 0
82 0
276 0
484 0
337 218 0
291 0
76 0
364 0
471 0
430 0
278 0
287 0
411 0
459 0
464 0
411 325 0
250 223 0
419 0
415 0
226 22 0
64 89 0
384 295 0
343 0
337 0
124 0
494 0
416 20 0
296 431 0
104 235 0
435 0
26 0
248 0
153 95 0
467 0
100 493 0
385 0
404 0
208 0
417 0
391 0
282 0
90 0
285 0
209 313 0
482 0
299 0
401 0
273 0
467 0
320 0
5 0
10 0
300 215 0
93 0
351 0
458 0
137 451 0
211 0
279 0
84 0
497 340 0
384 258 0
129 0
160 204 0
316 0
12 293 0
107 0
353 59 0
167 0
439 0
486 0
385 0
430 0
200 0
8 66 0
180 0
424 0
248 0
439 0
142 0
459 0
161 0
220 0
260 0
11 36 0
265 0
274 397 0
404 0
278 0
156 0
24 212 0
481 0
445 0
229 0
17 257 0
296 0
335 0
288 221 0
114 0
152 455 0
51 0
226 0
17 0
178 0
289 0
34 0
288 0
125 197 0
59 0
489 0
151 0
220 0
370 0
169 0
377 0
101 0
465 13 0
450 0
201 0
261 0
180 0
330 349 0
334 0
368 395 0
460 0
321 0
105 495 0
36 0
2 0
174 0
179 0
364 389 0
244 0
279 0
145 0
411 0
152 0
225 0
490 0
275 214 0
177 444 0
97 0
384 0
441 197 0
388 0
55 0
108 0
205 79 0
296 317 0
8 0
48 314 0
427 364 0
72 0
137 228 0
45 0
428 230 0
75 0
381 0
328 0
293 0
304 334 0
113 0
160 0
366 0
94 0
346 429 0
323 0
73 233 0
135 0
108 470 0
486 79 0
72 355 0
394 0
191 0
433 0
458 491 0
398 0
33 0
226 93 0
109 277 0
464 0
410 0
481 330 0
497 0
458 14 0
225 0
368 0
52 0
41 0
461 0
409 0
314 460 0
226 110 0
155 0
145 115 0
468 0
180 0
113 0
1 0
4 0
149 0
494 0
249 436 0
5 0
452 0
48 0
297 0
185 253 0
194 350 0
301 0
284 0
28 0
244 205 0
328 435 0
332 462 0
217 0
41 0
488 21 0
441 0
440 435 0
455 0
326 0
254 0
260 0
432 173 0
364 0
249 459 0
219 0
159 0
123 0
116 0
126 0
399 0
299 0
252 118 0
82 0
429 174 0
301 0
96 5 0
35 0
216 226 0
65 268 0
394 109 0
373 0
56 0
193 0
113 0
389 0
14 0
365 0
274 0
89 177 0
97 308 0
322 301 0
325 149 0
346 0
252 199 0
74 407 0
97 0
11 414 0
20 0
124 0
497 0
417 0
307 0
299 30 0
145 0
106 0
414 0
322 318 0
87 0
169 0
288 3 0
288 466 0
24 0
500 381 0
418 0
400 0
369 207 0
78 0
145 375 0
193 175 0
17 0
390 0
435 0
57 0
403 303 0
137 0
480 388 0
373 0
133 359 0
474 0
225 0
393 106 0
98 0
72 102 0
354 204 0
360 399 0
284 0
282 0
485 0
8 0
310 22 0
48 0
207 0
290 0
214 0
325 0
24 0
367 0
334 110 0
268 0
427 0
410 258 0
198 0
184 375 0
39 0
268 0
324 327 0
24 0
166 0
448 196 0
212 0
181 0
5 0
455 0
362 245 0
2 0
422 0
464 0
8 0
65 0
404 134 0
357 0
488 455 0
188 454 0
448 0
161 0
322 45 0
198 0
204 0
323 327 0
113 0
386 0
214 0
328 371 0
240 127 0
458 94 0
156 215 0
387 0
77 0
163 0
411 0
132 0
352 0
264 220 0
371 0
170 0
113 0
418 0
367 0
375 0
288 0
480 264 0
199 0
225 0
208 0
29 39 0
96 260 0
320 0
119 0
56 274 0
325 0
408 0
313 0
234 75 0
216 187 0
136 115 0
301 462 0
117 0
81 0
152 0
440 411 0
358 0
474 341 0
456 305 0
163 356 0
98 0
127 0
95 0
404 0
186 62 0
460 0
498 174 0
423 0
241 446 0
340 0
416 0
395 317 0
453 0
252 0
145 0
121 0
328 0
189 0
416 0
88 0
155 0
424 226 0
78 0
96 0
465 0
100 0
242 485 0
73 129 0
384 477 0
413 103 0
74 111 0
246 0
321 474 0
228 311 0
190 0
210 349 0
292 87 0
298 60 0
379 0
345 0
470 0
452 0
304 150 0
21 0
446 0
82 487 0
242 173 0
478 0
30 0
412 0
326 0
9 227 0
299 411 0
51 0
240 0
330 236 0
295 0
266 0
452 0
190 0
128 0
42 0
475 0
98 0
26 270 0
81 172 0
244 381 0
188 207 0
325 0
231 0
88 0
340 95 0
412 295 0
212 0
299 0
202 0
407 0
485 0
229 463 0
344 439 0
500 238 0
104 0
3 0
300 0
11 109 0
344 446 0
384 0
299 460 0
101 0
138 0
457 371 0
158 0
266 0
235 0
287 0
202 277 0
244 0
490 79 0
13 0
48 0
50 0
263 0
168 0
137 0
466 446 0
282 94 0
249 0
308 0
291 0
106 423 0
386 0
390 0
451 0
56 303 0
360 0
410 0
101 0
230 0
102 0
154 0
11 180 0
235 0
368 0
266 0
209 437 0
373 0
193 134 0
134 0
81 497 0
118 0
31 0
34 0
81 0
465 0
85 0
461 0
83 0
303 0
376 374 0
460 263 0
454 0
238 0
453 0
130 0
23 0
299 0
267 87 0
472 87 0
426 0
396 0
308 0
44 0
477 0
298 0
368 371 0
25 0
331 0
138 0
284 0
72 0
241 189 0
458 251 0
36 0
452 0
180 0
430 0
167 391 0
149 478 0
282 228 0
258 396 0
246 230 0
266 463 0
86 0
33 371 0
203 0
423 0
357 0
82 23 0
218 0
253 165 0
282 0
460 252 0
484 0
297 0
324 0
142 0
440 0
207 0
437 0
44 28 0
287 0
434 0
115 0
182 0
72 265 0
68 0
368 340 0
486 0
16 228 0
368 380 0
80 498 0
126 0
188 0
169 398 0
369 0
136 0
139 0
236 102 0
232 7 0
66 0
119 0
200 0
51 469 0
497 478 0
368 0
277 0
155 0
52 0
421 0
468 0
184 35 0
370 438 0
400 0
480 26 0
376 0
296 0
475 150 0
468 0
163 0
354 0
351 0
89 0
95 0
235 0
143 0
32 421 0
85 0
286 0
15 0
175 0
458 0
170 164 0
279 0
136 0
493 0
6 0
178 0
139 0
254 143 0
97 0
482 0
19 0
204 0
16 0
450 0
162 0
498 0
315 0
114 268 0
319 0
495 0
338 101 0
218 346 0
83 0
463 0
421 0
440 324 0
66 0
90 0
343 0
279 0
106 0
213 0
157 278 0
416 0
141 0
137 46 0
268 0
65 0
125 342 0
432 0
144 439 0
498 363 0
270 0
403 0
9 133 0
451 0
153 341 0
413 0
496 141 0
112 0
48 26 0
319 0
328 0
393 0
405 0
264 23 0
75 284 0
373 0
466 0
80 0
450 254 0
432 0
471 0
201 453 0
201 0
75 0
345 12 0
198 383 0
97 0
482 414 0
327 0
296 0
301 0
258 428 0
251 0
141 0
12 357 0
414 0
392 167 0
48 0
185 0
208 0
265 455 0
410 0
48 0
447 0
15 0
71 0
212 0
467 365 0
33 0
100 109 0
191 0
227 0
13 0
385 394 0
395 29 0
456 289 0
288 394 0
224 110 0
371 0
231 0
132 0
58 0
460 0
254 0
23 0
370 0
449 0
286 0
18 131 0
66 99 0
244 0
72 0
102 0
242 0
38 0
82 0
194 0
340 421 0
163 0
59 13 0
253 0
275 470 0
5 0
186 123 0
379 0
474 0
56 0
193 39 0
234 0
96 475 0
372 366 0
488 0
262 239 0
9 0
161 172 0
168 0
218 0
190 0
483 0
37 0
129 0
36 405 0
21 0
59 0
494 0
461 0
303 0
24 481 0
23 0
85 0
176 430 0
3 0
118 0
371 0
24 0
9 0
268 0
429 0
486 0
196 0
32 399 0
2 479 0
10 387 0
93 406 0
119 0
179 0
478 0
338 0
461 399 0
364 0
12 6 0
384 425 0
13 215 0
183 0
224 0
336 302 0
492 0
454 422 0
10 0
124 0
377 0
160 121 0
434 0
367 0
63 0
32 0
188 0
213 0
257 0
274 444 0
115 99 0
46 0
233 0
358 0
296 0
274 21 0
174 0
96 0
129 0
202 0
301 406 0
153 485 0
396 0
122 103 0
430 0
470 0
117 0
321 0
282 493 0
212 0
133 0
248 356 0
212 0
240 0
433 0
101 0
237 110 0
50 0
349 0
106 0
160 250 0
136 469 0
356 0
494 279 0
246 0
344 140 0
80 0
401 418 0
465 0
359 0
209 26 0
282 0
194 0
440 0
67 0
377 476 0
96 95 0
333 0
439 0
429 0
364 0
10 0
479 0
422 0
490 0
456 447 0
228 421 0
12 0
16 87 0
482 0
157 0
100 263 0
398 0
68 300 0
374 0
8 0
413 423 0
147 0
156 12 0
365 0
122 283 0
385 0
480 371 0
246 0
424 409 0
4 0
279 0
282 0
387 142 0
155 0
281 0
449 0
255 135 0
115 286 0
356 0
288 321 0
293 0
243 6 0
18 0
308 0
37 0
99 251 0
396 31 0
210 0
76 0
438 0
416 275 0
277 0
269 0
472 30 0
76 0
118 0
340 0
238 0
355 69 0
467 444 0
62 166 0
449 274 0
301 390 0
373 359 0
214 286 0
8 230 0
89 374 0
280 46 0
324 0
42 0
481 0
461 397 0
174 0
473 0
416 0
466 0
226 20 0
482 0
232 0
27 0
228 302 0
425 44 0
296 233 0
106 0
98 35 0
293 0
480 0
393 449 0
187 388 0
333 0
412 0
60 0
178 219 0
374 0
396 0
149 478 0
117 0
210 351 0
446 182 0
458 0
168 0
8 0
264 0
307 463 0
182 0
476 0
446 0
179 0
170 0
226 420 0
50 0
131 404 0
367 0
432 391 0
480 0
144 0
444 0
407 0
108 0
75 0
263 0
80 222 0
236 0
253 141 0
11 0
231 0
64 0
192 293 0
301 0
350 0
46 0
362 0
472 109 0
55 0
55 0
181 231 0
401 0
111 0
134 15 0
95 0
270 0
136 0
113 255 0
369 0
485 0
220 0
93 454 0
436 0
157 342 0
13 0
496 0
106 0
473 0
236 12 0
271 0
382 0
152 0
374 0
232 0
459 15 0
178 0
370 0
446 0
354 0
208 46 0
217 0
266 74 0
254 0
466 143 0
295 0
79 0
496 477 0
250 0
424 0
168 337 0
425 4 0
443 318 0
60 0
498 0
189 0
408 0
185 0
181 238 0
147 0
361 0
249 0
133 0
482 13 0
339 5 0
273 127 0
380 0
169 45 0
172 0
347 0
267 99 0
455 0
377 270 0
336 0
473 406 0
186 0
76 447 0
361 209 0
7 0
89 0
468 0
170 0
139 238 0
267 251 0
73 106 0
153 61 0
281 334 0
433 57 0
281 0
433 0
432 54 0
77 0
337 0
16 0
171 303 0
293 0
235 0
311 0
225 377 0
396 0
344 0
139 243 0
81 0
80 0
80 0
150 0
70 199 0
105 39 0
248 0
450 0
292 0
492 206 0
499 108 0
35 0
448 402 0
474 202 0
33 298 0
233 0
432 0
33 0
87 0
480 351 0
46 0
400 185 0
409 0
109 0
318 0
192 0
490 0
83 0
371 431 0
63 0
368 0
21 31 0
169 0
411 0
249 483 0
262 63 0
18 0
193 0
367 0
273 0
394 453 0
405 0
168 194 0
261 182 0
328 0
38 0
327 0
408 438 0
36 0
269 0
293 0
334 0
93 0
234 0
415 359 0
14 0
260 133 0
110 0
67 0
33 0
81 0
222 0
15 0
361 142 0
38 0
142 383 0
315 93 0
50 68 0
152 0
426 375 0
11 0
442 146 0
29 0
473 292 0
301 0
421 0
154 325 0
87 0
353 163 0
378 402 0
330 299 0
100 0
456 0
11 0
490 43 0
110 0
268 0
334 0
162 0
282 0
163 0
146 271 0
82 199 0
59 0
116 325 0
239 0
344 0
99 110 0
61 0
259 351 0
199 0
130 0
37 0
337 191 0
448 0
286 0
427 0
232 0
244 453 0
346 0
352 252 0
108 413 0
161 0
487 0
149 0
89 372 0
306 0
129 0
426 0
60 310 0
278 0
393 0
298 0
332 60 0
358 0
141 0
177 0
417 111 0
28 95 0
461 46 0
224 0
412 406 0
411 142 0
192 359 0
384 0
446 0
275 0
177 212 0
91 0
137 0
80 320 0
73 0
397 0
491 0
475 150 0
179 0
204 0
180 0
464 290 0
366 0
20 0
44 0
49 204 0
408 463 0
178 0
259 0
81 0
433 0
144 0
248 445 0
163 0
244 0
213 0
428 0
19 0
23 0
471 0
167 0
373 0
317 0
241 12 0
261 0
483 0
68 0
196 239 0
78 0
459 4 0
468 0
24 410 0
453 38 0
38 0
162 0
337 420 0
164 125 0
365 183 0
203 0
162 0
378 0
438 430 0
2 0
70 0
181 0
138 199 0
9 0
163 0
345 441 0
392 0
184 0
1 0
393 0
361 437 0
15 0
386 0
459 0
276 0
425 0
396 0
412 118 0
130 275 0
100 0
295 0
333 0
237 462 0
41 238 0
227 0
429 0
32 208 0
377 185 0
44 93 0
192 381 0
166 0
251 0
274 0
296 0
296 290 0
110 0
326 0
481 462 0
160 111 0
284 0
33 68 0
474 0
413 494 0
173 0
36 0
3 0
293 71 0
406 0
163 0
444 143 0
43 125 0
362 95 0
152 230 0
12 0
312 0
40 0
92 0
495 0
226 0
455 0
480 161 0
77 0
298 0
159 0
397 110 0
275 403 0
90 0
305 158 0
417 0
130 0
373 0
393 44 0
105 468 0
251 0
353 0
10 0
145 0
400 0
55 0
414 38 0
409 0
277 0
251 0
344 0
169 0
427 0
217 0
32 0
37 0
100 0
429 0
257 270 0
75 135 0
284 0
268 0
214 0
198 0
491 0
149 0
308 0
116 0
355 395 0
417 0
199 0
394 0
135 0
111 0
188 0
395 0
402 0
16 337 0
19 190 0
82 0
120 0
138 125 0
401 214 0
372 0
450 182 0
414 0
345 158 0
219 0
404 0
472 0
271 0
331 0
263 0
164 0
169 0
35 302 0
156 62 0
492 351 0
224 172 0
287 0
12 0
88 0
433 0
369 121 0
284 325 0
151 0
404 0
288 205 0
312 183 0
184 185 0
432 481 0
251 135 0
273 245 0
85 0
146 0
367 0
244 0
338 0
248 0
386 271 0
313 451 0
23 0
458 303 0
467 0
266 275 0
214 0
48 298 0
422 166 0
218 499 0
471 0
389 278 0
352 0
452 21 0
312 73 0
182 71 0
161 435 0
500 0
368 0
242 0
265 399 0
276 0
325 0
254 0
41 485 0
404 391 0
196 0
163 206 0
294 159 0
239 0
63 0
210 0
442 165 0
17 0
427 0
14 0
259 0
273 179 0
375 0
433 0
297 78 0
1 0
353 0
256 181 0
320 401 0
312 289 0
171 78 0
241 378 0
35 142 0
86 0
184 11 0
44 54 0
112 225 0
401 0
321 0
101 54 0
441 0
464 0
478 0
42 0
129 0
48 0
106 0
333 167 0
76 0
456 321 0
210 0
264 227 0
339 0
234 355 0
148 0
9 0
307 132 0
441 0
399 0
321 0
316 0
297 374 0
353 495 0
353 499 0
240 0
60 292 0
34 0
446 0
32 117 0
296 0
107 0
268 0
338 0
108 0
25 0
74 0
394 246 0
144 0
494 0
1 0
80 55 0
72 243 0
465 0
8 0
252 0
463 0
276 61 0
473 291 0
207 0
363 470 0
104 230 0
452 358 0
338 103 0
471 0
307 37 0
207 0
55 0
400 201 0
177 411 0
241 0
432 0
181 0
343 0
336 413 0
136 0
391 495 0
45 447 0
403 231 0
256 138 0
350 231 0
93 0
132 52 0
402 383 0
48 0
66 315 0
254 0
241 0
262 0
151 0
41 190 0
341 0
472 0
424 0
426 0
413 0
266 338 0
2 0
397 215 0
196 0
383 0
442 351 0
57 0
253 0
352 439 0
89 0
325 0
251 45 0
72 476 0
447 0
277 214 0
328 0
449 305 0
213 0
65 0
94 0
97 140 0
285 63 0
481 0
222 22 0
52 0
248 0
306 0
253 0
351 0
96 0
441 219 0
306 84 0
383 0
258 131 0
402 0
500 0
123 0
192 0
494 0
120 193 0
152 0
341 0
377 0
210 0
329 124 0
435 319 0
138 293 0
346 0
475 431 0
153 0
433 0
162 0
124 46 0
229 277 0
434 0
30 0
35 0
90 125 0
365 0
266 215 0
28 254 0
446 47 0
400 0
313 0
230 0
342 0
157 0
49 126 0
324 0
418 0
210 0
243 0
185 0
385 0
153 0
188 0
36 0
293 238 0
459 0
156 77 0
59 323 0
195 0
210 0
86 143 0
289 0
32 0
424 465 0
5 278 0
88 0
105 0
306 0
50 0
400 0
72 0
84 0
449 0
339 62 0
77 189 0
457 0
378 0
432 343 0
43 246 0
283 0
82 0
362 0
364 0
76 0
109 0
221 0
180 0
18 0
166 0
490 303 0
88 0
209 331 0
347 467 0
451 333 0
411 0
51 0
466 0
60 446 0
27 447 0
266 0
354 0
152 365 0
38 0
284 437 0
282 0
111 0
178 0
138 35 0
372 0
195 126 0
170 197 0
269 0
362 0
60 0
481 0
351 0
180 87 0
345 0
265 20 0
434 0
154 0
163 0
72 0
357 0
198 0
140 0
425 198 0
10 0
31 0
227 0
250 28 0
425 298 0
447 0
391 0
256 490 0
67 452 0
325 0
171 475 0
314 0
210 0
122 411 0
24 415 0
421 0
272 0
94 -501 0
413 -501 0
-94 -413 501 0
104 -502 0
438 -502 0
-104 -438 502 0
-104 -503 0
46 -503 0
104 -46 503 0
-320 -504 0
165 -504 0
320 -165 504 0
-367 -505 0
305 -505 0
367 -305 505 0
220 -506 0
106 -506 0
-220 -106 506 0
-14 -507 0
241 -507 0
14 -241 507 0
256 -508 0
-459 -508 0
-256 459 508 0
-45 -509 0
185 -509 0
45 -185 509 0
-369 -510 0
419 -510 0
369 -419 510 0
320 -511 0
268 -511 0
-320 -268 511 0
279 -512 0
-406 -512 0
-279 406 512 0
308 -513 0
-247 -513 0
-308 247 513 0
473 -514 0
-127 -514 0
-473 127 514 0
168 -515 0
-39 -515 0
-168 39 515 0
192 -516 0
-354 -516 0
-192 354 516 0
-88 -517 0
166 -517 0
88 -166 517 0
-480 -518 0
393 -518 0
480 -393 518 0
-482 -519 0
268 -519 0
482 -268 519 0
23 -520 0
-395 -520 0
-23 395 520 0
-435 -521 0
388 -521 0
435 -388 521 0
-408 -522 0
305 -522 0
408 -305 522 0
-146 -523 0
493 -523 0
146 -493 523 0
82 -524 0
-351 -524 0
-82 351 524 0
127 -525 0
380 -525 0
-127 -380 525 0
-377 -526 0
161 -526 0
377 -161 526 0
195 -527 0
-101 -527 0
-195 101 527 0
70 -528 0
75 -528 0
-70 -75 528 0
-97 -529 0
65 -529 0
97 -65 529 0
-140 -530 0
444 -530 0
140 -444 530 0
-240 -531 0
244 -531 0
240 -244 531 0
56 -532 0
-113 -532 0
-56 113 532 0
-496 -533 0
217 -533 0
496 -217 533 0
-65 -534 0
180 -534 0
65 -180 534 0
-331 -535 0
293 -535 0
331 -293 535 0
123 -536 0
121 -536 0
-123 -121 536 0
344 -537 0
-90 -537 0
-344 90 537 0
-321 -538 0
340 -538 0
321 -340 538 0
304 -539 0
36 -539 0
-304 -36 539 0
-108 -540 0
457 -540 0
108 -457 540 0
16 -541 0
-366 -541 0
-16 366 541 0
219 -542 0
-191 -542 0
-219 191 542 0
208 -543 0
347 -543 0
-208 -347 543 0
87 -544 0
-172 -544 0
-87 172 544 0
220 -545 0
-229 -545 0
-220 229 545 0
31 -546 0
-380 -546 0
-31 380 546 0
44 -547 0
-85 -547 0
-44 85 547 0
483 -548 0
442 -548 0
-483 -442 548 0
-385 -549 0
23 -549 0
385 -23 549 0
405 -550 0
-142 -550 0
-405 142 550 0
-220 -551 0
490 -551 0
220 -490 551 0
-474 -552 0
492 -552 0
474 -492 552 0
-171 -553 0
115 -553 0
171 -115 553 0
280 -554 0
421 -554 0
-280 -421 554 0
-402 -555 0
395 -555 0
402 -395 555 0
-180 -556 0
306 -556 0
180 -306 556 0
192 -557 0
371 -557 0
-192 -371 557 0
63 -558 0
222 -558 0
-63 -222 558 0
-196 -559 0
91 -559 0
196 -91 559 0
-185 -560 0
417 -560 0
185 -417 560 0
399 -561 0
479 -561 0
-399 -479 561 0
-371 -562 0
100 -562 0
371 -100 562 0
270 -563 0
273 -563 0
-270 -273 563 0
341 -564 0
-236 -564 0
-341 236 564 0
-313 -565 0
206 -565 0
313 -206 565 0
389 -566 0
89 -566 0
-389 -89 566 0
484 -567 0
58 -567 0
-484 -58 567 0
486 -568 0
324 -568 0
-486 -324 568 0
264 -569 0
-199 -569 0
-264 199 569 0
-354 -570 0
34 -570 0
354 -34 570 0
-40 -571 0
119 -571 0
40 -119 571 0
181 -572 0
108 -572 0
-181 -108 572 0
446 -573 0
-429 -573 0
-446 429 573 0
-449 -574 0
395 -574 0
449 -395 574 0
-497 -575 0
334 -575 0
497 -334 575 0
40 -576 0
-487 -576 0
-40 487 576 0
486 -577 0
227 -577 0
-486 -227 577 0
432 -578 0
118 -578 0
-432 -118 578 0
-235 -579 0
409 -579 0
235 -409 579 0
87 -580 0
-244 -580 0
-87 244 580 0
434 -581 0
401 -581 0
-434 -401 581 0
-64 -582 0
370 -582 0
64 -370 582 0
224 -583 0
94 -583 0
-224 -94 583 0
112 -584 0
248 -584 0
-112 -248 584 0
428 -585 0
-277 -585 0
-428 277 585 0
-355 -586 0
4 -586 0
355 -4 586 0
-18 -587 0
500 -587 0
18 -500 587 0
55 -588 0
-63 -588 0
-55 63 588 0
7 -589 0
14 -589 0
-7 -14 589 0
159 -590 0
458 -590 0
-159 -458 590 0
-212 -591 0
249 -591 0
212 -249 591 0
-377 -592 0
228 -592 0
377 -228 592 0
-12 -593 0
58 -593 0
12 -58 593 0
6 -594 0
354 -594 0
-6 -354 594 0
-452 -595 0
427 -595 0
452 -427 595 0
239 -596 0
-202 -596 0
-239 202 596 0
328 -597 0
-199 -597 0
-328 199 597 0
276 -598 0
-334 -598 0
-276 334 598 0
-485 -599 0
347 -599 0
485 -347 599 0
-43 -600 0
169 -600 0
43 -169 600 0
176 -601 0
-436 -601 0
-176 436 601 0
352 -602 0
127 -602 0
-352 -127 602 0
124 -603 0
274 -603 0
-124 -274 603 0
460 -604 0
257 -604 0
-460 -257 604 0
-220 -605 0
260 -605 0
220 -260 605 0
-182 -606 0
433 -606 0
182 -433 606 0
13 -607 0
386 -607 0
-13 -386 607 0
407 -608 0
-52 -608 0
-407 52 608 0
-312 -609 0
293 -609 0
312 -293 609 0
-467 -610 0
131 -610 0
467 -131 610 0
208 -611 0
367 -611 0
-208 -367 611 0
189 -612 0
-131 -612 0
-189 131 612 0
431 -613 0
402 -613 0
-431 -402 613 0
29 -614 0
428 -614 0
-29 -428 614 0
-66 -615 0
341 -615 0
66 -341 615 0
-10 -616 0
434 -616 0
10 -434 616 0
456 -617 0
-431 -617 0
-456 431 617 0
286 -618 0
-231 -618 0
-286 231 618 0
-115 -619 0
401 -619 0
115 -401 619 0
388 -620 0
81 -620 0
-388 -81 620 0
442 -621 0
-222 -621 0
-442 222 621 0
392 -622 0
-15 -622 0
-392 15 622 0
27 -623 0
-173 -623 0
-27 173 623 0
46 -624 0
457 -624 0
-46 -457 624 0
472 -625 0
-46 -625 0
-472 46 625 0
206 -626 0
-283 -626 0
-206 283 626 0
326 -627 0
53 -627 0
-326 -53 627 0
254 -628 0
-444 -628 0
-254 444 628 0
381 -629 0
45 -629 0
-381 -45 629 0
147 -630 0
449 -630 0
-147 -449 630 0
428 -631 0
163 -631 0
-428 -163 631 0
365 -632 0
403 -632 0
-365 -403 632 0
294 -633 0
-443 -633 0
-294 443 633 0
-133 -634 0
306 -634 0
133 -306 634 0
-56 -635 0
60 -635 0
56 -60 635 0
443 -636 0
-37 -636 0
-443 37 636 0
282 -637 0
49 -637 0
-282 -49 637 0
359 -638 0
225 -638 0
-359 -225 638 0
244 -639 0
34 -639 0
-244 -34 639 0
439 -640 0
249 -640 0
-439 -249 640 0
14 -641 0
364 -641 0
-14 -364 641 0
327 -642 0
-140 -642 0
-327 140 642 0
-378 -643 0
357 -643 0
378 -357 643 0
474 -644 0
169 -644 0
-474 -169 644 0
-206 -645 0
457 -645 0
206 -457 645 0
236 -646 0
362 -646 0
-236 -362 646 0
39 -647 0
55 -647 0
-39 -55 647 0
-261 -648 0
145 -648 0
261 -145 648 0
-450 -649 0
105 -649 0
450 -105 649 0
-355 -650 0
397 -650 0
355 -397 650 0
-98 -651 0
277 -651 0
98 -277 651 0
24 -652 0
-343 -652 0
-24 343 652 0
-475 -653 0
298 -653 0
475 -298 653 0
406 -654 0
243 -654 0
-406 -243 654 0
447 -655 0
236 -655 0
-447 -236 655 0
-386 -656 0
299 -656 0
386 -299 656 0
325 -657 0
-287 -657 0
-325 287 657 0
197 -658 0
105 -658 0
-197 -105 658 0
-369 -659 0
438 -659 0
369 -438 659 0
423 -660 0
-145 -660 0
-423 145 660 0
-480 -661 0
83 -661 0
480 -83 661 0
223 -662 0
-291 -662 0
-223 291 662 0
461 -663 0
156 -663 0
-461 -156 663 0
18 -664 0
97 -664 0
-18 -97 664 0
71 -665 0
-226 -665 0
-71 226 665 0
-72 -666 0
241 -666 0
72 -241 666 0
-260 -667 0
297 -667 0
260 -297 667 0
476 -668 0
-303 -668 0
-476 303 668 0
-216 -669 0
443 -669 0
216 -443 669 0
288 -670 0
-298 -670 0
-288 298 670 0
339 -671 0
386 -671 0
-339 -386 671 0
-345 -672 0
437 -672 0
345 -437 672 0
-53 -673 0
138 -673 0
53 -138 673 0
-208 -674 0
99 -674 0
208 -99 674 0
455 -675 0
324 -675 0
-455 -324 675 0
-369 -676 0
51 -676 0
369 -51 676 0
406 -677 0
417 -677 0
-406 -417 677 0
-456 -678 0
54 -678 0
456 -54 678 0
35 -679 0
83 -679 0
-35 -83 679 0
-176 -680 0
193 -680 0
176 -193 680 0
-248 -681 0
342 -681 0
248 -342 681 0
103 -682 0
411 -682 0
-103 -411 682 0
-234 -683 0
194 -683 0
234 -194 683 0
112 -684 0
385 -684 0
-112 -385 684 0
-153 -685 0
67 -685 0
153 -67 685 0
334 -686 0
90 -686 0
-334 -90 686 0
54 -687 0
158 -687 0
-54 -158 687 0
221 -688 0
388 -688 0
-221 -388 688 0
113 -689 0
321 -689 0
-113 -321 689 0
-188 -690 0
307 -690 0
188 -307 690 0
8 -691 0
-99 -691 0
-8 99 691 0
112 -692 0
-162 -692 0
-112 162 692 0
-331 -693 0
266 -693 0
331 -266 693 0
180 -694 0
-383 -694 0
-180 383 694 0
307 -695 0
410 -695 0
-307 -410 695 0
-387 -696 0
201 -696 0
387 -201 696 0
32 -697 0
180 -697 0
-32 -180 697 0
56 -698 0
-426 -698 0
-56 426 698 0
418 -699 0
129 -699 0
-418 -129 699 0
-24 -700 0
31 -700 0
24 -31 700 0
374 -701 0
-283 -701 0
-374 283 701 0
-371 -702 0
203 -702 0
371 -203 702 0
79 -703 0
-262 -703 0
-79 262 703 0
388 -704 0
308 -704 0
-388 -308 704 0
-33 -705 0
197 -705 0
33 -197 705 0
-19 -706 0
52 -706 0
19 -52 706 0
284 -707 0
81 -707 0
-284 -81 707 0
412 -708 0
201 -708 0
-412 -201 708 0
248 -709 0
357 -709 0
-248 -357 709 0
218 -710 0
-38 -710 0
-218 38 710 0
-465 -711 0
135 -711 0
465 -135 711 0
288 -712 0
-376 -712 0
-288 376 712 0
379 -713 0
481 -713 0
-379 -481 713 0
-159 -714 0
132 -715 0
-213 -715 0
-132 213 715 0
406 -716 0
124 -716 0
-406 -124 716 0
411 -717 0
-430 -717 0
-411 430 717 0
-106 -718 0
129 -718 0
106 -129 718 0
-388 -719 0
130 -719 0
388 -130 719 0
427 -720 0
138 -720 0
-427 -138 720 0
-26 -721 0
467 -721 0
26 -467 721 0
258 -722 0
241 -722 0
-258 -241 722 0
67 -723 0
153 -723 0
-67 -153 723 0
239 -724 0
-222 -724 0
-239 222 724 0
411 -725 0
266 -725 0
-411 -266 725 0
181 -726 0
292 -726 0
-181 -292 726 0
-328 -727 0
300 -727 0
328 -300 727 0
159 -728 0
-387 -728 0
-159 387 728 0
11 -729 0
313 -729 0
-11 -313 729 0
252 -730 0
-397 -730 0
-252 397 730 0
373 -731 0
-318 -731 0
-373 318 731 0
484 -732 0
-492 -732 0
-484 492 732 0
58 -733 0
322 -733 0
-58 -322 733 0
435 -734 0
235 -734 0
-435 -235 734 0
235 -735 0
-141 -735 0
-235 141 735 0
360 -736 0
455 -736 0
-360 -455 736 0
320 -737 0
-163 -737 0
-320 163 737 0
376 -738 0
-44 -738 0
-376 44 738 0
140 -739 0
-391 -739 0
-140 391 739 0
-294 -740 0
314 -740 0
294 -314 740 0
216 -741 0
-238 -741 0
-216 238 741 0
277 -742 0
-110 -742 0
-277 110 742 0
366 -743 0
34 -743 0
-366 -34 743 0
352 -744 0
437 -744 0
-352 -437 744 0
255 -745 0
186 -745 0
-255 -186 745 0
-234 -746 0
348 -746 0
234 -348 746 0
-346 -747 0
154 -747 0
346 -154 747 0
-386 -748 0
236 -748 0
386 -236 748 0
215 -749 0
-434 -749 0
-215 434 749 0
-104 -750 0
19 -750 0
104 -19 750 0
-266 -751 0
417 -751 0
266 -417 751 0
316 -752 0
212 -752 0
-316 -212 752 0
487 -753 0
-202 -753 0
-487 202 753 0
138 -754 0
97 -754 0
-138 -97 754 0
232 -755 0
169 -755 0
-232 -169 755 0
-33 -756 0
365 -756 0
33 -365 756 0
240 -757 0
162 -757 0
-240 -162 757 0
313 -758 0
41 -758 0
-313 -41 758 0
30 -759 0
177 -759 0
-30 -177 759 0
-64 -760 0
32 -760 0
64 -32 760 0
323 -761 0
-214 -761 0
-323 214 761 0
78 -762 0
211 -762 0
-78 -211 762 0
336 -763 0
413 -763 0
-336 -413 763 0
354 -764 0
258 -764 0
-354 -258 764 0
375 -765 0
51 -765 0
-375 -51 765 0
-17 -766 0
108 -766 0
17 -108 766 0
276 -767 0
107 -767 0
-276 -107 767 0
365 -768 0
-141 -768 0
-365 141 768 0
470 -769 0
-139 -769 0
-470 139 769 0
-416 -770 0
357 -770 0
416 -357 770 0
61 -771 0
-141 -771 0
-61 141 771 0
-161 -772 0
195 -772 0
161 -195 772 0
-41 -773 0
281 -773 0
41 -281 773 0
-41 -774 0
437 -774 0
41 -437 774 0
-169 -775 0
252 -775 0
169 -252 775 0
-300 -776 0
275 -776 0
300 -275 776 0
392 -777 0
-268 -777 0
-392 268 777 0
-17 -778 0
222 -778 0
17 -222 778 0
287 -779 0
164 -779 0
-287 -164 779 0
245 -780 0
-331 -780 0
-245 331 780 0
-245 -781 0
34 -781 0
245 -34 781 0
-410 -782 0
330 -782 0
410 -330 782 0
-398 -783 0
242 -783 0
398 -242 783 0
287 -784 0
-140 -784 0
-287 140 784 0
196 -785 0
-151 -785 0
-196 151 785 0
126 -786 0
-237 -786 0
-126 237 786 0
260 -787 0
475 -787 0
-260 -475 787 0
367 -788 0
-431 -788 0
-367 431 788 0
371 -789 0
401 -789 0
-371 -401 789 0
136 -790 0
388 -790 0
-136 -388 790 0
-294 -791 0
378 -791 0
294 -378 791 0
429 -792 0
125 -792 0
-429 -125 792 0
422 -793 0
-147 -793 0
-422 147 793 0
38 -794 0
-484 -794 0
-38 484 794 0
129 -795 0
-9 -796 0
339 -796 0
9 -339 796 0
349 -797 0
-47 -797 0
-349 47 797 0
431 -798 0
207 -798 0
-431 -207 798 0
240 -799 0
476 -799 0
-240 -476 799 0
-424 -800 0
479 -800 0
424 -479 800 0
-125 -801 0
27 -801 0
125 -27 801 0
-454 -802 0
217 -802 0
454 -217 802 0
168 -803 0
-93 -803 0
-168 93 803 0
389 -804 0
153 -804 0
-389 -153 804 0
93 -805 0
177 -805 0
-93 -177 805 0
-48 -806 0
397 -806 0
48 -397 806 0
499 -807 0
-327 -807 0
-499 327 807 0
342 -808 0
-419 -808 0
-342 419 808 0
-176 -809 0
430 -809 0
176 -430 809 0
-162 -810 0
345 -810 0
162 -345 810 0
495 -811 0
-351 -811 0
-495 351 811 0
46 -812 0
253 -812 0
-46 -253 812 0
-424 -813 0
480 -813 0
424 -480 813 0
400 -814 0
-485 -814 0
-400 485 814 0
438 -815 0
29 -815 0
-438 -29 815 0
221 -816 0
-311 -816 0
-221 311 816 0
-37 -817 0
129 -817 0
37 -129 817 0
188 -818 0
363 -818 0
-188 -363 818 0
92 -819 0
91 -819 0
-92 -91 819 0
104 -820 0
-397 -820 0
-104 397 820 0
144 -821 0
41 -821 0
-144 -41 821 0
325 -822 0
-356 -822 0
-325 356 822 0
-272 -823 0
377 -823 0
272 -377 823 0
205 -824 0
-356 -824 0
-205 356 824 0
141 -825 0
82 -825 0
-141 -82 825 0
151 -826 0
-441 -826 0
-151 441 826 0
-189 -827 0
170 -827 0
189 -170 827 0
278 -828 0
483 -828 0
-278 -483 828 0
-400 -829 0
318 -829 0
400 -318 829 0
48 -830 0
-475 -830 0
-48 475 830 0
437 -831 0
129 -831 0
-437 -129 831 0
276 -832 0
67 -832 0
-276 -67 832 0
271 -833 0
186 -833 0
-271 -186 833 0
335 -834 0
-428 -834 0
-335 428 834 0
-156 -835 0
59 -835 0
156 -59 835 0
-191 -836 0
473 -836 0
191 -473 836 0
346 -837 0
-159 -837 0
-346 159 837 0
258 -838 0
209 -838 0
-258 -209 838 0
167 -839 0
-381 -839 0
-167 381 839 0
-90 -840 0
242 -840 0
90 -242 840 0
-210 -841 0
101 -841 0
210 -101 841 0
-166 -842 0
146 -842 0
166 -146 842 0
-68 -843 0
275 -843 0
68 -275 843 0
471 -844 0
-495 -844 0
-471 495 844 0
-234 -845 0
129 -845 0
234 -129 845 0
15 -846 0
-93 -846 0
-15 93 846 0
-15 -847 0
81 -847 0
15 -81 847 0
-176 -848 0
134 -848 0
176 -134 848 0
262 -849 0
-246 -849 0
-262 246 849 0
314 -850 0
25 -850 0
-314 -25 850 0
341 -851 0
-276 -851 0
-341 276 851 0
295 -852 0
-429 -852 0
-295 429 852 0
351 -853 0
-308 -853 0
-351 308 853 0
286 -854 0
-83 -854 0
-286 83 854 0
-323 -855 0
331 -855 0
323 -331 855 0
-95 -856 0
89 -856 0
95 -89 856 0
376 -857 0
59 -857 0
-376 -59 857 0
357 -858 0
397 -858 0
-357 -397 858 0
280 -859 0
39 -859 0
-280 -39 859 0
383 -860 0
-388 -860 0
-383 388 860 0
-193 -861 0
106 -861 0
193 -106 861 0
292 -862 0
138 -862 0
-292 -138 862 0
493 -863 0
385 -863 0
-493 -385 863 0
375 -864 0
-78 -864 0
-375 78 864 0
-352 -865 0
188 -865 0
352 -188 865 0
254 -866 0
41 -866 0
-254 -41 866 0
-204 -867 0
225 -867 0
204 -225 867 0
-9 -868 0
490 -868 0
9 -490 868 0
253 -869 0
-406 -869 0
-253 406 869 0
15 -870 0
-142 -870 0
-15 142 870 0
-385 -871 0
83 -871 0
385 -83 871 0
440 -872 0
-198 -872 0
-440 198 872 0
-498 -873 0
29 -873 0
498 -29 873 0
94 -874 0
-495 -874 0
-94 495 874 0
304 -875 0
-89 -875 0
-304 89 875 0
111 -876 0
148 -876 0
-111 -148 876 0
45 -877 0
-310 -877 0
-45 310 877 0
-236 -878 0
275 -878 0
236 -275 878 0
-219 -879 0
393 -879 0
219 -393 879 0
190 -880 0
261 -880 0
-190 -261 880 0
-281 -881 0
165 -881 0
281 -165 881 0
317 -882 0
2 -882 0
-317 -2 882 0
404 -883 0
122 -883 0
-404 -122 883 0
376 -884 0
-175 -884 0
-376 175 884 0
411 -885 0
-6 -885 0
-411 6 885 0
-152 -886 0
149 -886 0
152 -149 886 0
-480 -887 0
326 -887 0
480 -326 887 0
147 -888 0
306 -888 0
-147 -306 888 0
500 -889 0
-95 -889 0
-500 95 889 0
327 -890 0
-393 -890 0
-327 393 890 0
88 -891 0
-74 -891 0
-88 74 891 0
162 -892 0
473 -892 0
-162 -473 892 0
20 -893 0
362 -893 0
-20 -362 893 0
-272 -894 0
386 -894 0
272 -386 894 0
3 -895 0
-85 -895 0
-3 85 895 0
-333 -896 0
241 -896 0
333 -241 896 0
-354 -897 0
340 -897 0
354 -340 897 0
-192 -898 0
378 -898 0
192 -378 898 0
43 -899 0
-110 -899 0
-43 110 899 0
-438 -900 0
473 -900 0
438 -473 900 0
328 -901 0
393 -901 0
-328 -393 901 0
-83 -902 0
132 -902 0
83 -132 902 0
77 -903 0
194 -903 0
-77 -194 903 0
-410 -904 0
84 -904 0
410 -84 904 0
232 -905 0
256 -905 0
-232 -256 905 0
431 -906 0
221 -906 0
-431 -221 906 0
474 -907 0
-22 -907 0
-474 22 907 0
-443 -908 0
372 -908 0
443 -372 908 0
296 -909 0
-196 -909 0
-296 196 909 0
47 -910 0
420 -910 0
-47 -420 910 0
-20 -911 0
441 -911 0
20 -441 911 0
408 -912 0
-110 -912 0
-408 110 912 0
-186 -913 0
190 -913 0
186 -190 913 0
167 -914 0
-459 -914 0
-167 459 914 0
-105 -915 0
465 -915 0
105 -465 915 0
-109 -916 0
123 -916 0
109 -123 916 0
-248 -917 0
160 -917 0
248 -160 917 0
29 -918 0
490 -918 0
-29 -490 918 0
-1 -919 0
25 -919 0
1 -25 919 0
-320 -920 0
295 -920 0
320 -295 920 0
429 -921 0
-315 -921 0
-429 315 921 0
135 -922 0
81 -922 0
-135 -81 922 0
223 -923 0
-235 -923 0
-223 235 923 0
-401 -924 0
340 -924 0
401 -340 924 0
-379 -925 0
154 -925 0
379 -154 925 0
422 -926 0
156 -926 0
-422 -156 926 0
256 -927 0
469 -927 0
-256 -469 927 0
102 -928 0
225 -928 0
-102 -225 928 0
245 -929 0
-431 -929 0
-245 431 929 0
23 -930 0
195 -930 0
-23 -195 930 0
96 -931 0
224 -931 0
-96 -224 931 0
-352 -932 0
271 -932 0
352 -271 932 0
378 -933 0
-214 -933 0
-378 214 933 0
464 -934 0
211 -934 0
-464 -211 934 0
334 -935 0
323 -935 0
-334 -323 935 0
437 -936 0
-342 -936 0
-437 342 936 0
87 -937 0
151 -937 0
-87 -151 937 0
-272 -938 0
239 -938 0
272 -239 938 0
310 -939 0
443 -939 0
-310 -443 939 0
356 -940 0
234 -940 0
-356 -234 940 0
-225 -941 0
169 -941 0
225 -169 941 0
336 -942 0
-161 -942 0
-336 161 942 0
13 -943 0
123 -943 0
-13 -123 943 0
424 -944 0
-197 -944 0
-424 197 944 0
60 -945 0
-44 -945 0
-60 44 945 0
-153 -946 0
122 -946 0
153 -122 946 0
-180 -947 0
444 -947 0
180 -444 947 0
-472 -948 0
102 -948 0
472 -102 948 0
-254 -949 0
185 -949 0
254 -185 949 0
213 -950 0
-140 -950 0
-213 140 950 0
290 -951 0
434 -951 0
-290 -434 951 0
245 -952 0
-223 -952 0
-245 223 952 0
-233 -953 0
319 -953 0
233 -319 953 0
-179 -954 0
217 -954 0
179 -217 954 0
437 -955 0
-78 -955 0
-437 78 955 0
-468 -956 0
249 -956 0
468 -249 956 0
-385 -957 0
278 -957 0
385 -278 957 0
52 -958 0
-413 -958 0
-52 413 958 0
-80 -959 0
8 -959 0
80 -8 959 0
278 -960 0
-445 -960 0
-278 445 960 0
423 -961 0
-334 -961 0
-423 334 961 0
-163 -962 0
372 -962 0
163 -372 962 0
88 -963 0
251 -963 0
-88 -251 963 0
245 -964 0
-292 -964 0
-245 292 964 0
-302 -965 0
18 -965 0
302 -18 965 0
87 -966 0
135 -966 0
-87 -135 966 0
176 -967 0
-82 -967 0
-176 82 967 0
-465 -968 0
4 -968 0
465 -4 968 0
389 -969 0
-204 -969 0
-389 204 969 0
397 -970 0
-44 -970 0
-397 44 970 0
-398 -971 0
345 -971 0
398 -345 971 0
447 -972 0
-478 -972 0
-447 478 972 0
321 -973 0
73 -973 0
-321 -73 973 0
163 -974 0
10 -974 0
-163 -10 974 0
246 -975 0
-446 -975 0
-246 446 975 0
210 -976 0
-39 -976 0
-210 39 976 0
433 -977 0
449 -977 0
-433 -449 977 0
-275 -978 0
460 -978 0
275 -460 978 0
37 -979 0
-435 -979 0
-37 435 979 0
-283 -980 0
489 -980 0
283 -489 980 0
284 -981 0
145 -981 0
-284 -145 981 0
63 -982 0
-406 -982 0
-63 406 982 0
-459 -983 0
36 -983 0
459 -36 983 0
77 -984 0
-427 -984 0
-77 427 984 0
483 -985 0
-45 -985 0
-483 45 985 0
488 -986 0
131 -986 0
-488 -131 986 0
71 -987 0
202 -987 0
-71 -202 987 0
-299 -988 0
459 -988 0
299 -459 988 0
78 -989 0
277 -989 0
-78 -277 989 0
335 -990 0
-174 -990 0
-335 174 990 0
-147 -991 0
93 -991 0
147 -93 991 0
-425 -992 0
51 -992 0
425 -51 992 0
303 -993 0
396 -993 0
-303 -396 993 0
471 -994 0
109 -994 0
-471 -109 994 0
287 -995 0
-405 -995 0
-287 405 995 0
-459 -996 0
122 -996 0
459 -122 996 0
349 -997 0
-341 -997 0
-349 341 997 0
-81 -998 0
466 -998 0
81 -466 998 0
30 -999 0
-142 -999 0
-30 142 999 0
7 -1000 0
290 -1000 0
-7 -290 1000 0
-240 -1001 0
190 -1001 0
240 -190 1001 0
-110 -1002 0
17 -1002 0
110 -17 1002 0
-454 -1003 0
2 -1003 0
454 -2 1003 0
-125 -1004 0
297 -1004 0
125 -297 1004 0
445 -1005 0
187 -1005 0
-445 -187 1005 0
494 -1006 0
317 -1006 0
-494 -317 1006 0
141 -1007 0
459 -1007 0
-141 -459 1007 0
252 -1008 0
99 -1009 0
-55 -1009 0
-99 55 1009 0
172 -1010 0
266 -1010 0
-172 -266 1010 0
-337 -1011 0
182 -1011 0
337 -182 1011 0
288 -1012 0
-289 -1012 0
-288 289 1012 0
277 -1013 0
-37 -1013 0
-277 37 1013 0
446 -1014 0
386 -1014 0
-446 -386 1014 0
-420 -1015 0
457 -1015 0
420 -457 1015 0
-448 -1016 0
422 -1016 0
448 -422 1016 0
-482 -1017 0
35 -1017 0
482 -35 1017 0
-24 -1018 0
223 -1018 0
24 -223 1018 0
-408 -1019 0
203 -1019 0
408 -203 1019 0
-420 -1020 0
186 -1020 0
420 -186 1020 0
176 -1021 0
-152 -1021 0
-176 152 1021 0
227 -1022 0
347 -1022 0
-227 -347 1022 0
356 -1023 0
425 -1023 0
-356 -425 1023 0
-80 -1024 0
372 -1024 0
80 -372 1024 0
478 -1025 0
228 -1025 0
-478 -228 1025 0
485 -1026 0
-478 -1026 0
-485 478 1026 0
296 -1027 0
-499 -1027 0
-296 499 1027 0
431 -1028 0
356 -1028 0
-431 -356 1028 0
-261 -1029 0
146 -1029 0
261 -146 1029 0
439 -1030 0
398 -1030 0
-439 -398 1030 0
307 -1031 0
418 -1031 0
-307 -418 1031 0
-404 -1032 0
419 -1032 0
404 -419 1032 0
-400 -1033 0
260 -1033 0
400 -260 1033 0
485 -1034 0
-188 -1034 0
-485 188 1034 0
348 -1035 0
82 -1035 0
-348 -82 1035 0
-172 -1036 0
201 -1036 0
172 -201 1036 0
-144 -1037 0
253 -1037 0
144 -253 1037 0
155 -1038 0
-246 -1038 0
-155 246 1038 0
188 -1039 0
-422 -1039 0
-188 422 1039 0
253 -1040 0
-102 -1040 0
-253 102 1040 0
-216 -1041 0
6 -1041 0
216 -6 1041 0
324 -1042 0
-7 -1042 0
-324 7 1042 0
-2 -1043 0
387 -1043 0
2 -387 1043 0
83 -1044 0
441 -1044 0
-83 -441 1044 0
469 -1045 0
484 -1045 0
-469 -484 1045 0
-305 -1046 0
260 -1046 0
305 -260 1046 0
304 -1047 0
70 -1047 0
-304 -70 1047 0
-433 -1048 0
181 -1048 0
433 -181 1048 0
143 -1049 0
-314 -1049 0
-143 314 1049 0
-328 -1050 0
449 -1050 0
328 -449 1050 0
14 -1051 0
233 -1051 0
-14 -233 1051 0
333 -1052 0
-135 -1052 0
-333 135 1052 0
-104 -1053 0
391 -1053 0
104 -391 1053 0
-440 -1054 0
251 -1054 0
440 -251 1054 0
392 -1055 0
176 -1055 0
-392 -176 1055 0
-117 -1056 0
202 -1056 0
117 -202 1056 0
-400 -1057 0
331 -1057 0
400 -331 1057 0
399 -1058 0
-462 -1058 0
-399 462 1058 0
48 -1059 0
-137 -1059 0
-48 137 1059 0
128 -1060 0
180 -1060 0
-128 -180 1060 0
-228 -1061 0
385 -1061 0
228 -385 1061 0
-448 -1062 0
158 -1062 0
448 -158 1062 0
-314 -1063 0
419 -1063 0
314 -419 1063 0
256 -1064 0
435 -1064 0
-256 -435 1064 0
142 -1065 0
-110 -1065 0
-142 110 1065 0
213 -1066 0
-327 -1066 0
-213 327 1066 0
391 -1067 0
-22 -1067 0
-391 22 1067 0
-115 -1068 0
226 -1068 0
115 -226 1068 0
459 -1069 0
-181 -1069 0
-459 181 1069 0
-417 -1070 0
478 -1070 0
417 -478 1070 0
-241 -1071 0
442 -1071 0
241 -442 1071 0
70 -1072 0
126 -1072 0
-70 -126 1072 0
-448 -1073 0
433 -1073 0
448 -433 1073 0
-293 -1074 0
466 -1074 0
293 -466 1074 0
472 -1075 0
-269 -1075 0
-472 269 1075 0
-419 -1076 0
171 -1076 0
419 -171 1076 0
286 -1077 0
178 -1077 0
-286 -178 1077 0
56 -1078 0
-340 -1078 0
-56 340 1078 0
418 -1079 0
-367 -1079 0
-418 367 1079 0
22 -1080 0
218 -1080 0
-22 -218 1080 0
-288 -1081 0
424 -1081 0
288 -424 1081 0
369 -1082 0
-207 -1082 0
-369 207 1082 0
469 -1083 0
-462 -1083 0
-469 462 1083 0
416 -1084 0
455 -1084 0
-416 -455 1084 0
-99 -1085 0
74 -1085 0
99 -74 1085 0
94 -1086 0
25 -1086 0
-94 -25 1086 0
248 -1087 0
-342 -1087 0
-248 342 1087 0
387 -1088 0
41 -1088 0
-387 -41 1088 0
-176 -1089 0
412 -1089 0
176 -412 1089 0
201 -1090 0
433 -1090 0
-201 -433 1090 0
280 -1091 0
192 -1091 0
-280 -192 1091 0
431 -1092 0
-93 -1092 0
-431 93 1092 0
229 -1093 0
-381 -1093 0
-229 381 1093 0
426 -1094 0
-327 -1094 0
-426 327 1094 0
406 -1095 0
-428 -1095 0
-406 428 1095 0
-62 -1096 0
209 -1096 0
62 -209 1096 0
-292 -1097 0
73 -1097 0
292 -73 1097 0
-217 -1098 0
468 -1098 0
217 -468 1098 0
32 -1099 0
72 -1099 0
-32 -72 1099 0
470 -1100 0
290 -1101 0
345 -1101 0
-290 -345 1101 0
462 -1102 0
409 -1102 0
-462 -409 1102 0
349 -1103 0
17 -1103 0
-349 -17 1103 0
170 -1104 0
193 -1104 0
-170 -193 1104 0
310 -1105 0
445 -1105 0
-310 -445 1105 0
359 -1106 0
-12 -1106 0
-359 12 1106 0
-343 -1107 0
25 -1107 0
343 -25 1107 0
-450 -1108 0
414 -1108 0
450 -414 1108 0
-385 -1109 0
109 -1109 0
385 -109 1109 0
-210 -1110 0
386 -1110 0
210 -386 1110 0
133 -1111 0
-469 -1111 0
-133 469 1111 0
259 -1112 0
-343 -1112 0
-259 343 1112 0
168 -1113 0
-150 -1113 0
-168 150 1113 0
464 -1114 0
-454 -1114 0
-464 454 1114 0
232 -1115 0
-135 -1115 0
-232 135 1115 0
440 -1116 0
437 -1116 0
-440 -437 1116 0
68 -1117 0
164 -1117 0
-68 -164 1117 0
-384 -1118 0
421 -1118 0
384 -421 1118 0
413 -1119 0
-102 -1119 0
-413 102 1119 0
422 -1120 0
-317 -1120 0
-422 317 1120 0
373 -1121 0
-158 -1121 0
-373 158 1121 0
-194 -1122 0
5 -1122 0
194 -5 1122 0
-404 -1123 0
377 -1123 0
404 -377 1123 0
-447 -1124 0
465 -1124 0
447 -465 1124 0
499 -1125 0
442 -1125 0
-499 -442 1125 0
241 -1126 0
-31 -1126 0
-241 31 1126 0
248 -1127 0
409 -1127 0
-248 -409 1127 0
319 -1128 0
-467 -1128 0
-319 467 1128 0
23 -1129 0
103 -1129 0
-23 -103 1129 0
104 -1130 0
-134 -1130 0
-104 134 1130 0
108 -1131 0
105 -1131 0
-108 -105 1131 0
-307 -1132 0
491 -1132 0
307 -491 1132 0
333 -1133 0
355 -1133 0
-333 -355 1133 0
68 -1134 0
-302 -1134 0
-68 302 1134 0
-84 -1135 0
217 -1135 0
84 -217 1135 0
493 -1136 0
-125 -1136 0
-493 125 1136 0
-345 -1137 0
193 -1137 0
345 -193 1137 0
310 -1138 0
-133 -1138 0
-310 133 1138 0
334 -1139 0
-332 -1139 0
-334 332 1139 0
-443 -1140 0
1 -1140 0
443 -1 1140 0
144 -1141 0
473 -1141 0
-144 -473 1141 0
96 -1142 0
-474 -1142 0
-96 474 1142 0
363 -1143 0
-246 -1143 0
-363 246 1143 0
256 -1144 0
-314 -1144 0
-256 314 1144 0
172 -1145 0
451 -1145 0
-172 -451 1145 0
39 -1146 0
-77 -1146 0
-39 77 1146 0
272 -1147 0
-278 -1147 0
-272 278 1147 0
27 -1148 0
-7 -1148 0
-27 7 1148 0
239 -1149 0
-423 -1149 0
-239 423 1149 0
100 -1150 0
257 -1150 0
-100 -257 1150 0
392 -1151 0
500 -1151 0
-392 -500 1151 0
136 -1152 0
78 -1152 0
-136 -78 1152 0
295 -1153 0
-59 -1153 0
-295 59 1153 0
352 -1154 0
261 -1154 0
-352 -261 1154 0
-137 -1155 0
499 -1155 0
137 -499 1155 0
300 -1156 0
20 -1156 0
-300 -20 1156 0
173 -1157 0
308 -1157 0
-173 -308 1157 0
386 -1158 0
65 -1158 0
-386 -65 1158 0
69 -1159 0
164 -1159 0
-69 -164 1159 0
108 -1160 0
292 -1160 0
-108 -292 1160 0
-154 -1161 0
171 -1161 0
154 -171 1161 0
-209 -1162 0
422 -1162 0
209 -422 1162 0
278 -1163 0
-468 -1163 0
-278 468 1163 0
140 -1164 0
-374 -1164 0
-140 374 1164 0
68 -1165 0
-135 -1165 0
-68 135 1165 0
421 -1166 0
-343 -1166 0
-421 343 1166 0
19 -1167 0
-255 -1167 0
-19 255 1167 0
307 -1168 0
250 -1168 0
-307 -250 1168 0
214 -1169 0
485 -1169 0
-214 -485 1169 0
302 -1170 0
265 -1170 0
-302 -265 1170 0
5 -1171 0
-279 -1171 0
-5 279 1171 0
-268 -1172 0
220 -1172 0
268 -220 1172 0
351 -1173 0
-55 -1173 0
-351 55 1173 0
373 -1174 0
413 -1174 0
-373 -413 1174 0
-180 -1175 0
90 -1175 0
180 -90 1175 0
-387 -1176 0
137 -1176 0
387 -137 1176 0
318 -1177 0
-38 -1177 0
-318 38 1177 0
-65 -1178 0
220 -1178 0
65 -220 1178 0
-321 -1179 0
297 -1179 0
321 -297 1179 0
-233 -1180 0
205 -1180 0
233 -205 1180 0
-89 -1181 0
138 -1181 0
89 -138 1181 0
54 -1182 0
210 -1182 0
-54 -210 1182 0
-11 -1183 0
434 -1183 0
11 -434 1183 0
267 -1184 0
83 -1184 0
-267 -83 1184 0
387 -1185 0
-383 -1185 0
-387 383 1185 0
-179 -1186 0
387 -1186 0
179 -387 1186 0
239 -1187 0
262 -1187 0
-239 -262 1187 0
64 -1188 0
-81 -1188 0
-64 81 1188 0
416 -1189 0
279 -1189 0
-416 -279 1189 0
134 -1190 0
317 -1190 0
-134 -317 1190 0
246 -1191 0
-333 -1191 0
-246 333 1191 0
464 -1192 0
16 -1192 0
-464 -16 1192 0
315 -1193 0
-382 -1193 0
-315 382 1193 0
272 -1194 0
-59 -1194 0
-272 59 1194 0
384 -1195 0
-489 -1195 0
-384 489 1195 0
-132 -1196 0
436 -1196 0
132 -436 1196 0
-96 -1197 0
414 -1197 0
96 -414 1197 0
21 -1198 0
345 -1198 0
-21 -345 1198 0
292 -1199 0
387 -1199 0
-292 -387 1199 0
-408 -1200 0
181 -1200 0
408 -181 1200 0
383 -1201 0
363 -1201 0
-383 -363 1201 0
7 -1202 0
-327 -1202 0
-7 327 1202 0
-234 -1203 0
205 -1203 0
234 -205 1203 0
53 -1204 0
-239 -1204 0
-53 239 1204 0
472 -1205 0
-134 -1205 0
-472 134 1205 0
224 -1206 0
332 -1206 0
-224 -332 1206 0
194 -1207 0
234 -1207 0
-194 -234 1207 0
183 -1208 0
165 -1208 0
-183 -165 1208 0
492 -1209 0
-397 -1209 0
-492 397 1209 0
460 -1210 0
-103 -1210 0
-460 103 1210 0
422 -1211 0
49 -1211 0
-422 -49 1211 0
374 -1212 0
-125 -1212 0
-374 125 1212 0
-105 -1213 0
235 -1213 0
105 -235 1213 0
-179 -1214 0
434 -1214 0
179 -434 1214 0
-481 -1215 0
265 -1215 0
481 -265 1215 0
229 -1216 0
43 -1216 0
-229 -43 1216 0
-73 -1217 0
138 -1217 0
73 -138 1217 0
70 -1218 0
425 -1218 0
-70 -425 1218 0
101 -1219 0
435 -1219 0
-101 -435 1219 0
287 -1220 0
389 -1220 0
-287 -389 1220 0
14 -1221 0
286 -1221 0
-14 -286 1221 0
-186 -1222 0
52 -1222 0
186 -52 1222 0
205 -1223 0
-244 -1223 0
-205 244 1223 0
-163 -1224 0
114 -1224 0
163 -114 1224 0
-106 -1225 0
337 -1225 0
106 -337 1225 0
-99 -1226 0
77 -1226 0
99 -77 1226 0
326 -1227 0
133 -1227 0
-326 -133 1227 0
-104 -1228 0
139 -1228 0
104 -139 1228 0
-289 -1229 0
147 -1229 0
289 -147 1229 0
286 -1230 0
-34 -1230 0
-286 34 1230 0
480 -1231 0
-154 -1231 0
-480 154 1231 0
305 -1232 0
169 -1232 0
-305 -169 1232 0
-81 -1233 0
491 -1233 0
81 -491 1233 0
-410 -1234 0
14 -1234 0
410 -14 1234 0
479 -1235 0
-70 -1235 0
-479 70 1235 0
157 -1236 0
146 -1236 0
-157 -146 1236 0
-249 -1237 0
134 -1237 0
249 -134 1237 0
-193 -1238 0
202 -1238 0
193 -202 1238 0
367 -1239 0
225 -1239 0
-367 -225 1239 0
325 -1240 0
443 -1240 0
-325 -443 1240 0
-202 -1241 0
390 -1241 0
202 -390 1241 0
100 -1242 0
338 -1242 0
-100 -338 1242 0
246 -1243 0
-301 -1243 0
-246 301 1243 0
112 -1244 0
-280 -1244 0
-112 280 1244 0
-292 -1245 0
162 -1245 0
292 -162 1245 0
