p cnf 8644 41460
110 0
373 0
944 765 0
113 0
273 633 0
706 0
688 19 0
844 0
189 0
137 106 0
170 180 0
426 0
453 0
986 0
664 121 0
494 0
19 0
345 558 0
417 519 0
820 0
186 0
116 0
809 0
844 967 0
328 0
239 0
782 0
637 367 0
25 0
910 0
351 0
250 0
957 0
95 231 0
17 0
377 0
215 0
147 516 0
546 142 0
645 0
962 0
698 0
329 0
696 0
885 119 0
1000 145 0
88 0
259 870 0
434 0
115 399 0
610 0
80 0
503 0
787 342 0
231 0
515 0
961 0
308 0
116 0
876 0
58 855 0
497 0
389 0
730 437 0
84 0
478 0
59 0
321 0
616 94 0
283 0
995 940 0
790 0
267 0
926 583 0
75 0
485 0
369 0
615 0
736 0
985 0
871 0
96 459 0
695 0
391 0
841 553 0
886 0
402 875 0
995 0
165 0
398 0
681 133 0
781 0
982 0
633 639 0
198 0
321 0
40 0
697 0
585 0
804 0
181 0
268 0
584 0
408 999 0
876 455 0
61 0
962 0
822 0
708 0
190 0
264 0
855 0
944 0
291 0
224 0
603 727 0
809 178 0
237 0
78 0
661 0
155 0
876 852 0
546 0
474 0
529 0
247 0
830 0
984 1000 0
690 0
844 0
146 382 0
22 0
459 830 0
410 0
239 0
236 822 0
500 0
310 0
996 0
33 0
289 555 0
154 0
408 0
196 301 0
73 0
201 0
343 0
485 0
494 0
175 0
964 0
129 0
244 0
778 926 0
113 802 0
952 0
589 0
86 0
654 0
716 0
648 945 0
879 0
905 0
366 0
620 0
47 0
602 0
960 796 0
475 564 0
832 0
946 0
317 0
335 0
83 0
744 0
114 0
687 0
593 0
172 0
738 0
804 0
641 0
648 524 0
163 270 0
983 0
838 0
728 0
899 638 0
681 0
590 775 0
282 662 0
36 0
784 0
865 0
232 0
568 0
642 0
929 0
923 0
472 944 0
631 0
993 0
208 30 0
288 0
966 0
746 829 0
710 0
609 642 0
50 0
797 309 0
808 0
51 845 0
633 870 0
565 0
696 0
107 839 0
953 307 0
538 0
649 0
627 0
34 0
830 0
899 0
594 0
75 0
920 0
129 0
390 0
373 0
987 806 0
385 649 0
415 0
930 0
635 0
324 0
740 397 0
118 0
676 0
969 477 0
388 751 0
331 0
456 93 0
670 0
874 644 0
853 223 0
56 385 0
133 0
598 0
800 663 0
763 0
332 0
985 861 0
396 0
617 0
141 0
552 0
470 751 0
915 316 0
684 0
555 94 0
828 0
228 862 0
257 102 0
949 295 0
769 0
756 0
740 0
720 0
234 0
710 0
500 0
795 0
913 0
116 0
110 0
842 0
634 0
223 0
244 0
701 398 0
96 0
537 0
593 0
687 0
577 489 0
709 0
658 675 0
579 0
894 0
546 4 0
344 0
681 0
955 54 0
584 0
322 507 0
316 0
58 0
828 0
827 0
36 0
514 39 0
507 0
176 153 0
303 0
915 567 0
64 923 0
380 0
699 0
897 483 0
334 0
827 0
525 0
878 990 0
672 0
465 0
59 0
803 155 0
350 0
150 0
455 399 0
832 740 0
214 678 0
386 0
103 0
374 0
174 0
255 0
553 638 0
527 0
666 0
434 0
228 0
96 0
145 29 0
137 0
590 0
726 0
365 0
27 0
237 0
332 454 0
841 390 0
281 0
745 0
230 0
388 669 0
896 0
922 260 0
481 782 0
643 0
680 949 0
154 239 0
657 249 0
215 0
693 391 0
515 0
240 84 0
228 0
620 668 0
220 462 0
234 0
44 0
993 0
576 0
613 0
429 886 0
833 573 0
42 0
760 29 0
502 0
493 0
279 0
294 310 0
354 811 0
51 0
657 0
162 546 0
781 0
907 0
58 0
752 777 0
376 0
683 0
328 292 0
575 0
289 574 0
922 0
647 0
619 796 0
708 981 0
424 0
690 286 0
646 55 0
113 0
658 0
968 0
954 0
681 390 0
618 0
808 722 0
275 0
162 935 0
950 319 0
880 0
359 0
401 214 0
446 0
526 0
859 0
250 165 0
717 886 0
961 0
668 0
213 0
438 0
480 0
298 0
546 0
672 263 0
497 0
34 0
708 0
660 0
874 0
518 0
996 0
657 0
352 850 0
274 0
789 0
656 0
883 0
236 0
464 0
698 963 0
9 889 0
702 0
499 0
280 430 0
121 0
735 0
600 0
595 0
215 0
568 802 0
394 0
195 0
7 0
428 0
792 0
328 219 0
314 0
862 0
670 0
775 0
382 0
774 0
913 0
556 0
883 0
111 0
228 0
417 0
323 692 0
568 572 0
116 0
402 0
640 0
353 0
745 0
345 0
603 479 0
527 0
548 0
562 0
762 0
679 0
596 0
391 0
11 0
237 0
461 0
42 300 0
215 799 0
124 0
142 0
196 55 0
972 0
488 0
490 0
763 0
320 878 0
35 251 0
584 0
56 998 0
878 311 0
453 0
847 0
52 0
463 0
365 0
2 310 0
364 230 0
110 0
139 381 0
893 0
888 798 0
798 0
348 0
398 0
152 0
827 0
106 0
776 0
296 0
395 0
211 636 0
978 0
848 45 0
633 77 0
699 0
456 0
726 79 0
489 28 0
984 850 0
208 574 0
336 0
342 262 0
438 0
73 428 0
939 223 0
861 0
790 0
434 0
396 0
463 0
786 843 0
123 0
384 0
540 0
621 0
557 863 0
597 0
553 0
78 0
576 0
816 559 0
853 438 0
683 0
584 1 0
677 0
792 369 0
109 687 0
604 0
114 10 0
258 0
401 0
38 0
75 0
100 0
427 567 0
744 771 0
355 995 0
342 0
802 0
227 0
897 859 0
544 0
563 143 0
920 113 0
785 366 0
784 77 0
200 165 0
105 437 0
388 0
21 310 0
993 0
608 45 0
143 0
472 598 0
565 0
241 523 0
842 0
179 0
91 0
661 0
745 0
909 0
220 0
283 0
52 324 0
892 0
318 0
95 0
291 668 0
202 0
256 0
301 0
536 132 0
484 0
945 0
45 0
471 0
622 0
104 0
852 0
847 0
600 0
375 0
664 0
212 0
412 0
955 0
455 0
366 0
228 0
618 911 0
198 0
56 0
609 0
516 0
49 0
96 170 0
657 0
3 548 0
464 60 0
761 726 0
186 0
650 0
732 0
976 40 0
531 0
462 0
19 0
116 0
627 406 0
781 0
216 0
822 0
714 0
406 0
121 684 0
33 740 0
766 0
975 0
42 583 0
509 0
412 0
250 0
894 0
541 925 0
842 214 0
109 79 0
97 563 0
970 378 0
91 0
580 0
117 0
339 0
315 671 0
245 231 0
744 100 0
486 0
660 0
110 0
544 601 0
744 0
862 0
177 0
811 0
96 972 0
899 653 0
184 523 0
981 0
332 0
365 0
405 0
542 0
917 0
779 0
380 0
715 0
890 0
13 0
871 0
365 0
368 351 0
298 0
618 0
350 0
875 0
818 0
558 0
437 0
826 0
612 295 0
228 0
856 420 0
601 818 0
30 0
348 230 0
29 0
697 143 0
300 383 0
212 0
185 0
907 0
841 0
866 172 0
155 108 0
720 0
757 0
689 0
972 0
799 0
573 0
485 0
724 0
348 0
240 926 0
676 0
51 0
800 0
214 0
600 446 0
168 115 0
546 0
624 600 0
631 0
98 142 0
498 325 0
608 17 0
98 0
91 382 0
382 0
31 0
457 0
492 783 0
472 418 0
365 0
419 36 0
700 0
643 0
422 0
868 0
935 0
564 0
145 67 0
912 923 0
354 0
247 0
695 0
914 607 0
200 0
563 525 0
111 0
628 0
883 211 0
744 836 0
528 654 0
784 655 0
400 0
433 877 0
189 0
27 39 0
628 0
287 751 0
712 391 0
609 0
892 0
823 887 0
986 455 0
701 0
524 0
245 0
271 607 0
487 0
745 234 0
353 171 0
286 0
184 0
984 214 0
825 0
459 0
675 0
405 0
617 476 0
993 0
802 342 0
596 0
390 0
889 127 0
216 0
240 0
283 293 0
638 0
697 0
946 0
673 0
860 637 0
545 0
514 891 0
435 0
590 0
960 0
321 0
362 0
176 0
680 0
696 571 0
82 0
383 0
621 94 0
350 0
816 619 0
886 0
207 0
433 0
154 570 0
546 511 0
293 0
891 0
265 639 0
59 195 0
228 0
960 489 0
83 0
61 0
9 437 0
106 429 0
106 0
940 0
481 0
946 0
955 0
13 0
112 0
969 575 0
816 612 0
609 486 0
493 0
969 0
984 342 0
916 0
775 0
822 0
964 0
701 0
734 0
139 0
807 943 0
993 0
277 0
51 0
192 365 0
42 0
280 692 0
770 85 0
725 0
561 0
177 0
293 462 0
76 0
78 0
787 0
383 0
855 0
584 0
789 0
944 13 0
699 0
441 0
752 0
462 0
876 0
148 175 0
293 0
281 0
354 325 0
156 734 0
912 0
295 0
165 822 0
64 725 0
674 0
512 844 0
483 775 0
392 0
933 0
787 0
519 0
969 0
925 0
93 583 0
180 183 0
216 242 0
348 0
937 777 0
682 0
980 0
599 0
107 0
926 0
443 93 0
595 0
744 831 0
367 0
536 466 0
60 0
508 0
809 0
316 0
516 294 0
856 0
146 0
136 740 0
60 0
422 0
715 0
285 0
193 126 0
389 0
616 0
653 78 0
13 0
623 0
741 0
74 0
856 410 0
761 0
923 0
20 0
539 525 0
453 0
712 340 0
889 0
642 842 0
872 0
256 575 0
300 0
111 0
849 853 0
68 0
913 0
101 0
592 0
932 0
552 0
512 962 0
820 0
565 0
141 0
858 0
296 81 0
819 438 0
124 0
670 0
827 717 0
67 0
75 739 0
557 0
205 0
105 0
150 0
996 0
817 0
858 0
934 0
793 481 0
739 319 0
274 0
390 0
97 566 0
648 883 0
271 0
8 212 0
717 0
892 0
714 0
689 777 0
54 126 0
273 0
526 0
896 661 0
748 0
305 171 0
745 0
991 0
64 636 0
332 0
580 21 0
487 0
583 0
917 398 0
149 367 0
771 0
837 0
308 92 0
302 0
656 0
467 182 0
985 771 0
574 0
126 0
758 0
571 0
724 103 0
676 0
614 0
609 0
844 0
99 0
100 0
667 0
456 903 0
918 0
297 932 0
97 842 0
380 0
186 890 0
564 0
906 0
212 0
785 0
203 0
376 652 0
869 0
777 589 0
245 0
802 0
644 0
101 0
345 1 0
369 295 0
777 538 0
622 0
207 0
224 0
928 431 0
954 46 0
359 0
641 0
307 651 0
253 23 0
274 0
769 261 0
923 0
777 50 0
876 60 0
17 0
950 359 0
843 0
598 0
962 47 0
634 175 0
507 0
991 471 0
241 0
121 0
458 293 0
983 0
912 106 0
270 0
234 0
955 0
785 0
209 0
546 910 0
984 0
590 0
108 0
905 0
127 0
853 0
530 20 0
861 0
715 0
623 0
137 0
870 0
481 0
258 0
833 0
846 0
963 0
802 0
931 0
947 0
730 0
943 0
201 0
724 277 0
221 0
360 0
961 0
692 31 0
580 0
411 7 0
891 373 0
578 979 0
557 0
832 657 0
297 822 0
522 739 0
295 0
914 0
123 293 0
685 718 0
670 39 0
671 0
755 0
16 618 0
65 0
519 0
11 195 0
907 748 0
958 31 0
210 663 0
78 0
897 0
417 0
706 836 0
704 989 0
648 811 0
512 0
479 0
459 78 0
344 0
24 0
446 6 0
173 0
198 0
312 0
986 0
127 0
37 0
984 419 0
105 0
919 0
429 0
384 802 0
60 0
178 0
968 597 0
686 0
230 0
541 789 0
994 0
74 332 0
106 197 0
163 524 0
303 0
781 0
67 0
716 0
775 0
787 0
497 471 0
816 0
34 0
208 288 0
753 340 0
577 519 0
915 643 0
200 0
359 0
853 805 0
450 0
819 671 0
587 366 0
832 453 0
578 357 0
508 934 0
36 0
636 0
369 701 0
881 0
865 634 0
144 0
594 895 0
978 0
600 460 0
795 0
225 244 0
636 31 0
205 0
855 0
547 0
775 0
763 420 0
151 0
129 0
367 0
875 0
272 638 0
71 0
316 38 0
848 0
174 0
995 0
549 0
655 0
584 0
349 0
133 0
365 0
320 0
926 0
484 0
525 966 0
94 0
144 434 0
250 0
747 0
384 0
737 0
988 0
271 0
74 0
854 0
177 0
959 519 0
397 0
404 390 0
244 687 0
635 0
937 0
986 0
921 0
938 0
8 0
243 0
783 0
169 219 0
14 0
731 759 0
210 92 0
508 973 0
130 627 0
16 206 0
384 773 0
249 726 0
389 0
952 0
939 847 0
614 254 0
748 0
285 149 0
696 391 0
9 0
848 0
160 54 0
727 0
105 0
568 0
513 36 0
983 0
771 0
338 0
853 0
56 318 0
549 0
336 0
886 0
76 0
499 77 0
668 373 0
772 430 0
908 540 0
363 0
939 910 0
802 0
616 108 0
387 0
577 0
644 0
6 0
524 0
410 0
689 0
635 0
24 612 0
870 0
584 0
857 0
384 0
75 0
759 0
160 545 0
538 0
162 0
287 0
586 611 0
16 0
27 151 0
243 0
854 0
534 0
784 991 0
847 0
186 0
201 0
562 0
859 0
671 407 0
833 579 0
661 214 0
139 0
676 375 0
85 0
81 0
39 0
56 702 0
785 0
521 0
186 910 0
681 174 0
812 53 0
18 0
273 211 0
23 0
422 0
699 535 0
172 0
928 0
144 481 0
78 799 0
981 0
729 0
872 740 0
84 557 0
768 0
682 0
233 813 0
678 999 0
505 0
544 786 0
250 471 0
353 0
921 0
745 301 0
747 607 0
728 0
422 0
598 0
745 0
139 989 0
191 0
150 0
508 0
55 0
483 652 0
274 0
107 447 0
39 0
181 0
869 0
128 0
498 767 0
619 0
916 0
971 0
773 0
832 915 0
753 817 0
85 0
182 0
48 183 0
749 0
796 13 0
203 0
603 0
741 0
648 91 0
348 669 0
743 0
524 189 0
310 0
337 681 0
88 0
940 0
473 0
989 0
877 0
7 0
688 0
46 0
469 0
885 0
347 550 0
49 0
141 0
345 198 0
197 134 0
914 0
705 0
782 0
432 856 0
459 420 0
910 0
113 890 0
529 0
943 0
887 0
486 0
245 509 0
776 0
943 0
938 0
144 0
281 885 0
345 793 0
825 0
73 0
242 0
94 0
791 0
970 0
366 0
250 0
932 0
603 0
59 0
472 0
541 0
800 0
452 0
180 0
607 0
433 0
186 967 0
968 0
827 4 0
130 0
340 318 0
625 77 0
504 108 0
101 0
972 0
466 0
977 0
304 937 0
332 0
46 0
204 175 0
81 0
562 0
334 494 0
461 901 0
640 0
930 0
808 0
316 646 0
932 0
408 0
384 0
850 0
704 854 0
920 0
284 846 0
912 0
472 910 0
461 526 0
860 85 0
887 0
428 0
368 0
584 0
531 251 0
946 0
835 0
591 0
838 0
632 0
90 738 0
36 895 0
868 0
524 0
577 751 0
347 0
988 0
961 0
33 0
286 0
159 0
80 0
973 0
892 519 0
729 583 0
269 0
225 818 0
359 0
919 0
281 243 0
793 717 0
502 0
60 0
431 0
170 47 0
582 206 0
545 0
40 575 0
471 0
356 0
584 981 0
779 197 0
635 740 0
187 487 0
501 0
27 0
24 0
880 820 0
814 0
68 343 0
483 0
665 0
604 0
113 745 0
968 0
669 0
139 503 0
781 0
106 0
753 0
196 613 0
280 0
560 948 0
732 0
657 498 0
699 710 0
255 0
501 0
691 0
944 0
776 0
609 610 0
913 607 0
335 0
159 0
672 0
925 0
473 0
874 0
249 0
826 0
326 0
763 0
100 0
374 0
931 742 0
793 145 0
200 0
838 0
341 375 0
580 0
458 0
190 0
794 494 0
289 0
837 0
402 158 0
223 0
638 0
835 0
682 0
810 0
205 0
405 0
379 550 0
855 0
643 782 0
10 0
411 0
694 174 0
459 0
720 0
841 795 0
80 128 0
26 0
445 0
626 0
276 0
844 879 0
457 877 0
683 204 0
709 0
267 0
635 0
352 111 0
165 0
717 0
820 254 0
167 135 0
562 597 0
272 0
440 0
221 0
483 0
611 0
928 0
28 0
808 749 0
323 0
435 0
570 746 0
248 0
661 591 0
936 0
489 762 0
468 0
241 682 0
684 0
472 0
849 0
203 0
771 877 0
596 0
264 650 0
38 0
485 0
489 85 0
326 0
501 63 0
315 453 0
160 13 0
796 0
989 0
321 0
706 643 0
36 0
575 0
275 0
287 0
394 253 0
450 0
807 0
689 0
558 0
771 747 0
106 0
389 415 0
866 955 0
516 0
431 0
820 0
76 0
794 100 0
21 0
881 0
588 222 0
818 531 0
104 768 0
135 0
289 0
814 0
112 518 0
313 0
872 0
728 0
335 0
755 0
360 0
547 475 0
470 575 0
18 0
295 0
556 0
945 0
721 0
395 0
140 637 0
880 0
874 755 0
232 0
493 646 0
886 790 0
530 0
609 355 0
907 0
284 0
193 364 0
119 0
344 873 0
804 829 0
352 0
663 0
652 765 0
402 0
466 0
2 268 0
539 0
946 325 0
764 0
280 355 0
51 0
692 837 0
776 0
460 0
581 0
610 0
501 887 0
676 0
155 0
575 0
5 0
140 0
655 0
355 260 0
180 0
516 0
709 78 0
103 0
728 233 0
267 0
308 0
347 0
76 0
465 155 0
546 0
374 766 0
733 0
709 0
984 652 0
82 164 0
265 557 0
248 620 0
195 0
791 0
976 0
520 0
891 164 0
187 711 0
80 549 0
569 0
346 917 0
266 0
128 577 0
51 0
287 799 0
837 0
966 0
440 702 0
467 0
825 0
843 0
748 22 0
990 0
793 458 0
294 0
661 54 0
654 391 0
384 135 0
16 0
416 0
865 0
771 0
507 0
425 476 0
50 983 0
352 185 0
886 0
75 0
978 0
65 905 0
188 141 0
847 0
735 0
324 0
854 0
389 0
440 0
167 0
232 0
734 0
148 0
602 831 0
515 0
809 0
818 790 0
60 0
607 943 0
870 0
780 102 0
259 0
299 647 0
766 0
387 629 0
470 0
594 634 0
744 0
364 0
828 0
624 107 0
993 554 0
931 0
293 0
275 0
659 982 0
545 265 0
118 702 0
555 0
380 0
56 451 0
148 0
145 0
209 0
263 0
569 967 0
705 0
86 0
217 0
328 7 0
636 909 0
251 0
311 0
20 0
121 0
429 0
956 0
412 517 0
398 0
163 0
553 0
251 0
138 0
132 36 0
109 0
582 0
191 0
847 0
288 341 0
226 76 0
611 0
48 139 0
435 110 0
50 43 0
14 0
766 0
449 0
379 614 0
466 357 0
766 998 0
163 0
505 231 0
503 0
507 0
912 426 0
202 0
877 0
220 284 0
962 0
281 557 0
80 0
431 0
487 0
987 0
906 0
480 0
742 0
795 195 0
5 0
387 0
918 0
986 23 0
314 43 0
745 0
702 0
354 0
963 0
339 0
18 0
159 0
307 0
674 0
412 0
73 0
698 533 0
944 0
543 0
308 0
202 71 0
671 0
376 887 0
111 0
656 866 0
114 0
346 0
656 185 0
46 0
284 213 0
984 0
940 0
842 974 0
810 0
316 0
190 0
937 151 0
741 0
718 0
170 316 0
526 0
829 0
871 0
129 0
669 0
736 0
818 740 0
553 0
79 0
281 0
518 0
163 0
472 687 0
991 0
953 0
640 979 0
128 142 0
781 0
401 0
857 310 0
273 0
718 0
476 0
781 0
311 0
597 0
513 0
326 0
54 0
514 0
521 0
406 0
147 0
667 0
776 396 0
438 0
825 0
367 0
235 0
169 0
724 0
171 487 0
999 0
702 0
915 661 0
760 635 0
995 0
978 647 0
295 0
459 0
121 0
489 0
334 0
794 0
277 0
458 190 0
773 302 0
865 0
381 0
102 0
126 0
888 0
363 211 0
982 0
85 0
72 949 0
59 44 0
22 271 0
354 0
381 0
1000 536 0
995 76 0
872 0
177 0
582 375 0
374 495 0
332 0
753 186 0
186 0
978 0
848 676 0
708 263 0
673 390 0
740 0
311 0
366 0
292 239 0
932 0
450 0
827 0
231 0
59 0
328 119 0
756 228 0
345 0
348 525 0
218 0
473 193 0
506 439 0
45 0
635 0
137 0
560 471 0
299 0
810 501 0
560 0
927 0
970 0
987 0
924 101 0
971 0
324 0
387 85 0
550 0
302 0
33 316 0
572 0
121 0
846 0
911 0
712 0
600 0
557 645 0
580 0
117 0
111 0
174 0
316 165 0
484 0
831 0
595 628 0
643 214 0
204 0
168 176 0
732 0
520 0
736 0
736 0
412 0
533 0
713 0
940 687 0
27 0
771 0
408 831 0
329 885 0
273 356 0
579 211 0
899 783 0
684 0
267 901 0
176 0
9 0
512 871 0
868 0
108 0
542 0
72 486 0
287 215 0
524 0
301 0
946 0
267 0
129 13 0
12 342 0
881 339 0
687 0
460 0
340 0
33 885 0
289 0
832 971 0
318 262 0
28 0
840 0
132 933 0
111 0
256 0
784 0
793 458 0
160 0
158 0
453 165 0
695 0
183 0
59 0
42 14 0
777 402 0
993 0
36 0
493 0
822 0
828 0
811 0
694 166 0
3 0
403 0
746 0
942 78 0
76 0
948 0
114 0
193 197 0
136 0
941 0
556 0
281 253 0
51 0
922 846 0
32 0
474 0
117 0
250 87 0
34 0
662 0
614 0
579 0
429 0
993 0
888 0
985 0
173 0
772 0
198 0
425 0
580 183 0
400 0
375 0
141 0
345 0
242 7 0
163 0
30 0
907 316 0
319 215 0
745 0
869 0
176 0
614 0
844 0
482 0
862 0
424 336 0
640 1 0
625 0
716 0
954 404 0
792 0
522 0
111 0
843 484 0
430 0
277 0
891 0
207 0
180 0
298 0
137 0
235 916 0
476 0
358 622 0
239 167 0
112 842 0
721 623 0
513 0
874 0
936 343 0
770 0
463 0
43 971 0
293 0
365 0
106 0
628 0
32 0
200 0
342 0
65 0
386 0
867 484 0
426 0
545 0
755 0
335 0
722 186 0
713 0
368 0
767 0
494 0
89 556 0
972 317 0
604 479 0
265 0
659 0
232 67 0
950 0
689 0
360 0
323 0
489 0
617 10 0
218 0
647 0
829 0
675 0
652 0
34 59 0
758 0
117 0
924 12 0
675 0
68 0
667 671 0
140 0
563 0
971 0
5 0
506 533 0
967 0
697 0
610 516 0
867 27 0
900 0
731 0
516 0
895 0
406 0
871 0
362 619 0
634 75 0
303 0
700 0
996 0
658 0
945 651 0
337 217 0
694 0
962 0
289 0
37 591 0
597 582 0
1 291 0
754 0
103 0
356 0
95 0
560 0
253 0
123 0
133 0
519 0
156 0
55 0
436 0
591 0
147 0
835 565 0
815 0
132 0
366 0
408 901 0
975 0
194 0
820 0
969 261 0
96 538 0
482 982 0
896 871 0
953 0
960 58 0
145 0
926 0
618 0
586 0
48 478 0
53 437 0
401 0
854 0
603 11 0
385 0
207 0
711 0
662 391 0
985 0
258 147 0
552 906 0
183 0
424 0
873 0
273 94 0
531 85 0
857 0
749 0
987 0
258 0
792 0
538 404 0
416 919 0
867 533 0
222 0
537 0
672 478 0
872 85 0
257 396 0
955 0
435 0
489 44 0
246 0
987 0
638 0
241 0
238 0
937 0
201 0
984 0
270 0
243 0
104 0
911 0
933 0
910 0
973 421 0
85 0
630 0
352 0
607 0
74 271 0
476 71 0
753 990 0
565 0
341 0
430 0
626 0
716 0
28 190 0
80 0
734 0
158 0
437 0
877 0
608 543 0
385 0
14 0
557 0
170 0
685 0
371 327 0
495 0
622 15 0
847 719 0
335 0
27 0
784 0
250 0
916 575 0
464 0
170 0
625 357 0
13 0
568 63 0
711 0
939 471 0
616 268 0
994 550 0
252 0
539 0
751 0
244 397 0
32 0
947 0
267 421 0
633 0
912 650 0
173 0
246 0
944 10 0
185 639 0
268 0
408 626 0
330 0
905 0
218 0
478 0
490 0
225 0
77 0
881 0
151 0
982 0
562 0
254 0
455 0
762 251 0
202 317 0
673 0
353 0
637 0
654 494 0
561 90 0
988 748 0
768 605 0
939 0
721 0
175 0
713 0
619 0
264 828 0
87 0
496 0
602 0
924 501 0
473 242 0
688 698 0
710 702 0
56 634 0
265 0
261 0
364 0
896 0
538 399 0
472 0
142 0
447 0
461 0
626 108 0
529 962 0
872 0
862 0
936 0
362 0
737 196 0
354 883 0
785 732 0
276 0
671 0
944 665 0
370 974 0
549 0
597 0
117 957 0
83 212 0
690 470 0
845 0
201 0
770 0
287 0
904 739 0
52 0
412 559 0
794 0
393 807 0
595 0
850 764 0
276 783 0
471 0
79 0
466 245 0
521 0
351 0
682 0
865 538 0
700 405 0
101 0
81 0
611 0
229 0
610 406 0
619 0
161 51 0
404 0
756 0
673 354 0
675 0
385 0
161 884 0
902 0
973 806 0
557 0
555 0
251 0
98 663 0
21 0
682 349 0
687 0
312 0
237 0
346 748 0
722 0
624 0
153 0
750 0
379 884 0
64 0
75 0
554 765 0
188 918 0
821 0
303 0
41 270 0
534 0
32 0
583 0
996 0
694 0
346 0
45 22 0
480 0
742 0
316 223 0
521 0
185 0
417 0
652 0
417 339 0
24 0
56 0
841 606 0
778 0
545 590 0
107 471 0
198 0
428 463 0
477 0
583 0
273 0
667 254 0
618 0
152 0
303 0
442 0
913 0
948 0
658 0
978 0
417 373 0
477 0
266 0
739 972 0
808 0
387 0
192 338 0
955 596 0
656 0
666 742 0
275 0
124 0
186 638 0
912 0
545 362 0
970 0
597 0
43 46 0
73 0
214 0
332 0
122 0
800 0
132 0
833 0
358 0
250 0
992 0
345 626 0
300 0
176 818 0
906 788 0
633 0
185 494 0
852 0
259 0
1000 0
426 0
485 0
569 0
225 0
584 0
339 591 0
92 989 0
885 0
687 0
255 0
673 0
532 0
726 0
968 0
915 0
393 0
953 850 0
424 332 0
618 164 0
662 0
928 278 0
545 0
803 0
833 714 0
616 0
751 0
136 265 0
958 0
664 0
308 0
335 0
225 10 0
88 0
326 0
344 0
130 894 0
815 0
60 934 0
977 725 0
457 0
186 579 0
305 549 0
621 655 0
397 0
917 0
207 0
543 0
590 351 0
846 0
566 0
737 573 0
219 0
127 0
555 0
265 0
243 0
730 794 0
130 0
644 0
904 0
592 16 0
83 445 0
61 0
749 0
264 0
746 875 0
715 0
363 0
610 0
536 0
478 0
472 0
44 454 0
16 643 0
539 0
29 0
198 0
767 0
35 142 0
100 0
640 0
697 710 0
737 0
593 0
834 0
376 421 0
229 0
940 783 0
22 0
496 28 0
215 0
464 0
544 259 0
445 0
173 0
25 420 0
576 0
440 0
150 0
514 0
894 0
437 0
870 0
952 291 0
652 0
341 927 0
285 679 0
416 984 0
600 0
454 0
779 0
434 0
793 0
706 18 0
669 0
178 0
736 212 0
822 0
781 0
339 607 0
315 0
505 438 0
919 0
370 0
276 70 0
939 0
615 0
619 708 0
600 0
18 127 0
586 119 0
570 0
120 486 0
317 0
417 0
328 621 0
115 0
601 0
933 0
192 0
107 0
899 0
847 0
340 0
893 14 0
620 0
611 0
929 0
946 551 0
272 886 0
584 0
64 5 0
555 757 0
504 845 0
240 893 0
409 0
979 0
419 893 0
294 0
387 0
820 525 0
685 0
878 0
803 0
579 0
544 811 0
514 0
140 0
168 0
380 0
274 83 0
356 0
378 0
688 0
473 0
357 0
810 260 0
243 365 0
196 0
231 0
986 0
637 0
91 0
674 0
10 0
581 85 0
819 0
852 0
422 111 0
955 0
434 509 0
604 757 0
652 550 0
916 0
291 0
117 0
107 0
714 586 0
339 221 0
314 181 0
750 0
426 0
14 0
822 0
381 0
817 0
425 0
815 0
837 0
673 0
88 173 0
437 0
180 0
485 0
928 0
505 151 0
608 0
72 0
285 0
600 273 0
777 581 0
921 0
531 0
483 0
187 0
394 0
657 0
59 0
576 0
587 63 0
269 0
82 132 0
692 0
81 0
258 707 0
886 0
513 243 0
834 179 0
168 751 0
26 839 0
789 854 0
634 0
267 0
435 573 0
904 26 0
511 0
987 0
351 0
680 796 0
584 0
978 159 0
774 0
975 0
150 0
509 0
3 884 0
34 276 0
672 532 0
856 507 0
82 0
842 0
409 0
796 0
485 0
521 0
819 0
931 373 0
940 0
323 0
602 603 0
229 646 0
775 0
568 0
26 0
815 0
94 0
447 727 0
716 15 0
264 759 0
454 0
974 0
830 0
1000 546 0
145 0
809 0
48 710 0
286 415 0
541 0
157 0
409 604 0
420 0
800 939 0
246 0
989 0
490 0
632 0
673 0
897 626 0
720 0
196 0
791 0
490 0
843 510 0
290 0
626 0
521 772 0
313 0
322 260 0
57 493 0
539 149 0
384 169 0
160 0
303 0
390 0
661 166 0
202 0
840 0
612 0
108 0
460 0
988 190 0
492 0
120 0
213 0
313 0
24 0
449 852 0
694 0
627 517 0
523 404 0
123 109 0
952 0
743 0
997 0
480 477 0
252 0
930 781 0
506 0
909 647 0
347 0
993 836 0
657 0
962 0
563 0
647 0
670 0
849 419 0
611 0
385 0
393 916 0
737 0
636 845 0
767 0
969 733 0
25 917 0
185 0
589 0
313 0
46 0
877 0
524 0
195 0
160 104 0
28 405 0
227 0
388 0
124 542 0
834 574 0
71 0
98 0
204 0
136 0
697 0
946 133 0
858 0
757 0
910 0
214 662 0
327 0
673 532 0
511 0
713 0
752 527 0
658 0
50 0
122 0
931 0
109 0
914 901 0
591 0
531 0
216 945 0
288 0
658 0
102 366 0
964 781 0
893 463 0
256 685 0
530 0
569 485 0
25 0
735 0
397 0
257 107 0
580 0
889 0
228 0
1000 103 0
653 0
91 181 0
721 298 0
633 0
637 423 0
516 0
480 0
243 893 0
4 629 0
865 932 0
956 0
753 0
165 0
305 173 0
395 572 0
849 428 0
80 253 0
376 355 0
792 0
101 0
434 956 0
90 659 0
48 20 0
684 757 0
695 0
458 151 0
841 753 0
810 675 0
420 180 0
140 869 0
196 0
798 0
305 0
67 396 0
419 0
962 0
257 0
701 0
520 0
531 0
953 357 0
748 0
686 0
382 183 0
284 0
592 0
38 0
476 0
235 286 0
753 598 0
575 0
959 0
374 0
665 0
692 0
900 0
274 141 0
196 0
127 0
483 0
833 449 0
426 0
793 0
250 939 0
27 503 0
720 0
452 0
449 663 0
494 0
370 597 0
130 0
446 0
938 435 0
728 886 0
625 0
407 0
347 966 0
976 794 0
513 0
815 567 0
37 0
737 0
409 0
195 0
745 493 0
131 0
751 823 0
601 0
809 185 0
649 0
597 0
441 686 0
864 33 0
327 0
890 0
138 260 0
492 230 0
231 0
340 47 0
43 806 0
522 485 0
38 687 0
149 0
480 0
996 492 0
908 351 0
649 0
797 0
104 0
345 55 0
980 0
848 0
205 0
324 0
377 0
976 0
458 558 0
609 0
254 0
413 0
271 0
756 0
729 0
574 758 0
475 675 0
795 229 0
929 0
928 0
873 0
74 0
455 0
32 643 0
267 126 0
827 590 0
361 0
401 0
653 0
900 0
120 246 0
642 0
540 789 0
842 0
929 0
400 830 0
128 0
774 0
195 0
569 350 0
186 0
968 0
427 0
129 106 0
938 630 0
251 0
411 68 0
600 0
787 0
380 374 0
384 0
463 0
670 0
878 0
816 342 0
134 0
826 715 0
219 0
486 0
241 423 0
737 779 0
96 0
794 515 0
434 0
707 0
145 531 0
545 0
998 0
796 0
436 0
95 0
339 659 0
870 670 0
483 990 0
440 839 0
658 806 0
747 0
12 581 0
449 0
888 0
834 0
802 0
697 0
669 447 0
620 0
866 0
906 0
840 0
553 903 0
584 0
337 950 0
713 0
433 778 0
364 0
521 797 0
193 0
137 617 0
823 0
908 463 0
851 0
298 0
582 0
842 234 0
665 0
305 775 0
756 231 0
850 0
447 0
451 0
526 0
124 0
606 0
855 0
902 0
536 649 0
371 0
48 29 0
602 68 0
884 517 0
648 108 0
451 0
746 0
529 0
365 0
819 198 0
758 0
802 0
677 0
220 0
392 0
52 0
984 786 0
571 206 0
39 0
952 111 0
359 0
937 0
686 0
562 901 0
421 0
644 0
600 271 0
808 98 0
393 0
575 0
580 446 0
426 0
264 0
687 0
771 0
592 0
835 0
209 715 0
306 639 0
256 0
76 591 0
516 0
54 0
283 0
898 486 0
132 0
571 0
894 0
224 0
894 0
495 0
656 0
674 0
569 701 0
24 0
554 0
199 0
85 0
871 0
149 758 0
624 0
259 947 0
541 0
876 0
825 319 0
872 277 0
566 0
115 0
444 0
792 0
469 0
963 342 0
603 0
257 0
795 686 0
945 451 0
163 814 0
11 0
163 0
40 312 0
297 0
760 0
718 0
602 693 0
645 0
213 0
518 0
193 0
817 0
55 0
968 0
619 0
519 0
907 711 0
252 0
449 0
912 0
82 0
36 399 0
481 0
539 875 0
280 125 0
381 0
41 293 0
202 764 0
260 0
501 933 0
386 805 0
305 926 0
156 0
96 60 0
838 0
268 575 0
47 0
276 0
286 0
457 0
888 734 0
453 0
343 0
430 0
758 0
458 0
436 0
527 0
647 0
780 0
122 877 0
605 0
296 508 0
846 79 0
546 228 0
394 0
832 0
970 0
549 383 0
513 919 0
442 0
947 0
983 0
745 0
66 749 0
516 0
581 293 0
447 0
753 756 0
755 399 0
195 812 0
911 0
752 373 0
42 0
344 0
26 234 0
521 0
184 414 0
848 687 0
398 0
252 462 0
371 836 0
446 0
405 0
599 0
976 796 0
439 0
605 0
386 0
168 494 0
171 0
816 270 0
161 731 0
370 0
85 0
337 809 0
823 0
361 279 0
160 74 0
389 462 0
967 0
914 0
349 0
996 0
695 0
61 0
773 0
79 0
890 0
322 0
806 0
524 0
191 0
84 0
572 0
978 671 0
621 0
597 151 0
7 0
971 0
644 0
708 719 0
440 0
249 987 0
515 0
988 0
39 0
402 196 0
608 0
596 0
677 0
816 876 0
889 499 0
227 0
586 0
318 511 0
873 246 0
897 502 0
410 789 0
728 435 0
976 0
289 450 0
429 0
627 0
989 0
730 199 0
17 0
790 0
944 811 0
302 0
402 531 0
102 0
540 151 0
188 0
209 0
969 18 0
130 995 0
736 661 0
179 0
268 0
846 0
4 0
590 0
848 0
312 87 0
836 0
264 431 0
624 491 0
456 0
739 471 0
877 0
833 0
979 452 0
833 0
423 0
107 0
568 692 0
796 0
48 82 0
298 0
150 0
920 0
906 379 0
522 0
84 542 0
707 0
890 923 0
800 331 0
458 203 0
663 0
616 570 0
50 39 0
375 0
743 0
458 0
626 52 0
298 0
112 0
748 0
874 0
779 236 0
270 0
879 0
358 0
683 0
236 958 0
946 373 0
978 972 0
79 0
183 0
82 0
887 679 0
668 0
132 996 0
546 0
956 951 0
627 68 0
675 196 0
79 0
274 0
647 0
907 0
230 0
746 0
508 70 0
404 0
865 254 0
298 580 0
561 0
812 837 0
297 620 0
507 0
252 941 0
341 0
530 502 0
969 0
974 0
729 45 0
953 0
641 0
502 0
702 0
540 0
170 0
415 0
650 907 0
930 342 0
186 0
481 0
430 0
875 0
337 0
59 0
702 0
406 511 0
715 358 0
715 0
747 0
459 325 0
70 0
561 955 0
196 844 0
641 0
641 0
901 0
658 0
212 774 0
576 0
680 0
982 0
452 0
879 0
242 0
762 999 0
409 174 0
664 0
447 0
704 978 0
488 0
476 7 0
547 0
504 0
204 0
3 0
976 945 0
131 243 0
573 0
643 0
95 0
160 334 0
216 0
908 0
113 0
466 0
353 0
632 377 0
467 0
759 0
419 0
593 0
951 0
818 332 0
136 994 0
583 0
881 0
599 0
362 454 0
562 0
753 0
946 765 0
973 0
388 0
598 0
137 0
698 0
329 0
887 0
200 553 0
436 0
107 0
421 0
608 542 0
452 0
361 172 0
22 0
260 0
745 0
215 0
99 0
955 0
368 0
483 79 0
791 0
680 733 0
871 0
600 0
170 986 0
179 0
432 0
637 0
346 0
287 0
777 0
56 0
18 0
90 0
500 0
310 0
303 0
673 963 0
966 0
238 0
460 0
73 0
247 0
468 606 0
996 596 0
109 0
601 0
612 862 0
689 0
636 0
440 385 0
254 0
315 251 0
493 341 0
236 0
643 0
961 0
478 0
205 0
942 0
668 983 0
965 837 0
729 0
701 0
133 0
519 0
173 302 0
550 0
84 0
521 0
339 0
975 0
749 0
496 202 0
427 966 0
355 309 0
560 0
479 0
595 964 0
967 0
486 775 0
311 0
769 0
258 0
80 0
764 0
1 0
980 0
681 0
122 117 0
900 236 0
228 0
229 0
145 700 0
568 147 0
554 0
737 0
241 927 0
367 0
555 765 0
804 0
552 433 0
688 0
577 195 0
400 803 0
967 0
896 0
834 783 0
395 0
538 0
962 534 0
445 0
244 0
675 0
456 714 0
578 110 0
432 136 0
42 0
816 0
994 0
218 0
288 0
458 699 0
810 726 0
928 0
867 0
738 0
284 0
422 0
928 696 0
147 598 0
833 905 0
698 0
736 0
842 0
129 0
623 0
688 20 0
370 60 0
850 443 0
394 271 0
897 0
462 0
293 0
995 0
312 433 0
720 0
66 0
714 51 0
575 0
212 0
755 0
945 0
678 0
64 305 0
531 0
483 308 0
347 0
485 0
507 0
517 0
970 0
34 0
377 436 0
642 431 0
434 0
288 996 0
887 0
331 549 0
54 0
837 0
588 0
960 0
434 0
835 0
976 799 0
853 0
925 0
469 973 0
351 0
443 0
154 0
678 0
80 318 0
553 754 0
80 0
871 0
360 910 0
800 314 0
986 0
563 423 0
756 0
384 0
182 0
309 0
448 883 0
394 885 0
145 898 0
847 0
450 0
468 0
587 0
932 0
992 839 0
368 0
472 0
706 235 0
348 157 0
408 0
496 329 0
43 0
706 831 0
129 0
388 405 0
163 0
233 0
624 896 0
218 252 0
802 0
498 0
241 0
881 554 0
618 910 0
347 820 0
289 414 0
958 559 0
515 0
370 903 0
365 423 0
393 882 0
546 0
527 0
736 0
769 0
694 0
764 181 0
31 0
327 0
227 0
385 127 0
493 0
34 183 0
130 0
443 0
677 231 0
898 0
343 0
85 0
799 0
275 0
132 0
404 756 0
51 0
36 0
800 380 0
694 87 0
727 0
803 0
103 0
355 0
711 0
795 0
497 127 0
439 0
632 959 0
750 0
391 639 0
46 0
471 0
926 0
121 701 0
232 733 0
344 10 0
289 0
844 375 0
245 0
453 0
885 0
500 0
672 0
247 0
208 0
184 629 0
204 485 0
955 0
570 451 0
766 79 0
457 0
953 0
943 0
608 351 0
677 367 0
103 0
776 837 0
170 499 0
860 271 0
223 0
87 0
786 332 0
792 0
566 0
469 0
706 515 0
759 0
754 0
519 0
508 0
449 220 0
16 0
456 0
901 0
776 0
395 0
889 0
178 0
401 0
101 0
866 284 0
27 0
711 0
689 0
386 0
275 0
763 0
229 0
989 0
978 0
948 45 0
472 979 0
208 0
865 0
439 0
227 0
121 0
814 0
4 0
828 0
850 0
727 0
107 997 0
560 829 0
324 575 0
144 986 0
966 0
228 0
559 0
151 0
946 0
390 670 0
520 851 0
97 0
111 655 0
501 0
178 810 0
33 0
636 998 0
427 0
948 0
462 0
801 0
3 311 0
187 0
671 0
764 285 0
911 0
995 0
150 0
285 0
74 374 0
570 659 0
841 0
521 516 0
581 0
517 0
128 374 0
946 933 0
498 0
32 0
837 0
797 0
991 0
749 0
991 0
580 0
578 0
349 446 0
25 972 0
971 0
583 0
863 0
17 0
660 0
173 0
743 0
483 0
129 92 0
65 100 0
265 434 0
257 0
241 0
619 0
238 0
164 0
292 0
811 0
171 631 0
764 973 0
680 0
414 238 0
802 482 0
1 0
684 0
788 0
603 572 0
640 0
314 227 0
373 0
881 0
824 0
163 0
954 0
98 0
272 697 0
354 0
221 0
440 0
321 164 0
202 957 0
266 0
833 0
958 0
474 110 0
482 0
379 0
106 778 0
227 0
141 0
954 0
594 0
453 0
365 0
853 0
764 0
65 467 0
16 966 0
995 0
656 0
710 0
411 0
1000 0
20 0
911 0
112 0
663 0
489 389 0
307 0
321 325 0
787 5 0
94 0
667 213 0
330 0
597 0
773 0
716 0
876 0
297 983 0
203 0
76 0
946 759 0
76 0
304 819 0
87 0
230 0
969 0
120 660 0
357 0
92 311 0
836 0
474 0
192 0
888 364 0
156 0
178 0
341 0
110 0
873 86 0
539 599 0
105 0
598 0
454 822 0
874 631 0
490 454 0
117 0
9 0
841 713 0
61 0
19 411 0
677 0
286 0
555 0
814 0
426 0
184 0
561 117 0
33 0
410 0
393 0
977 327 0
865 603 0
247 735 0
360 0
8 494 0
733 0
375 0
114 0
608 0
742 0
308 687 0
264 0
484 0
447 0
922 0
850 67 0
623 0
932 261 0
938 0
184 282 0
169 0
961 737 0
611 319 0
64 154 0
591 0
100 0
59 0
846 0
435 0
887 0
903 0
292 0
965 0
904 499 0
922 454 0
947 788 0
577 0
509 399 0
29 461 0
105 0
714 0
186 139 0
454 0
216 185 0
843 0
467 334 0
807 0
950 0
530 0
320 0
279 0
154 0
484 6 0
49 565 0
334 782 0
640 412 0
881 526 0
820 0
366 0
601 0
893 0
21 0
424 0
242 0
926 0
113 174 0
209 0
842 0
926 0
313 614 0
784 0
86 0
109 902 0
859 0
637 302 0
790 0
392 876 0
80 101 0
90 403 0
391 0
710 0
516 567 0
282 0
613 0
983 0
164 0
984 0
681 0
431 0
871 0
787 812 0
158 0
229 791 0
220 0
140 0
545 950 0
519 0
62 0
563 0
22 0
754 0
666 0
81 318 0
993 147 0
872 146 0
969 229 0
245 0
561 0
578 190 0
585 0
680 667 0
824 314 0
475 0
924 0
591 0
619 0
121 0
11 0
231 0
937 0
892 0
729 611 0
411 357 0
666 551 0
585 239 0
577 287 0
273 0
56 0
243 261 0
850 791 0
323 0
666 0
987 0
392 663 0
198 0
439 0
606 0
381 0
466 0
995 0
902 71 0
926 0
74 115 0
537 0
211 0
108 853 0
240 500 0
825 292 0
793 0
328 313 0
133 0
285 0
10 0
412 0
279 0
707 0
748 804 0
337 0
587 0
910 0
764 0
949 0
841 337 0
464 861 0
614 0
994 927 0
113 0
674 779 0
723 0
626 0
572 173 0
249 0
194 0
825 0
78 366 0
907 886 0
598 0
83 124 0
424 503 0
980 461 0
844 229 0
493 0
826 0
689 213 0
48 1 0
937 470 0
909 319 0
503 0
547 101 0
332 0
955 287 0
551 0
296 0
371 0
584 0
540 278 0
114 0
971 550 0
38 0
507 0
819 0
745 93 0
422 0
16 0
615 0
16 0
342 0
553 981 0
347 0
169 0
337 0
864 47 0
771 947 0
343 0
775 903 0
152 0
630 0
82 0
314 0
838 0
214 0
812 0
900 0
890 373 0
161 434 0
785 0
991 0
642 199 0
770 293 0
343 0
308 0
432 634 0
781 0
21 0
228 0
294 999 0
711 0
532 0
386 0
997 0
937 929 0
270 0
361 823 0
127 0
179 684 0
293 0
351 0
637 0
986 0
468 0
250 187 0
509 0
343 0
360 194 0
876 998 0
909 0
66 415 0
124 885 0
448 378 0
226 686 0
60 0
729 582 0
598 0
544 0
345 0
109 182 0
721 877 0
302 0
713 0
942 631 0
506 0
821 0
939 0
946 0
525 0
106 949 0
686 0
114 0
365 0
967 0
75 0
29 0
457 0
279 0
191 0
499 0
704 820 0
992 195 0
944 0
704 0
576 0
591 0
932 0
55 0
113 0
1 767 0
789 199 0
683 0
203 0
70 0
937 0
767 0
405 0
971 709 0
419 343 0
422 0
330 0
673 750 0
207 15 0
590 0
741 0
368 0
594 0
876 0
901 0
430 0
95 0
293 239 0
741 613 0
70 0
281 0
88 969 0
442 0
735 0
963 0
67 0
570 0
500 0
694 0
848 0
968 0
425 0
149 0
621 0
786 102 0
788 765 0
727 0
46 0
207 0
742 0
693 606 0
489 261 0
394 398 0
797 758 0
526 0
11 0
128 25 0
588 0
238 0
194 0
829 0
426 0
244 0
312 235 0
689 0
193 0
628 0
332 0
150 0
993 0
152 0
230 0
577 0
215 0
821 0
1000 807 0
691 0
67 0
174 0
669 0
26 843 0
999 0
884 0
903 0
912 396 0
145 54 0
676 198 0
48 350 0
810 0
90 0
594 0
649 886 0
222 31 0
873 533 0
923 0
337 468 0
545 324 0
944 0
269 157 0
963 0
820 0
257 349 0
562 738 0
803 0
289 0
614 143 0
871 0
970 84 0
967 0
481 370 0
73 509 0
246 519 0
431 0
223 0
802 0
793 0
622 0
208 883 0
97 0
308 557 0
163 0
976 0
616 0
162 413 0
653 0
140 0
252 797 0
499 0
97 0
564 0
335 0
58 676 0
359 0
172 246 0
287 0
512 0
896 673 0
100 0
152 0
866 0
200 0
928 0
678 0
932 30 0
189 823 0
145 943 0
847 0
576 246 0
756 0
575 0
500 0
630 0
956 0
897 0
90 0
139 956 0
292 461 0
955 0
652 0
827 0
268 0
240 0
976 0
153 0
133 0
173 0
202 0
737 319 0
458 0
777 0
723 0
538 0
296 418 0
872 784 0
920 0
939 431 0
250 459 0
583 0
729 0
624 0
409 0
566 910 0
865 0
41 447 0
479 0
458 0
281 0
415 0
777 0
682 541 0
645 0
145 0
631 0
307 0
234 0
765 0
371 0
75 332 0
41 0
36 0
445 0
342 0
658 21 0
8 0
308 0
773 0
398 0
650 0
57 615 0
968 0
526 0
275 0
784 0
266 943 0
316 0
745 0
706 570 0
520 0
803 645 0
767 0
883 647 0
800 0
995 0
601 0
739 517 0
604 0
81 49 0
578 0
763 0
325 0
324 0
159 0
952 987 0
979 53 0
658 711 0
619 0
285 0
873 0
34 143 0
499 0
90 694 0
242 0
899 0
387 196 0
842 0
927 0
588 0
193 709 0
554 748 0
35 0
380 0
193 966 0
529 0
777 358 0
131 0
194 0
821 318 0
648 0
235 0
601 0
973 0
805 0
121 0
951 0
504 345 0
421 0
188 0
464 724 0
85 0
881 0
313 356 0
93 0
297 676 0
201 0
450 0
543 0
937 0
68 0
913 917 0
520 0
401 631 0
268 709 0
776 0
849 0
18 21 0
276 0
591 0
83 983 0
90 0
362 581 0
126 0
867 0
158 0
682 0
352 621 0
806 0
168 407 0
330 0
293 71 0
457 0
755 901 0
351 0
507 428 0
819 0
313 0
998 0
944 0
132 0
571 0
116 0
121 0
341 0
572 0
829 317 0
93 0
473 0
482 0
275 0
630 0
718 0
672 0
850 429 0
407 0
749 0
653 0
591 0
152 382 0
605 0
171 0
509 647 0
301 0
834 0
931 0
932 749 0
421 0
874 258 0
452 0
21 349 0
424 0
532 358 0
208 0
648 355 0
528 0
236 0
558 0
727 0
348 0
655 831 0
74 748 0
358 0
809 0
364 0
226 764 0
512 836 0
735 0
532 101 0
455 0
950 0
462 0
872 446 0
353 0
965 0
806 0
178 268 0
964 0
575 0
973 0
801 181 0
496 834 0
955 445 0
385 746 0
310 0
490 0
157 0
950 0
626 0
288 324 0
536 578 0
973 0
802 0
213 958 0
789 0
458 0
6 790 0
380 0
522 0
920 0
262 0
275 0
178 844 0
630 0
973 0
206 0
328 0
720 0
322 0
755 0
928 0
106 782 0
186 0
492 702 0
762 799 0
678 0
273 692 0
441 0
74 735 0
322 789 0
483 0
310 0
490 0
456 296 0
353 0
696 0
148 495 0
926 0
866 0
369 212 0
530 0
411 251 0
634 451 0
971 126 0
965 0
120 412 0
233 825 0
580 0
232 0
36 742 0
538 101 0
158 0
104 905 0
512 0
789 423 0
330 0
714 0
761 0
462 0
949 0
795 0
433 0
418 653 0
887 0
621 478 0
167 0
43 0
873 0
469 0
211 0
730 203 0
976 0
463 0
51 0
485 0
4 767 0
178 711 0
988 0
502 0
904 957 0
881 235 0
598 0
617 988 0
488 0
299 0
723 0
838 0
53 0
523 0
577 0
924 29 0
262 0
786 0
577 0
408 0
368 345 0
235 0
288 0
147 263 0
316 0
242 0
698 663 0
362 0
772 262 0
835 0
161 0
856 985 0
898 757 0
636 670 0
664 0
106 0
94 0
532 853 0
962 323 0
781 831 0
184 93 0
614 0
590 0
381 0
831 0
328 699 0
857 0
260 300 0
521 255 0
645 0
959 0
282 383 0
369 556 0
892 0
843 0
193 910 0
941 0
117 0
921 93 0
526 0
419 997 0
648 162 0
413 78 0
3 556 0
65 0
861 0
502 0
137 0
73 0
94 0
646 0
671 0
300 0
842 0
377 582 0
411 0
753 542 0
984 659 0
349 943 0
209 662 0
162 0
52 605 0
940 0
439 0
903 0
921 303 0
446 902 0
256 0
704 0
781 677 0
995 0
720 29 0
622 0
128 0
248 49 0
13 0
330 0
631 791 0
361 589 0
755 0
546 0
687 0
23 0
521 527 0
547 180 0
780 0
628 0
908 0
891 0
148 444 0
337 20 0
908 564 0
331 679 0
681 0
472 0
496 0
779 0
613 0
772 0
814 0
569 0
269 0
128 0
313 0
144 97 0
506 0
34 0
202 436 0
271 0
742 0
157 0
33 0
871 0
345 0
469 0
590 111 0
611 667 0
787 694 0
28 0
880 144 0
750 23 0
586 901 0
37 0
714 51 0
363 0
264 110 0
526 0
147 0
652 0
55 0
24 0
840 235 0
298 0
458 0
72 240 0
637 0
506 438 0
289 0
464 0
930 0
296 0
356 0
957 0
518 0
110 0
445 669 0
718 0
808 0
155 0
942 0
853 0
363 0
978 388 0
248 0
287 0
629 0
795 0
628 0
906 54 0
140 166 0
223 0
69 13 0
972 0
618 957 0
53 0
297 0
153 735 0
163 359 0
381 0
566 0
362 395 0
576 0
206 246 0
4 0
772 694 0
106 837 0
885 575 0
181 734 0
53 599 0
546 0
516 935 0
603 0
129 223 0
615 0
588 0
250 0
672 914 0
789 286 0
944 0
249 0
329 0
292 0
560 0
980 0
236 0
467 716 0
508 0
37 0
862 759 0
810 658 0
160 660 0
986 0
856 0
660 0
289 0
512 0
862 0
997 0
655 0
665 415 0
678 0
169 695 0
328 0
459 0
225 315 0
136 357 0
410 734 0
627 36 0
601 0
489 0
27 806 0
172 0
339 0
395 0
232 0
180 0
277 247 0
929 0
465 285 0
357 22 0
33 210 0
306 0
536 0
994 971 0
295 0
457 114 0
822 0
689 842 0
350 0
606 0
543 127 0
586 0
610 0
160 0
498 0
870 0
724 0
116 0
835 0
258 0
259 0
844 438 0
579 0
461 0
505 0
987 662 0
886 0
976 959 0
457 0
777 422 0
355 0
345 0
414 0
490 0
725 0
306 0
772 854 0
570 0
682 242 0
378 837 0
257 0
436 0
589 0
186 190 0
116 0
629 0
6 735 0
574 118 0
535 0
416 474 0
390 0
239 0
365 0
600 609 0
665 175 0
147 0
709 0
602 0
726 823 0
85 214 0
476 0
944 195 0
317 823 0
418 694 0
851 0
438 0
44 0
747 947 0
163 0
984 0
161 0
840 19 0
114 71 0
73 0
529 0
676 0
60 0
322 0
539 0
633 0
195 0
44 0
566 0
587 147 0
141 303 0
417 0
129 238 0
760 0
857 838 0
125 0
984 316 0
869 0
520 685 0
52 0
354 0
919 0
905 0
56 384 0
631 0
856 990 0
282 771 0
775 0
536 0
987 0
848 0
38 0
829 0
522 0
832 220 0
873 0
413 0
842 463 0
858 119 0
208 428 0
987 0
1 0
801 0
869 0
471 487 0
900 783 0
368 458 0
847 0
641 445 0
716 815 0
204 0
465 0
835 0
763 0
45 0
387 0
81 0
966 0
820 0
365 0
988 0
728 0
44 0
785 0
456 635 0
101 670 0
612 0
530 0
720 52 0
477 0
650 0
822 0
313 623 0
701 0
548 0
207 0
587 0
487 0
602 0
853 0
489 0
836 183 0
744 0
379 540 0
648 0
748 0
569 28 0
363 5 0
211 0
318 0
493 0
566 0
328 0
584 0
681 218 0
597 0
108 0
749 0
152 0
727 0
619 279 0
752 906 0
69 335 0
250 0
615 599 0
412 0
363 0
190 0
924 980 0
543 0
780 0
308 0
625 523 0
653 0
953 0
389 0
680 358 0
366 0
226 427 0
794 555 0
858 0
932 837 0
355 0
284 0
668 0
153 0
642 766 0
727 0
736 0
658 0
645 0
755 0
872 858 0
149 0
394 0
522 0
574 0
996 0
456 0
281 0
726 0
835 437 0
209 91 0
79 0
9 0
421 0
714 0
67 196 0
148 0
50 179 0
661 0
531 0
712 420 0
656 930 0
599 0
183 0
890 0
567 0
97 831 0
339 580 0
973 791 0
369 0
401 894 0
569 0
158 0
894 0
301 0
228 36 0
418 0
694 0
848 0
126 238 0
179 158 0
187 0
730 142 0
368 0
942 0
347 869 0
704 0
89 693 0
70 0
473 0
6 0
920 502 0
554 0
621 133 0
486 0
21 0
526 0
222 718 0
828 743 0
1 143 0
518 487 0
639 0
857 481 0
256 0
595 767 0
789 0
962 0
33 0
739 0
483 0
356 0
580 0
855 0
972 212 0
147 0
960 0
984 0
772 287 0
314 618 0
921 0
648 0
361 0
5 0
408 0
872 529 0
630 0
503 0
903 0
657 0
733 0
58 0
307 190 0
495 0
489 0
435 0
160 254 0
673 0
394 0
575 0
781 878 0
155 0
817 0
418 989 0
817 14 0
381 0
602 0
973 0
112 0
327 0
867 3 0
576 0
585 0
966 823 0
431 0
511 0
153 0
920 0
464 0
756 0
341 725 0
514 98 0
79 0
243 0
585 357 0
144 89 0
299 0
992 0
73 613 0
720 0
863 0
255 0
486 0
387 749 0
19 669 0
192 432 0
942 0
853 0
528 601 0
556 0
777 0
586 0
893 0
490 0
819 0
536 0
804 0
31 0
785 420 0
90 0
152 0
897 516 0
761 261 0
45 0
328 0
140 0
611 759 0
334 0
707 839 0
770 0
328 0
624 0
466 0
759 0
632 0
277 0
593 0
804 0
429 0
635 0
510 0
850 421 0
524 0
963 0
899 558 0
920 875 0
56 0
961 0
240 0
321 0
935 0
721 0
356 0
28 0
345 121 0
560 0
52 0
591 0
595 0
420 0
319 0
938 190 0
357 0
97 0
401 148 0
650 675 0
913 0
959 0
475 0
429 0
753 163 0
630 0
661 0
300 0
278 271 0
470 0
169 0
816 367 0
752 189 0
8 30 0
891 228 0
9 0
639 0
404 0
408 589 0
597 829 0
178 0
521 484 0
900 0
129 844 0
161 732 0
415 0
83 0
896 0
177 0
548 0
645 0
636 231 0
540 0
276 286 0
340 0
361 0
499 0
938 531 0
629 0
278 0
632 0
439 0
816 182 0
776 557 0
319 0
868 0
782 0
786 603 0
233 0
524 0
235 326 0
572 0
259 0
861 0
949 0
912 433 0
864 0
97 0
561 0
875 0
90 653 0
980 0
240 0
57 0
992 493 0
705 278 0
167 0
26 335 0
215 0
185 7 0
30 0
329 0
471 0
926 0
804 39 0
733 406 0
886 0
484 0
653 0
522 0
166 0
155 534 0
462 0
29 0
18 118 0
149 0
35 303 0
164 487 0
352 411 0
12 662 0
297 0
709 0
742 0
536 359 0
947 0
635 0
565 543 0
808 0
234 0
910 0
694 0
620 0
255 0
857 0
236 135 0
545 300 0
91 0
804 903 0
724 0
762 0
354 219 0
746 119 0
289 903 0
608 879 0
465 0
633 594 0
558 0
83 471 0
818 0
788 0
333 0
938 0
930 0
468 908 0
715 887 0
290 390 0
438 0
430 0
937 0
636 0
419 0
806 0
547 0
849 374 0
778 147 0
775 0
439 0
800 362 0
468 0
791 0
310 0
914 642 0
100 0
35 989 0
389 574 0
265 502 0
97 741 0
17 707 0
625 0
382 0
857 0
877 215 0
223 0
993 484 0
147 0
617 0
482 0
693 0
591 0
747 0
657 0
233 647 0
470 0
210 0
385 0
722 0
747 0
595 237 0
157 647 0
667 0
761 0
282 52 0
992 0
656 0
336 599 0
368 0
227 734 0
411 0
931 757 0
709 830 0
305 0
392 370 0
294 0
461 0
722 0
36 0
50 997 0
810 839 0
94 0
368 571 0
725 0
260 0
791 111 0
227 0
210 0
845 0
944 605 0
440 0
831 0
889 298 0
857 52 0
994 68 0
438 0
665 726 0
435 78 0
313 659 0
825 0
91 0
204 551 0
778 0
886 415 0
864 99 0
226 13 0
778 0
519 0
620 0
182 0
488 34 0
154 0
176 0
539 0
445 0
417 0
394 0
539 0
104 0
153 0
828 55 0
632 0
722 0
722 0
511 0
208 0
842 0
345 178 0
625 0
428 0
313 0
736 0
783 0
613 0
856 94 0
782 0
290 0
153 869 0
65 0
476 0
858 0
819 99 0
769 0
506 357 0
649 301 0
528 0
849 622 0
647 0
460 0
168 777 0
384 0
266 876 0
912 0
265 805 0
490 386 0
385 253 0
140 463 0
994 301 0
203 0
520 0
338 0
658 956 0
640 772 0
505 0
958 143 0
896 0
397 0
889 0
251 991 0
151 0
888 306 0
745 0
132 0
658 535 0
25 174 0
822 303 0
917 0
552 0
987 0
206 0
111 783 0
594 0
431 0
976 857 0
924 0
225 702 0
67 571 0
529 0
700 0
471 0
864 23 0
161 730 0
489 852 0
931 332 0
76 702 0
170 100 0
778 226 0
382 0
400 130 0
696 431 0
851 0
777 0
849 0
287 0
961 639 0
794 0
207 0
953 0
832 0
299 805 0
982 0
658 158 0
260 783 0
369 315 0
42 0
345 0
393 0
577 0
512 0
808 859 0
543 0
86 0
892 0
826 0
236 0
178 915 0
392 253 0
211 359 0
37 798 0
642 631 0
831 0
939 0
569 0
536 0
460 775 0
486 0
539 0
335 0
668 0
446 0
13 0
226 0
904 78 0
342 0
647 87 0
13 0
229 0
904 0
865 0
476 165 0
772 0
105 453 0
403 0
299 0
926 0
307 0
176 483 0
669 0
482 866 0
262 0
34 812 0
532 0
12 910 0
800 0
532 0
698 363 0
796 0
137 206 0
406 0
278 0
680 659 0
925 311 0
628 0
159 0
711 0
290 839 0
929 598 0
976 0
113 0
616 408 0
679 0
433 91 0
27 0
702 0
319 0
890 0
580 869 0
526 0
392 0
379 0
233 614 0
603 0
472 0
307 0
796 0
617 0
147 0
809 0
908 0
254 0
740 0
40 514 0
384 0
230 0
9 461 0
352 375 0
738 0
864 0
972 0
527 0
410 243 0
693 0
810 0
664 597 0
71 0
702 0
523 0
523 0
976 266 0
708 0
972 0
488 20 0
833 769 0
117 0
414 0
572 0
625 0
506 420 0
905 0
448 295 0
641 0
648 986 0
746 0
984 897 0
636 0
789 165 0
588 788 0
56 496 0
321 0
767 0
591 0
946 86 0
343 0
274 0
911 0
569 0
487 0
243 0
112 187 0
512 0
546 595 0
61 0
572 839 0
203 0
667 0
505 484 0
295 0
823 0
128 0
195 276 0
891 653 0
907 0
85 373 0
952 50 0
768 156 0
84 47 0
5 0
100 0
101 0
916 0
309 0
209 0
168 35 0
610 0
188 0
882 660 0
371 0
633 77 0
461 0
465 909 0
604 0
31 0
362 0
50 0
620 0
861 277 0
896 0
195 0
216 0
654 0
866 546 0
900 348 0
827 0
318 0
960 0
26 0
259 772 0
110 0
257 770 0
312 356 0
512 0
61 0
531 0
759 0
37 0
481 287 0
929 0
124 591 0
785 0
431 0
467 0
648 0
874 0
19 879 0
373 0
531 0
825 0
529 0
801 0
605 0
30 0
26 0
817 341 0
405 22 0
260 0
128 0
534 175 0
66 684 0
633 0
852 550 0
683 189 0
438 742 0
857 106 0
710 0
231 0
27 109 0
522 0
239 0
126 0
712 0
190 0
463 0
813 0
680 405 0
437 799 0
313 742 0
662 0
90 573 0
139 0
931 661 0
592 0
319 0
161 0
177 755 0
640 515 0
316 461 0
709 0
920 0
125 0
522 0
643 0
192 82 0
386 0
104 596 0
443 131 0
467 0
41 745 0
450 869 0
803 0
96 950 0
641 0
306 0
159 0
907 0
771 636 0
832 741 0
349 0
872 0
569 0
192 733 0
538 0
377 453 0
25 0
848 654 0
326 126 0
299 0
298 0
870 0
71 0
756 0
84 0
586 0
457 131 0
599 0
142 0
876 893 0
540 0
41 0
421 0
93 0
153 556 0
191 0
371 0
430 0
78 711 0
462 998 0
586 0
430 0
404 0
277 0
507 0
803 0
839 0
791 0
325 343 0
361 116 0
776 0
285 0
131 739 0
544 0
290 0
2 0
898 0
586 0
832 0
938 30 0
345 834 0
136 578 0
586 0
194 268 0
8 0
131 0
944 0
849 431 0
1000 234 0
88 854 0
515 0
234 0
276 0
998 0
511 0
582 238 0
486 0
906 0
555 0
242 590 0
991 0
457 0
626 0
465 0
736 0
346 219 0
473 0
614 0
25 671 0
169 362 0
800 0
887 0
805 0
25 0
146 0
744 0
516 0
710 519 0
14 0
513 0
727 0
202 322 0
474 0
566 926 0
536 847 0
409 0
124 0
904 991 0
914 471 0
320 750 0
820 0
100 46 0
879 0
965 0
598 0
823 0
802 77 0
561 621 0
516 0
839 0
747 0
698 565 0
545 0
611 199 0
328 0
70 0
960 0
683 831 0
56 0
410 0
228 0
480 0
729 863 0
693 966 0
488 384 0
352 0
513 0
349 0
104 851 0
68 0
259 0
675 900 0
607 0
522 902 0
73 534 0
492 0
22 0
312 0
233 0
639 0
977 853 0
43 0
495 0
216 0
579 295 0
152 551 0
607 591 0
847 0
538 0
382 0
48 0
841 0
417 236 0
151 0
154 469 0
839 0
160 19 0
889 0
201 908 0
153 0
405 639 0
686 0
664 0
553 573 0
259 0
579 0
568 0
470 39 0
486 0
552 0
712 185 0
738 0
458 683 0
602 0
485 0
563 0
942 0
340 0
373 0
625 0
36 183 0
547 94 0
449 0
257 0
174 0
795 0
438 215 0
983 0
9 25 0
552 377 0
121 925 0
315 391 0
537 0
957 46 0
236 0
674 535 0
467 286 0
840 0
795 0
816 0
835 0
384 47 0
87 0
484 0
288 0
364 0
929 710 0
288 0
114 0
303 0
543 0
8 0
98 111 0
580 0
979 0
847 0
410 0
514 348 0
630 750 0
308 0
950 0
717 0
404 14 0
984 351 0
987 0
540 0
472 174 0
809 0
72 195 0
836 0
194 0
901 0
609 0
290 692 0
238 0
978 286 0
485 53 0
621 0
756 0
248 0
706 0
195 116 0
474 396 0
794 748 0
547 0
873 922 0
554 347 0
813 390 0
86 0
717 0
407 0
694 0
796 0
914 0
704 717 0
233 0
913 862 0
261 0
1000 375 0
442 581 0
92 310 0
869 0
304 0
219 0
495 0
406 0
796 494 0
293 422 0
538 44 0
593 0
118 0
736 996 0
257 0
147 0
965 0
216 0
383 0
385 0
912 0
192 477 0
282 0
680 839 0
49 0
651 0
482 412 0
678 0
776 0
326 0
670 0
994 781 0
585 931 0
549 0
198 0
15 0
628 0
237 0
71 0
121 0
695 0
777 677 0
520 0
42 0
858 0
195 0
531 0
814 0
964 0
416 283 0
4 0
425 0
826 0
210 0
108 0
819 0
9 0
877 845 0
285 0
339 860 0
62 0
953 774 0
514 0
619 525 0
668 0
654 0
169 0
446 0
399 0
368 897 0
746 659 0
981 0
173 0
99 0
883 0
476 0
560 612 0
229 0
282 990 0
7 0
916 0
214 6 0
456 912 0
715 0
666 0
412 598 0
696 0
538 0
585 863 0
33 740 0
700 0
178 358 0
886 0
830 0
525 0
314 0
910 0
895 0
973 0
322 187 0
516 174 0
220 759 0
806 0
560 0
45 0
913 0
207 599 0
487 0
607 0
976 613 0
718 0
280 0
242 0
787 0
184 0
195 317 0
658 0
426 909 0
648 0
935 0
564 0
208 0
928 715 0
82 0
80 0
525 0
175 0
808 595 0
825 0
946 0
496 0
458 0
412 0
216 665 0
3 725 0
805 0
803 0
589 0
830 87 0
743 0
638 0
632 0
256 926 0
117 613 0
432 0
474 823 0
848 0
396 0
324 173 0
622 0
878 0
801 445 0
929 0
310 0
533 0
264 523 0
701 0
927 0
281 519 0
293 0
397 0
448 235 0
582 0
540 0
27 278 0
422 0
576 838 0
427 0
13 0
672 0
262 0
310 0
561 0
728 108 0
166 0
430 0
284 814 0
953 0
622 286 0
974 0
84 942 0
657 676 0
730 0
594 21 0
31 0
569 886 0
853 0
952 0
355 0
133 0
150 142 0
574 0
298 0
937 845 0
465 0
3 0
634 0
560 0
864 0
365 0
99 0
364 0
691 0
626 0
988 0
170 0
659 0
377 0
865 663 0
865 935 0
80 0
606 0
775 0
945 578 0
65 116 0
631 0
729 0
560 316 0
92 0
345 37 0
657 0
512 54 0
432 0
478 0
323 582 0
57 118 0
35 28 0
927 0
878 0
561 0
663 0
543 0
754 0
321 0
107 0
170 0
776 28 0
606 0
306 0
106 0
459 895 0
552 824 0
811 0
802 363 0
339 0
731 939 0
59 166 0
441 719 0
504 0
890 925 0
979 0
270 0
590 0
849 531 0
415 0
990 23 0
229 0
172 0
618 0
301 798 0
530 0
78 0
837 0
4 0
694 0
407 0
242 0
916 85 0
440 0
971 0
757 0
509 0
824 0
251 0
657 0
873 0
68 0
137 0
14 0
449 0
841 0
811 163 0
157 0
692 0
166 0
76 0
493 495 0
715 0
936 0
840 86 0
242 374 0
950 798 0
174 0
615 0
908 711 0
571 0
565 535 0
274 0
841 0
450 0
363 0
326 0
664 305 0
948 0
21 0
221 0
858 0
468 46 0
173 0
616 0
272 708 0
346 0
368 402 0
60 0
756 0
19 654 0
458 415 0
209 0
619 0
327 0
386 0
178 0
493 0
466 0
232 0
123 0
184 597 0
906 79 0
473 569 0
753 908 0
974 270 0
804 0
225 293 0
241 0
284 0
912 631 0
913 708 0
486 0
451 0
748 165 0
24 9 0
426 0
885 0
80 0
382 0
255 0
611 127 0
883 0
428 0
320 0
147 0
65 0
753 347 0
966 0
448 0
73 430 0
760 247 0
789 173 0
67 0
801 0
356 0
574 0
691 500 0
614 0
427 0
434 0
689 0
346 699 0
970 525 0
421 423 0
561 0
450 0
978 0
270 0
891 0
992 0
73 0
41 0
683 0
89 82 0
328 47 0
745 628 0
853 0
898 0
235 199 0
257 0
681 137 0
608 0
679 0
347 0
400 207 0
934 0
889 0
775 0
186 0
170 490 0
806 935 0
492 0
667 0
621 0
598 0
723 0
45 127 0
264 0
336 0
924 397 0
415 0
748 0
412 0
161 0
943 0
339 0
957 0
220 0
349 0
94 0
109 638 0
775 0
154 0
56 0
436 0
795 0
51 566 0
585 635 0
851 0
617 0
808 0
981 454 0
670 0
436 182 0
202 0
815 0
940 0
442 0
717 143 0
137 371 0
781 0
249 0
592 0
748 494 0
823 0
503 0
191 0
266 0
973 0
523 0
703 0
576 269 0
612 0
322 0
461 0
577 0
768 0
420 0
585 286 0
706 199 0
737 0
760 295 0
934 0
120 0
259 0
538 854 0
258 890 0
381 943 0
272 34 0
903 0
201 0
624 0
187 926 0
97 0
423 0
498 827 0
903 0
461 0
807 0
60 813 0
777 0
807 0
742 0
121 499 0
963 0
473 111 0
33 0
200 0
885 399 0
625 11 0
207 0
161 322 0
455 0
634 0
388 0
633 364 0
425 0
771 107 0
437 0
761 0
324 894 0
373 0
234 397 0
237 0
135 0
309 902 0
785 0
400 251 0
496 0
85 0
196 325 0
401 50 0
892 335 0
577 0
832 0
163 0
931 0
522 0
644 669 0
87 0
653 839 0
712 569 0
649 0
843 244 0
201 330 0
205 0
621 0
789 0
916 775 0
443 0
893 0
366 0
258 915 0
422 0
891 0
930 726 0
743 0
399 0
2 0
632 0
367 0
90 0
871 0
100 0
968 0
82 827 0
606 0
635 156 0
393 0
432 738 0
320 938 0
198 0
640 0
626 0
451 0
950 935 0
104 255 0
515 0
553 233 0
50 182 0
875 0
998 0
552 0
853 0
436 0
577 0
934 0
538 0
458 31 0
262 0
196 0
178 605 0
477 0
715 0
88 0
428 84 0
733 0
59 0
291 0
715 0
672 942 0
996 238 0
384 0
848 0
746 0
689 499 0
866 0
41 0
304 0
971 0
621 0
868 0
729 0
156 0
329 518 0
768 0
692 487 0
169 0
313 644 0
696 208 0
567 0
365 0
130 830 0
852 926 0
788 0
712 0
588 0
824 37 0
583 0
847 0
149 0
720 0
666 28 0
42 348 0
329 11 0
797 0
80 845 0
275 0
952 74 0
51 399 0
792 0
719 0
375 0
754 629 0
961 0
193 0
721 0
459 0
105 0
38 0
685 0
163 310 0
988 599 0
616 739 0
217 0
248 0
385 0
410 306 0
56 820 0
505 0
20 165 0
229 0
810 0
284 0
149 0
966 0
828 0
392 850 0
359 0
474 316 0
135 0
441 0
696 0
807 0
315 0
32 479 0
528 679 0
489 0
755 0
502 0
94 0
867 190 0
653 0
191 791 0
828 0
567 0
739 166 0
841 788 0
283 0
667 0
949 0
865 821 0
9 94 0
297 897 0
215 0
842 0
614 0
124 0
764 0
603 0
242 0
886 0
624 0
811 0
369 381 0
601 137 0
864 0
112 0
491 0
722 0
679 0
973 0
459 813 0
748 0
270 0
798 0
256 909 0
205 0
66 0
101 0
800 0
632 871 0
564 0
322 0
26 0
354 0
371 0
192 0
627 0
67 0
644 0
775 0
615 0
817 0
832 524 0
785 0
775 0
209 183 0
286 975 0
969 910 0
779 0
48 3 0
608 747 0
591 0
528 0
121 772 0
776 711 0
984 0
78 47 0
597 487 0
686 0
44 222 0
661 806 0
89 0
746 0
560 0
840 770 0
458 0
206 0
186 0
176 0
214 0
23 0
908 942 0
509 0
992 0
652 0
717 0
727 0
903 0
812 0
15 0
905 989 0
73 369 0
46 0
675 0
496 507 0
527 0
575 0
445 0
192 0
842 0
795 0
810 991 0
996 0
890 819 0
441 0
221 0
793 937 0
890 0
176 0
484 0
624 0
576 0
776 436 0
375 0
986 0
924 325 0
861 0
383 0
81 0
947 0
546 0
655 0
973 39 0
469 518 0
56 193 0
529 397 0
376 0
749 703 0
363 0
486 0
650 0
527 0
921 0
828 0
538 789 0
331 0
563 175 0
450 0
270 0
901 0
793 831 0
123 54 0
462 0
460 0
37 487 0
106 876 0
57 0
907 0
891 0
281 509 0
375 0
29 0
799 0
468 0
123 0
554 0
93 0
484 0
739 542 0
707 0
680 994 0
735 0
339 0
488 0
929 797 0
454 0
281 140 0
112 0
393 93 0
514 0
351 0
433 107 0
762 0
216 787 0
484 0
419 180 0
563 0
207 199 0
26 0
426 0
760 0
514 0
669 0
764 0
429 0
649 99 0
641 0
24 249 0
305 0
282 836 0
342 0
167 0
273 222 0
273 0
12 0
218 109 0
25 686 0
276 0
583 0
691 799 0
340 0
181 143 0
891 0
144 0
927 0
752 0
40 97 0
559 0
187 516 0
445 0
420 0
147 0
512 0
402 0
722 0
433 0
476 0
883 854 0
256 0
914 0
619 0
217 239 0
606 0
780 0
616 23 0
665 0
822 95 0
293 0
328 922 0
135 0
77 0
80 403 0
883 302 0
280 514 0
4 0
997 303 0
319 0
685 0
550 0
46 630 0
39 0
312 866 0
298 916 0
499 0
768 0
51 0
505 667 0
285 0
630 0
709 775 0
607 0
295 0
787 101 0
240 474 0
636 0
457 0
384 0
433 133 0
714 802 0
685 0
904 0
118 0
109 910 0
114 995 0
13 0
102 0
379 347 0
722 967 0
357 0
744 826 0
49 662 0
301 0
748 943 0
571 0
656 674 0
396 0
57 0
18 475 0
702 0
667 124 0
919 0
92 191 0
113 0
58 0
634 0
291 0
326 958 0
714 0
607 0
529 370 0
773 0
865 811 0
976 273 0
25 0
461 0
286 0
55 0
865 0
626 746 0
908 5 0
848 0
189 0
522 0
746 0
282 0
491 179 0
705 0
756 919 0
29 0
21 0
963 0
124 0
455 0
739 231 0
917 0
281 0
219 403 0
442 957 0
111 0
233 514 0
324 0
388 815 0
653 0
920 941 0
40 0
888 0
391 495 0
629 141 0
18 578 0
83 0
903 0
997 0
460 852 0
337 791 0
681 51 0
404 0
707 606 0
387 918 0
345 159 0
985 0
848 44 0
428 0
345 0
263 0
213 0
393 679 0
56 37 0
724 702 0
786 0
202 0
779 0
733 0
515 837 0
946 693 0
320 28 0
103 0
653 0
161 0
858 524 0
689 0
608 804 0
455 0
867 979 0
518 535 0
84 95 0
490 0
764 0
320 0
174 0
772 319 0
66 0
295 0
753 0
41 243 0
506 0
112 0
184 844 0
28 0
593 686 0
136 619 0
410 14 0
301 0
785 699 0
721 175 0
200 717 0
119 0
247 0
138 0
675 0
365 0
88 0
296 208 0
499 0
702 0
489 943 0
626 820 0
929 450 0
980 775 0
937 0
992 0
86 71 0
880 965 0
152 316 0
529 0
666 0
392 0
671 0
466 59 0
909 0
708 0
750 0
29 0
34 460 0
486 0
337 313 0
651 0
888 0
960 0
849 204 0
676 0
280 0
714 564 0
880 665 0
834 0
224 0
481 358 0
782 0
503 0
331 0
30 0
507 0
153 0
599 0
716 0
753 805 0
21 0
498 0
442 693 0
192 0
948 0
768 0
189 0
573 575 0
914 0
330 58 0
220 0
167 0
453 0
856 765 0
563 0
683 558 0
29 0
287 0
363 0
540 0
903 0
927 0
16 0
788 0
419 286 0
640 753 0
217 0
169 0
604 703 0
821 0
185 0
946 94 0
587 0
801 996 0
424 0
516 0
614 0
969 0
292 0
930 980 0
159 727 0
734 0
86 878 0
29 231 0
686 0
825 0
579 0
852 0
780 759 0
826 0
557 0
53 0
253 0
209 653 0
794 0
712 0
133 0
890 0
424 152 0
522 0
153 0
865 101 0
708 599 0
154 421 0
831 0
394 0
96 0
176 76 0
545 565 0
322 0
174 511 0
242 942 0
323 0
898 0
75 806 0
971 508 0
728 433 0
492 0
786 0
669 943 0
289 0
49 755 0
715 0
246 127 0
890 940 0
195 0
818 0
932 622 0
448 0
884 903 0
558 0
162 0
18 973 0
641 0
879 0
863 0
979 975 0
508 207 0
8 0
62 0
420 0
996 0
913 503 0
841 75 0
313 0
476 0
627 0
152 778 0
970 708 0
167 791 0
975 0
634 554 0
235 0
200 971 0
19 0
416 453 0
552 0
925 31 0
504 201 0
747 244 0
645 0
820 0
938 917 0
800 575 0
400 0
891 125 0
809 797 0
460 0
960 649 0
541 0
290 0
353 909 0
278 0
563 0
696 300 0
516 0
212 0
130 0
94 0
920 0
221 461 0
490 0
108 0
860 901 0
366 0
165 0
268 0
804 0
614 0
447 0
125 0
455 0
65 305 0
513 0
953 111 0
335 0
776 0
219 28 0
734 0
731 279 0
714 578 0
184 0
261 0
385 0
680 0
680 161 0
56 785 0
837 0
10 0
810 107 0
574 0
682 0
111 0
624 36 0
214 0
599 0
91 0
397 0
601 0
143 0
233 0
583 0
154 0
370 0
313 970 0
559 0
306 0
770 0
379 748 0
598 0
811 0
160 0
559 0
114 0
251 0
299 0
466 963 0
345 828 0
488 783 0
406 199 0
859 725 0
651 0
962 0
696 0
675 0
415 0
850 0
371 0
450 619 0
651 719 0
452 70 0
761 0
330 646 0
871 0
810 0
444 0
321 261 0
83 0
15 0
940 877 0
939 0
708 0
623 0
576 393 0
848 116 0
306 0
985 0
961 0
9 895 0
158 0
690 0
896 385 0
413 0
816 643 0
612 342 0
38 0
21 0
354 0
802 86 0
236 0
937 0
549 517 0
205 910 0
952 716 0
921 662 0
344 141 0
694 0
515 0
794 411 0
428 0
104 0
690 0
485 77 0
262 0
689 13 0
928 0
850 0
472 0
451 0
72 42 0
653 0
362 717 0
48 0
53 0
161 0
478 0
651 0
759 0
831 7 0
505 0
841 593 0
990 0
989 167 0
3 0
233 935 0
798 0
473 0
724 0
990 0
572 438 0
124 317 0
42 78 0
71 0
993 0
89 0
925 478 0
920 0
930 342 0
647 0
888 311 0
640 990 0
368 309 0
169 0
243 396 0
801 0
765 606 0
200 919 0
776 0
543 0
5 0
846 0
659 398 0
240 798 0
145 0
127 0
342 39 0
384 0
83 0
745 78 0
646 0
528 794 0
147 0
323 0
948 0
181 0
649 0
191 0
724 191 0
681 97 0
289 0
500 14 0
626 724 0
217 0
118 759 0
458 0
634 239 0
640 103 0
779 892 0
89 865 0
585 0
56 265 0
364 0
256 829 0
170 683 0
417 0
123 405 0
242 0
380 0
122 0
677 0
133 0
554 243 0
87 0
49 11 0
897 0
634 0
19 0
116 134 0
823 0
917 334 0
752 543 0
447 0
136 570 0
259 4 0
525 0
110 0
319 0
397 0
661 0
646 0
641 0
483 7 0
851 0
103 0
426 982 0
169 0
428 0
269 55 0
152 775 0
651 0
308 0
432 0
953 0
379 0
757 0
177 20 0
967 0
370 0
25 549 0
240 30 0
152 0
955 0
425 0
345 0
138 0
256 0
396 285 0
67 575 0
899 0
100 119 0
374 0
870 0
616 212 0
254 0
34 275 0
147 0
10 0
222 0
255 0
739 0
782 0
625 654 0
368 213 0
994 0
236 118 0
657 0
219 0
554 0
779 0
306 0
939 0
761 0
472 441 0
545 0
273 12 0
439 0
505 926 0
497 668 0
376 3 0
35 131 0
468 71 0
189 0
667 0
531 0
174 518 0
249 0
346 0
540 0
648 0
98 142 0
42 590 0
413 0
267 0
761 43 0
460 0
833 226 0
677 0
82 0
151 0
528 0
133 0
161 0
484 717 0
176 213 0
328 0
699 101 0
836 685 0
234 269 0
353 0
626 0
860 332 0
156 0
284 182 0
253 0
726 0
682 530 0
849 0
11 548 0
276 382 0
171 22 0
955 0
502 0
305 0
761 0
594 0
639 0
19 0
187 0
959 0
14 0
594 0
702 0
555 295 0
299 758 0
261 0
181 0
736 0
208 0
459 0
726 0
97 0
410 0
834 0
45 566 0
392 355 0
962 829 0
766 0
875 0
806 0
258 506 0
802 0
458 0
178 0
611 615 0
236 541 0
808 0
136 0
936 0
827 0
303 0
528 404 0
373 685 0
856 0
898 0
883 493 0
540 287 0
411 0
612 742 0
126 0
808 0
676 0
41 0
1 517 0
587 0
644 919 0
607 0
790 0
836 0
57 783 0
921 0
389 0
671 0
108 828 0
496 674 0
799 0
953 0
50 0
278 0
395 0
60 199 0
437 0
780 351 0
248 0
181 0
670 999 0
537 332 0
501 255 0
736 177 0
603 0
703 0
730 0
33 0
986 0
431 0
501 0
309 0
532 749 0
805 0
797 197 0
958 0
125 773 0
168 0
10 431 0
398 391 0
896 0
856 0
876 0
133 0
80 2 0
147 862 0
804 0
668 375 0
799 0
922 69 0
25 0
646 415 0
335 0
553 0
399 0
591 0
997 0
700 0
268 374 0
281 0
776 943 0
464 0
586 206 0
570 0
972 623 0
392 0
859 0
963 0
813 0
526 0
290 0
998 71 0
989 141 0
962 0
987 468 0
584 0
626 147 0
338 0
138 0
948 0
769 466 0
622 991 0
616 0
985 0
665 835 0
961 0
595 948 0
836 917 0
201 774 0
171 566 0
968 101 0
48 0
141 0
800 37 0
999 607 0
959 0
305 0
345 803 0
152 0
934 0
440 822 0
115 0
818 103 0
973 0
140 149 0
937 0
39 0
258 0
17 0
727 0
753 4 0
545 0
153 398 0
316 757 0
817 461 0
22 0
96 908 0
130 158 0
159 0
752 0
948 0
624 3 0
483 292 0
989 0
507 0
673 0
259 469 0
545 138 0
586 308 0
705 0
848 0
96 0
374 15 0
935 0
493 887 0
276 0
460 149 0
663 0
997 0
145 2 0
933 0
750 0
31 0
216 23 0
745 54 0
385 469 0
284 0
69 0
330 212 0
339 653 0
61 0
397 0
689 0
161 0
498 887 0
392 224 0
707 451 0
215 0
89 759 0
553 0
477 845 0
674 0
38 103 0
720 0
345 907 0
83 0
268 0
894 0
652 909 0
333 0
968 0
66 863 0
438 0
967 0
517 0
905 0
715 0
631 23 0
945 508 0
941 0
281 597 0
992 0
462 0
104 0
770 0
536 0
594 667 0
132 630 0
438 95 0
316 0
201 290 0
888 439 0
65 0
139 0
410 0
26 211 0
528 0
263 0
29 981 0
748 310 0
918 0
577 0
977 0
347 0
270 0
633 0
928 740 0
514 0
749 0
579 0
428 0
340 0
131 0
838 0
298 134 0
394 0
929 0
496 597 0
316 0
391 0
795 263 0
363 0
780 0
223 0
652 0
181 0
230 0
864 225 0
902 0
563 0
538 788 0
985 0
128 0
739 526 0
92 0
287 0
248 0
448 0
251 814 0
326 0
153 699 0
863 0
936 0
251 524 0
794 0
431 0
465 0
172 0
306 0
748 0
388 0
631 0
632 0
406 0
232 0
307 0
729 0
695 0
81 0
107 0
488 0
592 105 0
167 0
220 0
52 0
756 271 0
836 886 0
418 494 0
525 0
834 127 0
886 0
845 0
818 0
416 832 0
183 0
275 468 0
979 0
967 0
609 710 0
880 0
970 676 0
60 87 0
519 0
796 942 0
586 783 0
962 0
249 0
914 0
755 639 0
673 0
113 599 0
318 663 0
468 0
620 0
195 780 0
56 714 0
288 250 0
611 268 0
794 0
594 0
798 0
183 0
870 0
41 0
301 0
229 0
635 0
682 839 0
753 26 0
273 134 0
516 0
593 0
184 606 0
960 0
339 0
239 0
756 0
486 0
149 0
633 804 0
343 0
881 0
587 990 0
628 119 0
523 0
657 0
384 0
545 0
995 767 0
151 0
291 0
721 175 0
255 0
730 303 0
842 0
154 0
202 947 0
993 0
560 0
597 0
170 0
52 271 0
513 574 0
849 0
677 0
275 0
975 0
794 0
318 0
668 990 0
350 0
292 95 0
211 0
587 0
32 629 0
122 0
447 0
559 0
97 0
787 47 0
828 0
868 0
611 101 0
706 226 0
98 0
308 0
498 0
314 818 0
579 0
305 538 0
284 0
793 788 0
138 0
792 467 0
167 0
13 0
32 0
32 0
877 0
907 0
634 0
49 108 0
628 500 0
901 0
300 0
602 0
747 527 0
118 0
966 0
762 42 0
959 0
461 0
849 0
247 0
864 0
236 0
501 0
859 0
565 0
6 423 0
681 0
46 0
684 0
141 0
62 0
526 0
594 0
839 0
394 0
183 0
408 637 0
552 0
374 598 0
333 797 0
713 0
124 710 0
323 0
565 359 0
728 591 0
638 0
160 0
975 0
705 946 0
986 122 0
488 548 0
330 0
738 0
128 859 0
24 0
581 0
276 0
707 0
545 0
506 795 0
10 0
852 0
170 988 0
838 0
597 0
364 0
434 0
494 0
948 0
168 0
176 369 0
891 0
520 0
886 0
304 0
57 957 0
821 623 0
953 618 0
510 0
231 0
689 0
179 0
105 670 0
780 822 0
736 273 0
750 0
414 0
683 807 0
589 309 0
423 0
833 978 0
67 0
582 0
949 0
292 0
271 0
686 0
992 0
136 0
332 0
32 782 0
40 0
768 0
449 807 0
867 0
890 0
843 0
657 205 0
28 0
888 651 0
1 0
37 0
668 0
27 29 0
722 0
690 0
982 0
249 94 0
854 0
912 827 0
870 0
711 0
969 542 0
78 479 0
336 0
480 0
829 0
624 165 0
272 236 0
35 0
311 0
890 836 0
147 0
896 0
296 0
771 540 0
504 382 0
913 483 0
357 0
658 684 0
984 0
892 55 0
5 0
576 0
578 0
480 385 0
759 0
170 959 0
481 0
93 791 0
704 501 0
190 326 0
458 298 0
665 0
769 0
568 0
990 0
758 0
625 0
612 149 0
803 895 0
470 0
800 4 0
475 0
330 0
422 0
182 183 0
74 357 0
694 0
603 0
384 0
703 0
818 0
324 797 0
205 0
162 974 0
500 0
840 617 0
542 0
444 0
969 684 0
177 611 0
444 0
328 161 0
28 0
919 0
916 788 0
479 0
210 252 0
505 0
553 290 0
887 0
878 0
249 0
769 0
960 581 0
50 0
882 0
1000 0
538 269 0
478 0
174 0
744 510 0
563 0
929 0
729 0
167 0
637 0
260 789 0
587 150 0
541 0
608 0
563 678 0
694 510 0
143 0
990 0
890 0
376 152 0
321 702 0
890 0
220 0
754 669 0
230 0
770 0
867 0
941 6 0
428 413 0
298 0
572 0
191 0
623 0
710 382 0
929 0
937 911 0
335 0
267 0
130 0
754 884 0
180 917 0
520 0
809 174 0
624 220 0
221 0
504 779 0
444 0
936 199 0
800 417 0
997 0
633 622 0
489 0
420 566 0
77 0
561 0
580 0
758 0
483 0
1 931 0
828 0
189 990 0
599 0
669 0
682 0
388 367 0
6 0
755 979 0
130 835 0
353 810 0
193 0
616 0
263 0
725 22 0
248 0
331 982 0
767 0
152 662 0
317 351 0
544 0
479 0
523 0
621 639 0
953 0
986 0
49 716 0
384 699 0
130 0
212 0
666 147 0
736 1 0
878 0
136 0
163 0
90 655 0
580 0
318 0
585 385 0
302 206 0
448 823 0
756 0
832 246 0
335 0
754 0
912 0
440 185 0
200 573 0
423 0
731 77 0
135 0
984 204 0
312 0
865 0
928 0
135 0
270 0
402 398 0
651 982 0
620 0
97 227 0
486 0
383 0
849 317 0
764 0
553 765 0
408 506 0
508 260 0
511 0
405 0
364 0
524 0
434 0
115 0
66 543 0
100 0
288 0
384 0
443 0
139 206 0
321 0
452 0
451 0
950 0
885 0
250 156 0
280 261 0
398 0
962 0
521 390 0
218 0
303 0
745 265 0
520 976 0
517 0
416 0
380 0
507 0
97 0
469 0
196 0
195 0
356 0
227 511 0
659 0
49 0
733 0
978 396 0
634 0
792 535 0
185 63 0
796 757 0
834 0
700 0
768 885 0
416 0
766 0
267 621 0
178 0
926 0
964 173 0
576 0
409 213 0
639 0
352 646 0
948 0
389 0
992 0
889 0
131 31 0
968 0
291 0
281 0
975 0
815 0
182 0
922 0
692 0
883 0
834 589 0
815 0
892 20 0
912 205 0
537 0
249 0
119 0
96 959 0
986 406 0
287 0
680 0
481 0
848 245 0
872 0
675 420 0
858 670 0
185 318 0
236 0
815 0
309 0
362 0
852 0
600 0
173 0
784 619 0
513 966 0
259 0
899 0
23 0
747 0
585 0
329 28 0
878 0
506 0
373 222 0
269 350 0
317 0
776 0
640 141 0
816 457 0
553 0
440 0
461 0
451 540 0
129 0
164 0
770 0
688 713 0
983 0
181 0
662 0
932 732 0
475 0
970 211 0
934 0
862 0
49 0
260 678 0
465 0
409 813 0
197 0
240 0
686 0
872 734 0
854 855 0
743 423 0
169 477 0
312 0
281 691 0
584 955 0
48 752 0
987 95 0
542 0
137 0
112 0
120 174 0
674 853 0
228 0
529 83 0
711 0
724 0
100 0
578 0
164 0
169 0
869 365 0
729 0
881 0
219 0
157 0
194 0
210 0
840 453 0
739 0
601 125 0
208 0
727 0
334 0
707 852 0
618 0
620 901 0
532 0
958 0
601 349 0
272 0
260 0
53 0
467 0
853 0
112 143 0
763 0
306 0
98 0
434 0
985 935 0
792 0
412 0
417 214 0
706 0
386 935 0
481 0
777 0
518 0
312 0
340 0
247 0
674 0
76 0
182 343 0
107 0
921 0
465 0
74 419 0
186 396 0
369 0
629 0
892 0
857 0
822 0
895 0
764 0
624 0
706 618 0
22 167 0
332 118 0
293 0
1 499 0
152 386 0
735 0
673 371 0
825 0
579 174 0
564 0
427 0
574 158 0
175 0
402 0
30 0
834 562 0
971 0
356 911 0
188 548 0
626 0
457 0
242 975 0
512 0
370 847 0
788 0
921 332 0
367 0
140 405 0
705 0
490 0
643 647 0
1000 124 0
344 0
42 0
1 0
245 773 0
896 0
725 190 0
980 0
403 0
440 618 0
324 68 0
649 0
962 0
921 939 0
962 0
651 0
411 0
489 0
224 181 0
939 236 0
917 559 0
639 183 0
519 0
472 0
393 806 0
776 0
322 0
192 0
954 0
65 0
271 0
663 0
521 0
990 0
169 0
180 791 0
801 0
673 0
909 751 0
666 0
622 0
537 0
532 0
74 0
437 0
375 0
53 101 0
9 122 0
322 0
551 0
887 383 0
715 461 0
669 0
416 0
577 0
804 0
45 0
569 0
417 860 0
537 532 0
709 750 0
994 0
374 0
520 754 0
533 0
810 0
395 0
952 423 0
673 0
59 207 0
138 207 0
386 19 0
231 0
440 786 0
980 0
383 0
825 0
748 0
217 0
812 0
625 0
454 0
731 0
695 0
817 0
632 0
462 0
99 44 0
947 0
821 0
371 0
258 0
834 911 0
288 0
881 633 0
121 233 0
360 468 0
759 0
681 0
288 701 0
168 0
770 0
665 0
631 0
970 0
873 0
228 0
536 0
860 0
305 0
985 0
788 502 0
331 0
361 0
705 0
328 0
808 0
822 0
109 0
340 845 0
285 0
894 0
485 0
234 252 0
121 415 0
393 0
108 0
686 0
8 743 0
169 502 0
951 0
318 0
405 0
953 0
410 0
742 0
511 0
203 246 0
31 0
184 548 0
37 0
740 0
232 569 0
49 305 0
261 149 0
921 0
880 0
142 366 0
213 535 0
205 0
291 0
961 0
380 303 0
439 0
830 0
353 0
826 469 0
163 0
359 0
684 828 0
369 633 0
465 938 0
688 0
631 0
908 0
140 0
412 0
438 0
925 0
488 0
843 0
571 0
204 135 0
196 0
781 0
693 0
59 0
821 0
161 0
369 418 0
883 0
672 0
5 0
113 0
333 959 0
720 636 0
604 863 0
477 0
539 0
487 0
618 943 0
910 0
33 0
491 0
665 0
961 0
150 0
512 0
534 223 0
310 0
510 0
306 0
282 454 0
200 0
207 0
251 0
84 0
594 573 0
211 957 0
340 0
206 0
458 0
500 327 0
568 0
830 638 0
312 0
450 0
320 0
963 886 0
325 895 0
27 86 0
329 0
53 0
93 0
6 0
236 524 0
676 284 0
871 0
309 0
683 0
357 0
63 0
27 0
219 149 0
366 319 0
290 0
629 0
522 0
373 0
258 203 0
449 0
81 499 0
91 0
565 0
830 0
265 0
322 0
599 0
257 169 0
299 701 0
735 0
264 684 0
669 559 0
831 0
485 743 0
109 0
656 683 0
309 0
332 0
256 0
138 0
12 0
780 0
864 223 0
785 603 0
691 0
519 0
584 0
736 737 0
727 143 0
520 0
836 0
793 0
632 0
11 847 0
466 0
708 686 0
653 0
295 0
96 426 0
8 0
805 0
654 103 0
848 0
319 0
991 0
274 20 0
598 0
819 0
913 0
214 0
469 0
786 0
408 0
78 0
745 20 0
624 885 0
158 0
101 0
292 669 0
695 0
419 0
107 0
56 0
232 905 0
227 0
713 0
377 0
859 0
921 0
749 77 0
937 0
707 0
519 0
460 0
120 0
527 0
885 0
502 0
350 0
652 0
668 0
568 0
842 0
378 0
945 846 0
172 0
533 0
534 0
32 833 0
32 762 0
418 567 0
216 0
857 825 0
161 0
764 0
188 0
305 756 0
726 0
915 0
679 0
735 0
990 0
350 0
633 0
800 0
683 694 0
683 0
138 242 0
636 0
756 695 0
761 614 0
562 0
406 0
684 0
181 759 0
169 0
199 0
57 0
239 0
821 0
593 0
146 0
521 234 0
257 91 0
696 0
905 283 0
541 694 0
390 0
347 244 0
105 894 0
640 185 0
730 0
703 0
544 0
592 579 0
171 0
315 69 0
598 0
240 0
522 574 0
260 0
949 783 0
502 0
339 821 0
999 0
173 662 0
513 0
503 0
415 0
80 0
655 0
949 0
958 967 0
439 0
531 253 0
705 0
112 0
831 0
96 0
922 0
32 154 0
688 181 0
804 0
371 623 0
356 0
470 0
262 0
483 0
729 691 0
139 0
621 759 0
279 0
348 0
374 39 0
942 0
982 0
489 523 0
385 165 0
952 3 0
217 0
456 143 0
312 0
800 0
912 987 0
915 597 0
162 0
658 0
53 967 0
637 0
765 190 0
879 0
396 0
780 756 0
568 0
192 50 0
563 38 0
187 580 0
72 0
158 0
385 0
330 0
196 0
225 820 0
281 0
913 246 0
808 0
620 0
189 0
428 0
556 0
218 0
236 750 0
320 0
225 0
354 0
15 527 0
250 0
886 0
711 0
144 0
485 359 0
488 239 0
51 0
482 0
266 0
74 22 0
91 0
850 0
193 0
596 0
296 490 0
935 0
564 0
878 0
224 0
672 0
633 0
276 0
487 0
865 0
116 254 0
898 0
895 0
471 0
369 322 0
407 0
494 39 0
92 0
216 0
531 0
867 807 0
560 0
587 0
168 0
497 0
866 0
664 837 0
30 0
942 0
742 0
946 0
352 683 0
769 0
732 420 0
676 0
232 0
687 0
223 0
301 174 0
5 0
771 0
49 426 0
500 0
601 0
386 547 0
409 0
640 0
16 510 0
678 0
73 0
470 0
395 0
397 0
639 0
610 637 0
649 0
524 958 0
9 207 0
876 0
164 0
718 0
66 0
439 0
365 0
473 637 0
387 0
353 909 0
836 327 0
718 0
334 0
729 485 0
530 0
960 411 0
555 532 0
183 0
803 0
405 0
857 0
802 0
948 0
10 735 0
928 258 0
958 422 0
137 707 0
874 0
619 0
241 0
540 0
981 0
405 871 0
808 791 0
177 591 0
97 0
937 0
411 316 0
345 38 0
269 431 0
690 0
553 0
820 925 0
619 838 0
471 0
511 0
205 0
815 0
767 0
464 0
402 59 0
952 0
723 0
474 615 0
624 112 0
586 0
534 0
21 0
350 0
124 206 0
55 0
745 0
865 0
314 0
210 0
847 0
50 0
55 0
298 779 0
433 562 0
128 0
679 0
176 552 0
92 0
681 749 0
587 741 0
718 0
174 0
922 0
19 0
378 0
524 0
143 0
698 22 0
728 0
600 0
903 0
101 0
859 0
809 0
844 199 0
389 0
103 0
337 183 0
652 0
824 0
323 0
648 200 0
22 0
883 0
133 0
586 0
176 0
572 0
341 0
128 0
56 0
53 895 0
162 0
298 0
337 0
515 731 0
786 110 0
154 0
265 0
20 0
607 0
661 0
786 327 0
572 367 0
22 0
605 0
271 0
379 0
150 0
137 0
485 0
900 0
79 0
146 0
814 0
233 105 0
510 0
395 28 0
703 0
146 0
417 0
119 0
209 0
341 0
260 429 0
761 0
934 30 0
274 111 0
33 0
652 0
873 407 0
194 990 0
77 0
160 529 0
362 127 0
805 0
36 0
746 0
410 0
573 0
935 0
273 643 0
337 0
321 0
514 478 0
885 0
734 0
309 0
320 314 0
162 0
472 0
63 175 0
947 0
169 986 0
698 0
426 229 0
720 0
665 619 0
111 0
56 523 0
845 0
180 132 0
270 0
733 0
599 0
730 310 0
891 0
958 0
536 0
743 0
296 540 0
991 0
646 0
771 413 0
319 0
841 0
957 750 0
536 0
88 0
887 0
487 0
347 0
396 0
457 0
892 270 0
613 0
319 0
621 46 0
124 0
125 0
531 0
842 735 0
65 174 0
128 0
67 0
537 490 0
415 0
717 0
810 695 0
62 0
954 0
527 0
925 0
866 703 0
648 434 0
76 0
300 0
14 807 0
321 327 0
281 0
251 0
804 0
104 307 0
129 0
110 0
604 790 0
632 0
213 0
919 0
106 0
577 0
420 821 0
698 0
688 0
722 0
80 627 0
451 519 0
194 795 0
325 0
553 0
772 0
799 0
498 0
512 920 0
835 508 0
899 0
822 246 0
197 0
815 751 0
722 0
569 0
219 0
155 0
935 0
1000 0
225 999 0
363 349 0
561 0
672 0
932 950 0
874 251 0
15 0
606 0
37 0
616 0
705 0
207 0
311 0
45 765 0
187 94 0
403 607 0
199 495 0
549 101 0
846 0
739 997 0
821 6 0
812 591 0
554 0
37 0
979 0
314 0
898 0
947 853 0
549 0
669 0
359 0
487 407 0
505 0
866 0
684 0
41 541 0
424 71 0
223 0
906 572 0
521 0
169 0
65 0
435 0
491 717 0
891 621 0
186 309 0
915 453 0
972 0
25 699 0
721 773 0
676 519 0
804 0
329 0
712 0
84 0
536 0
85 0
944 0
349 0
289 493 0
45 0
435 462 0
564 0
495 0
498 325 0
447 0
189 0
210 581 0
361 0
1000 787 0
315 0
388 0
152 523 0
339 0
401 347 0
200 993 0
961 494 0
122 0
56 661 0
190 0
740 0
637 0
287 0
291 804 0
314 0
397 0
539 0
753 506 0
377 0
856 474 0
508 0
209 0
205 0
65 0
763 0
45 0
858 973 0
222 0
93 0
382 0
770 244 0
537 740 0
189 0
309 0
242 38 0
994 0
834 0
668 0
551 0
104 0
385 0
56 420 0
995 933 0
242 0
790 0
649 31 0
19 0
33 0
552 0
515 0
590 0
520 526 0
204 0
589 366 0
590 975 0
858 0
466 269 0
821 982 0
832 324 0
149 0
74 0
691 501 0
133 0
231 0
610 541 0
52 133 0
820 0
415 7 0
148 0
401 885 0
870 0
691 0
407 0
676 0
747 0
865 0
81 0
89 260 0
188 0
884 0
470 0
504 0
521 0
960 373 0
474 0
748 589 0
521 254 0
848 0
485 23 0
544 0
792 0
851 0
693 0
128 0
272 56 0
944 0
348 878 0
332 0
252 0
617 0
76 780 0
393 469 0
992 696 0
58 470 0
15 0
634 766 0
409 261 0
153 0
840 0
611 0
864 0
41 0
847 0
602 0
68 0
102 0
544 499 0
603 0
484 0
277 0
345 383 0
956 0
631 15 0
15 0
133 542 0
767 0
249 436 0
109 726 0
106 0
133 854 0
626 419 0
951 0
5 0
448 914 0
674 0
404 0
455 0
449 0
899 0
401 0
548 0
178 0
301 0
838 0
673 0
329 500 0
333 0
981 0
686 199 0
950 0
192 371 0
509 0
904 170 0
138 0
217 0
382 0
987 0
1000 0
155 0
843 382 0
900 0
258 0
480 830 0
210 0
60 870 0
192 0
943 0
434 551 0
109 0
765 0
29 342 0
846 0
55 0
12 326 0
208 348 0
537 724 0
35 0
595 0
961 0
881 0
591 231 0
300 0
382 0
866 539 0
462 959 0
250 0
371 780 0
81 213 0
846 0
119 0
840 55 0
668 0
420 0
3 502 0
993 537 0
694 0
965 0
602 923 0
607 0
758 0
697 0
809 0
936 318 0
169 0
227 0
708 0
200 819 0
952 0
661 0
376 0
931 623 0
251 0
753 0
513 622 0
907 0
997 0
856 0
206 998 0
808 997 0
607 0
779 421 0
21 118 0
338 0
972 556 0
585 0
82 933 0
390 0
204 0
394 0
602 0
511 0
549 0
659 0
297 203 0
397 0
914 347 0
374 0
618 0
425 0
489 764 0
105 0
541 0
194 0
335 0
230 0
736 0
345 413 0
98 812 0
502 0
224 0
601 106 0
252 0
628 357 0
339 0
319 0
340 0
200 0
549 0
850 0
576 0
72 0
7 0
194 890 0
514 815 0
457 0
425 493 0
104 0
823 663 0
334 0
502 0
767 0
239 0
987 387 0
179 287 0
744 0
129 0
531 0
583 0
811 0
273 4 0
385 58 0
51 0
355 220 0
1000 105 0
16 0
816 0
457 148 0
546 0
288 0
12 0
955 0
414 327 0
475 564 0
907 0
745 0
432 0
889 199 0
579 0
986 0
54 0
459 0
296 0
850 220 0
442 0
838 431 0
652 957 0
96 0
390 0
99 0
910 0
100 0
302 767 0
719 871 0
956 271 0
983 0
213 0
106 0
146 0
678 0
977 141 0
44 183 0
546 0
264 773 0
78 0
171 565 0
500 669 0
528 0
385 410 0
74 0
863 0
567 0
810 853 0
281 0
122 0
97 175 0
3 0
380 0
188 0
804 567 0
320 0
446 0
233 771 0
288 0
780 0
798 0
439 0
905 887 0
177 0
78 0
650 885 0
510 503 0
422 0
522 0
113 0
983 0
710 0
92 0
256 0
526 0
668 397 0
180 0
69 0
193 589 0
493 822 0
793 0
504 0
705 53 0
296 0
393 0
937 0
214 278 0
6 0
688 290 0
190 0
464 534 0
713 0
94 0
255 0
51 0
547 0
789 685 0
729 0
217 0
480 23 0
767 0
217 100 0
82 828 0
589 0
301 0
601 0
321 241 0
322 0
153 0
513 905 0
163 23 0
799 0
632 0
267 759 0
174 734 0
151 0
553 774 0
989 0
36 0
523 829 0
233 829 0
136 165 0
822 0
6 0
115 0
880 0
811 0
471 0
346 0
521 0
128 616 0
764 573 0
544 0
103 0
161 0
379 813 0
17 166 0
722 0
643 0
264 273 0
556 0
534 0
345 641 0
340 0
760 0
571 0
857 0
101 0
602 100 0
725 0
577 15 0
140 0
501 0
715 0
7 0
971 955 0
491 0
387 0
977 988 0
730 463 0
772 0
301 389 0
282 0
546 947 0
608 0
947 0
970 0
552 367 0
495 0
10 0
601 0
392 0
851 0
528 0
190 0
134 142 0
896 0
545 0
679 0
71 0
857 634 0
61 0
922 0
206 0
506 0
601 78 0
779 0
826 0
456 973 0
779 0
804 0
336 0
155 0
345 0
771 0
64 950 0
183 0
163 0
813 0
613 0
271 0
715 0
594 0
990 0
815 0
221 0
202 430 0
378 53 0
199 0
397 0
579 751 0
914 0
828 239 0
953 211 0
244 0
348 0
845 0
156 765 0
801 0
658 0
71 0
98 0
450 0
515 0
584 897 0
985 700 0
197 0
36 0
638 0
335 0
598 0
296 153 0
564 0
733 598 0
751 0
373 645 0
984 477 0
923 0
141 0
740 0
289 0
379 398 0
9 0
91 0
356 564 0
898 0
338 0
988 84 0
322 0
946 566 0
21 0
225 991 0
387 44 0
409 0
116 0
371 0
700 0
929 0
241 0
619 350 0
201 0
253 479 0
194 0
676 0
613 0
448 19 0
264 0
457 554 0
827 524 0
64 0
620 0
556 525 0
513 0
395 0
785 0
601 606 0
303 0
345 0
179 567 0
746 733 0
735 0
24 0
339 475 0
692 0
760 399 0
25 0
177 770 0
24 0
875 477 0
616 0
928 0
99 0
183 0
707 477 0
882 134 0
329 0
679 0
192 0
270 0
725 0
533 0
890 0
758 0
584 0
664 0
545 834 0
390 0
392 0
242 0
792 0
25 0
547 901 0
624 0
892 0
256 657 0
312 103 0
745 0
258 519 0
196 0
805 0
257 0
743 0
90 855 0
900 878 0
551 0
585 548 0
337 0
712 0
401 0
480 274 0
219 0
170 583 0
414 0
72 0
151 0
326 0
588 0
101 0
421 0
922 0
95 0
414 0
848 0
577 0
50 0
339 204 0
942 0
53 0
630 934 0
200 0
503 0
962 0
309 0
176 0
261 359 0
243 0
985 105 0
41 0
960 165 0
339 294 0
95 463 0
881 0
954 15 0
123 39 0
670 414 0
646 167 0
163 389 0
332 445 0
944 882 0
784 0
137 0
653 0
645 0
373 0
297 0
930 126 0
319 0
248 0
551 0
83 0
868 494 0
230 0
782 183 0
813 0
551 0
89 247 0
930 909 0
82 781 0
913 0
222 0
345 287 0
457 0
515 21 0
31 0
98 0
471 0
22 0
641 354 0
92 93 0
845 0
853 0
476 318 0
278 0
125 0
280 0
855 0
198 0
609 0
871 0
502 0
570 666 0
245 0
689 0
780 0
778 0
634 0
377 162 0
862 0
680 75 0
739 0
796 269 0
22 343 0
444 0
116 366 0
1 268 0
35 503 0
995 0
439 159 0
668 894 0
433 10 0
660 0
952 0
749 0
435 214 0
377 995 0
119 0
50 693 0
515 0
888 124 0
817 799 0
881 0
88 0
457 0
174 0
738 445 0
616 0
380 0
452 0
445 0
849 842 0
804 0
586 509 0
773 246 0
492 0
282 0
375 0
595 0
230 0
609 0
582 0
496 0
228 0
401 933 0
905 0
556 0
802 0
903 0
64 0
260 0
173 0
549 0
832 291 0
616 791 0
460 0
376 0
597 758 0
279 0
482 0
229 0
285 0
728 837 0
707 0
439 0
433 0
874 0
399 0
361 0
447 0
260 814 0
572 30 0
756 0
12 0
975 567 0
339 0
478 0
188 422 0
323 607 0
603 894 0
295 0
163 0
640 0
108 0
745 989 0
811 0
139 245 0
851 303 0
167 0
809 0
123 659 0
123 0
411 0
974 0
325 0
929 501 0
904 167 0
398 0
71 0
248 0
875 0
359 0
410 621 0
42 0
579 0
360 220 0
698 940 0
409 0
173 0
588 0
167 767 0
948 0
860 0
300 174 0
408 0
507 55 0
566 0
336 0
819 0
784 699 0
973 535 0
374 0
275 0
735 0
928 0
85 359 0
390 0
135 0
745 0
922 379 0
2 125 0
65 963 0
378 901 0
680 251 0
51 462 0
36 0
897 409 0
77 205 0
584 0
620 476 0
514 0
688 436 0
625 0
449 498 0
425 0
938 0
413 0
312 0
424 0
573 0
5 0
399 0
548 0
866 0
609 0
250 0
900 0
368 617 0
643 0
587 0
1 235 0
66 860 0
264 0
680 0
932 0
555 447 0
263 0
132 0
665 722 0
906 0
409 295 0
561 178 0
143 0
806 0
714 461 0
57 0
269 0
86 0
315 0
767 0
857 701 0
178 0
460 0
887 0
280 826 0
927 0
480 642 0
176 0
991 0
586 0
92 0
85 950 0
624 0
722 471 0
558 0
565 0
985 0
864 0
392 0
823 0
390 590 0
943 0
579 0
52 0
650 623 0
893 0
197 0
305 0
389 0
657 659 0
476 365 0
121 725 0
506 0
181 262 0
140 581 0
849 0
243 0
2 622 0
908 0
887 0
843 655 0
861 831 0
378 0
899 0
510 0
182 0
26 247 0
88 482 0
163 0
300 0
848 926 0
396 0
475 0
760 145 0
476 831 0
882 0
104 761 0
568 569 0
784 564 0
862 127 0
805 0
173 0
26 0
257 0
558 0
300 773 0
928 425 0
271 0
601 0
88 0
72 0
26 669 0
736 440 0
926 0
387 350 0
761 822 0
771 0
948 0
749 0
240 0
672 0
695 0
482 631 0
605 0
163 0
84 0
992 965 0
248 364 0
985 0
611 924 0
330 964 0
140 0
159 0
433 0
356 0
17 121 0
462 775 0
273 0
942 0
733 0
800 0
913 415 0
663 0
470 0
985 230 0
430 934 0
583 0
421 207 0
365 29 0
248 0
932 0
97 509 0
136 324 0
332 0
642 0
946 0
180 0
187 0
26 340 0
489 782 0
26 78 0
355 0
466 990 0
392 0
357 0
824 0
597 703 0
112 0
949 982 0
1 0
723 470 0
304 504 0
279 0
960 0
976 349 0
607 0
968 0
569 0
920 772 0
297 0
736 0
944 0
701 0
208 111 0
37 405 0
218 751 0
608 983 0
592 213 0
953 0
871 0
51 0
446 0
155 0
10 0
713 0
838 830 0
732 0
758 0
692 0
622 151 0
610 0
312 555 0
679 0
245 253 0
390 0
83 118 0
691 0
100 759 0
877 0
996 0
512 0
671 0
762 653 0
366 0
71 0
619 0
418 0
608 0
657 0
887 0
116 0
334 0
9 332 0
926 679 0
113 348 0
801 499 0
409 0
985 173 0
596 0
146 141 0
681 713 0
700 0
554 0
640 0
544 0
920 581 0
397 0
897 0
808 0
746 580 0
50 0
386 0
664 445 0
724 0
127 0
76 477 0
619 0
395 0
71 0
602 246 0
2 342 0
146 0
619 0
849 0
778 293 0
247 0
747 0
298 709 0
363 0
931 477 0
419 0
798 0
642 0
472 0
737 940 0
288 210 0
267 0
638 0
411 0
180 0
552 660 0
293 0
462 0
341 0
54 0
227 0
766 0
186 942 0
622 0
512 0
353 0
200 0
889 15 0
467 558 0
453 861 0
264 0
821 0
641 0
417 0
816 0
961 0
846 0
384 26 0
806 175 0
250 243 0
584 323 0
733 0
780 0
536 603 0
811 941 0
776 0
569 0
213 23 0
52 0
953 877 0
593 65 0
421 854 0
467 0
425 276 0
73 475 0
676 0
398 30 0
208 644 0
718 0
846 0
773 398 0
474 0
522 226 0
400 867 0
922 0
843 0
532 0
127 0
171 774 0
571 854 0
467 0
657 980 0
488 0
612 446 0
858 0
486 0
448 0
666 501 0
316 0
497 0
442 0
369 0
320 708 0
414 0
571 0
967 0
787 0
391 0
913 0
593 0
752 529 0
658 0
579 877 0
409 484 0
921 0
94 0
379 676 0
200 432 0
797 461 0
707 926 0
838 0
7 0
999 0
569 0
642 0
279 0
670 0
877 741 0
558 567 0
845 629 0
411 0
152 0
80 446 0
376 847 0
257 0
872 649 0
746 0
782 510 0
567 247 0
767 0
406 0
566 0
308 429 0
117 0
299 772 0
720 0
658 0
144 458 0
779 0
969 0
775 0
768 591 0
506 0
812 0
505 0
852 0
906 893 0
860 0
818 508 0
710 0
199 0
836 0
111 0
737 0
218 0
217 0
29 0
571 0
419 6 0
701 0
91 956 0
679 0
612 0
192 0
451 388 0
319 0
92 0
525 0
887 0
923 0
783 0
76 0
683 500 0
227 0
218 0
4 0
179 653 0
418 170 0
784 0
560 0
668 0
501 0
689 981 0
104 0
116 191 0
534 0
578 0
714 0
480 116 0
777 0
225 0
252 0
775 0
711 0
29 231 0
394 533 0
31 0
552 0
130 663 0
687 0
440 722 0
192 0
569 0
145 58 0
175 0
176 979 0
67 855 0
242 438 0
135 0
842 50 0
610 566 0
13 0
439 0
873 747 0
718 0
288 0
192 954 0
783 0
457 0
268 0
902 0
777 0
81 0
182 350 0
760 473 0
360 0
678 0
839 0
737 238 0
900 0
28 92 0
620 606 0
296 859 0
937 0
274 350 0
186 599 0
728 586 0
561 154 0
113 0
801 0
917 159 0
295 0
907 0
570 0
199 0
140 0
108 0
406 0
460 455 0
955 311 0
273 0
418 669 0
565 0
98 6 0
229 0
325 0
306 651 0
265 0
414 0
798 0
723 980 0
766 0
649 0
75 0
482 0
3 125 0
628 788 0
24 360 0
882 0
202 0
146 631 0
136 0
835 0
181 0
805 0
258 0
288 0
423 0
856 509 0
267 0
665 743 0
161 0
107 0
103 0
627 7 0
806 0
459 596 0
142 0
50 0
967 0
207 0
20 0
203 620 0
254 0
746 55 0
356 796 0
635 0
538 0
284 0
76 0
336 0
306 677 0
780 918 0
923 0
190 815 0
894 0
141 0
484 341 0
208 263 0
178 0
207 0
218 0
363 0
193 911 0
604 0
573 703 0
849 0
30 0
35 646 0
722 483 0
387 588 0
601 0
457 0
844 0
881 196 0
323 387 0
591 0
311 0
233 761 0
408 746 0
235 910 0
652 100 0
396 613 0
314 0
896 861 0
974 167 0
551 0
876 0
161 237 0
610 0
614 0
936 37 0
280 0
817 0
974 0
816 0
786 0
654 0
132 501 0
768 0
50 652 0
448 332 0
303 0
976 250 0
409 0
633 0
349 0
257 0
548 0
489 435 0
233 567 0
677 0
474 0
729 0
245 0
662 391 0
686 622 0
629 0
194 0
810 707 0
673 54 0
43 0
244 0
775 0
4 198 0
537 0
202 0
661 0
235 165 0
245 0
437 638 0
361 51 0
226 114 0
428 0
573 0
612 117 0
939 335 0
610 627 0
864 210 0
960 0
826 0
346 468 0
381 101 0
440 0
961 375 0
403 614 0
92 455 0
366 0
279 0
519 0
279 0
884 0
612 462 0
762 0
936 0
275 0
539 709 0
464 598 0
894 726 0
389 0
580 0
839 0
987 0
106 0
505 885 0
139 0
882 0
727 0
857 253 0
482 0
572 0
758 0
767 0
328 0
168 0
397 0
546 0
904 0
400 0
800 199 0
993 0
626 317 0
154 525 0
127 0
681 671 0
975 0
435 479 0
714 0
490 219 0
216 802 0
999 0
18 0
740 0
645 0
358 0
33 0
165 166 0
893 165 0
267 0
363 0
634 0
304 0
354 0
520 62 0
684 541 0
647 0
578 131 0
224 664 0
700 359 0
582 0
173 0
418 0
537 0
634 0
113 602 0
950 0
863 0
788 0
184 178 0
940 221 0
876 0
97 0
95 0
754 660 0
505 678 0
97 878 0
684 0
809 429 0
742 0
334 0
872 0
948 0
449 0
724 0
925 0
680 0
826 0
776 0
221 0
535 0
546 0
976 0
716 0
129 5 0
328 0
593 0
288 0
373 734 0
351 0
675 876 0
20 0
218 0
8 541 0
804 0
546 540 0
826 679 0
48 0
120 439 0
232 0
865 0
439 0
644 0
215 0
89 0
311 0
236 0
731 461 0
518 510 0
546 0
506 0
452 348 0
689 0
834 494 0
779 0
631 0
75 863 0
848 524 0
520 725 0
628 0
557 0
854 7 0
756 607 0
994 403 0
137 0
767 0
760 0
729 611 0
269 631 0
857 0
54 503 0
674 0
714 703 0
771 95 0
481 501 0
748 0
480 502 0
599 847 0
872 813 0
504 331 0
720 0
205 751 0
538 0
971 0
944 404 0
184 0
602 476 0
847 0
855 0
374 0
36 0
118 0
114 0
484 0
961 0
401 0
579 0
673 403 0
483 675 0
641 0
847 0
550 0
740 0
408 0
463 0
896 0
24 349 0
91 0
152 0
243 0
166 0
606 0
76 807 0
425 748 0
265 0
36 0
87 0
242 0
722 0
66 67 0
163 0
192 0
129 0
470 0
907 0
108 0
654 0
627 0
286 0
314 642 0
306 0
683 0
284 0
644 406 0
884 0
114 787 0
436 0
504 281 0
133 783 0
901 63 0
180 0
763 0
207 0
629 0
582 0
646 0
109 0
465 0
117 0
148 12 0
141 0
598 0
83 0
242 0
734 0
8 0
676 0
30 0
632 0
468 900 0
168 0
740 0
391 0
948 695 0
843 0
518 0
954 989 0
493 0
149 0
198 0
170 0
623 679 0
364 0
350 0
480 227 0
887 0
788 0
51 0
595 0
678 239 0
837 0
201 34 0
416 0
200 0
714 0
577 0
33 603 0
926 0
860 990 0
367 295 0
944 0
744 0
896 0
121 0
903 0
728 0
326 0
871 0
651 0
850 0
617 270 0
344 0
548 215 0
656 675 0
876 0
489 0
981 0
665 0
101 0
816 798 0
472 61 0
602 0
209 0
331 0
931 0
182 0
366 0
645 0
318 0
183 807 0
673 541 0
120 0
78 966 0
199 0
988 0
644 223 0
435 398 0
42 0
496 420 0
568 100 0
751 0
614 887 0
549 781 0
768 0
29 0
855 0
474 0
695 0
220 799 0
519 0
81 0
390 718 0
5 590 0
369 534 0
741 0
425 0
516 0
640 61 0
141 0
614 0
747 0
43 0
448 0
953 0
936 200 0
905 0
770 0
11 0
260 0
237 0
225 0
487 0
378 0
840 647 0
298 903 0
721 0
377 0
125 0
953 830 0
334 590 0
192 613 0
795 0
780 662 0
888 792 0
567 0
378 0
552 889 0
253 0
216 448 0
120 399 0
132 0
38 247 0
621 0
930 610 0
703 0
989 0
228 0
910 0
903 0
192 998 0
615 0
61 383 0
705 0
825 665 0
702 0
567 0
863 0
753 0
112 545 0
701 0
931 0
475 0
212 830 0
878 0
262 0
715 0
594 0
506 0
933 783 0
126 0
441 0
457 301 0
850 0
486 0
278 0
379 0
973 0
861 0
708 750 0
395 0
429 0
357 0
192 931 0
875 469 0
225 697 0
844 542 0
513 67 0
902 0
740 0
384 0
128 634 0
548 534 0
33 0
382 0
583 0
966 766 0
905 159 0
434 922 0
928 0
673 63 0
856 721 0
646 0
633 788 0
752 0
533 534 0
220 0
552 12 0
92 0
872 30 0
180 0
866 0
854 0
972 581 0
154 0
698 0
994 991 0
965 694 0
817 0
56 0
353 0
602 277 0
897 0
708 0
637 0
63 0
752 0
224 442 0
250 947 0
104 0
784 194 0
278 0
153 342 0
222 0
409 0
634 0
503 0
8 0
457 0
884 0
560 20 0
206 0
635 0
917 335 0
849 0
335 0
182 0
544 983 0
986 0
490 0
34 291 0
50 67 0
674 942 0
145 964 0
908 0
488 551 0
94 0
399 0
399 0
174 0
13 885 0
718 0
333 0
328 427 0
659 0
764 0
772 0
483 0
181 54 0
824 131 0
890 0
891 326 0
844 0
578 0
113 0
285 0
30 303 0
220 0
851 399 0
855 0
784 0
776 471 0
696 434 0
404 0
91 0
449 0
129 0
612 0
539 0
129 86 0
832 0
808 0
242 0
699 0
498 965 0
704 303 0
488 0
921 0
968 0
293 0
49 0
913 659 0
872 359 0
331 0
623 0
873 661 0
272 617 0
362 0
739 0
505 0
145 0
169 906 0
247 0
142 0
335 0
171 0
584 967 0
782 0
416 0
553 0
60 0
821 0
600 0
167 0
599 0
939 927 0
581 119 0
474 0
330 36 0
238 0
451 748 0
396 0
42 0
211 0
253 0
747 0
91 939 0
237 0
631 0
994 0
727 0
949 0
915 0
111 0
768 0
326 735 0
925 0
653 0
412 0
12 0
994 788 0
336 0
180 0
131 0
379 926 0
561 0
892 0
456 0
824 0
960 0
932 0
811 0
325 45 0
849 373 0
681 0
475 0
961 799 0
189 0
609 0
127 0
11 0
681 0
549 0
768 203 0
961 182 0
810 0
978 0
261 0
760 0
545 0
813 0
444 0
466 0
38 0
374 0
657 559 0
950 0
753 0
297 0
86 0
569 658 0
160 0
777 0
726 0
810 0
426 0
160 0
929 0
867 0
632 0
747 438 0
89 237 0
376 0
528 0
386 0
738 0
530 0
856 0
256 0
716 807 0
155 668 0
597 0
680 502 0
844 0
189 0
11 0
464 889 0
944 596 0
73 379 0
652 0
727 0
236 0
401 900 0
988 0
219 0
489 292 0
897 691 0
220 0
902 0
630 0
798 0
456 654 0
987 0
871 0
987 0
106 0
299 0
800 0
534 0
596 0
674 967 0
585 0
221 0
797 0
681 502 0
722 0
62 0
16 0
619 0
92 0
408 0
888 0
27 356 0
552 0
197 389 0
385 166 0
17 0
646 0
745 0
577 0
834 243 0
120 44 0
405 895 0
440 0
282 181 0
781 0
70 0
565 990 0
239 0
658 0
708 0
662 0
578 0
397 0
755 0
186 0
986 0
330 0
62 0
940 0
470 0
568 611 0
568 47 0
979 31 0
871 0
421 0
491 0
980 0
321 0
904 0
137 0
576 0
906 0
216 476 0
424 0
351 991 0
571 0
988 0
72 0
601 898 0
491 0
732 0
446 0
963 452 0
163 0
737 556 0
40 497 0
564 95 0
220 0
450 0
865 0
72 0
560 0
721 0
352 101 0
670 39 0
113 889 0
666 675 0
848 0
449 754 0
785 0
894 0
66 0
819 0
786 0
984 381 0
410 0
48 0
799 0
376 0
687 0
163 0
965 0
608 0
692 0
733 902 0
931 0
965 0
704 29 0
778 0
496 315 0
77 0
465 0
34 559 0
526 0
258 69 0
195 0
179 0
282 0
216 0
491 0
643 0
487 0
456 0
549 0
256 0
125 0
681 357 0
851 731 0
416 0
935 0
202 0
967 0
59 0
605 0
867 0
826 0
882 0
264 0
335 0
43 0
695 0
178 0
337 404 0
98 84 0
748 151 0
52 0
96 919 0
588 589 0
589 0
968 107 0
791 0
109 0
74 301 0
689 0
656 0
161 815 0
604 0
245 0
60 503 0
66 127 0
860 333 0
294 0
847 0
148 0
592 0
169 0
294 0
692 0
457 0
207 0
4 182 0
604 0
104 0
507 0
580 0
477 159 0
374 0
915 0
990 103 0
329 943 0
355 0
375 0
787 0
817 0
413 526 0
410 0
719 0
121 602 0
626 887 0
130 0
679 0
603 637 0
853 0
852 0
390 0
300 0
594 0
315 765 0
416 389 0
760 0
800 0
67 294 0
403 229 0
554 630 0
993 428 0
13 0
380 0
461 0
267 0
740 0
606 0
422 0
665 995 0
584 0
758 0
577 231 0
370 299 0
304 0
478 0
366 0
722 886 0
197 0
584 803 0
419 0
532 0
944 510 0
323 789 0
585 0
351 0
50 943 0
719 0
308 0
705 0
37 0
158 0
208 0
967 0
837 0
225 887 0
488 11 0
650 0
300 0
742 87 0
131 622 0
550 0
722 510 0
888 0
441 0
579 0
818 0
212 469 0
728 593 0
368 0
856 0
907 277 0
264 435 0
788 438 0
100 846 0
104 405 0
562 276 0
983 0
703 0
489 0
631 0
54 0
193 0
296 0
836 0
705 0
814 0
920 986 0
682 695 0
427 0
841 0
669 0
583 0
386 42 0
890 586 0
551 0
616 201 0
33 926 0
234 459 0
436 0
580 0
880 0
250 0
457 755 0
255 0
697 0
10 0
797 0
905 507 0
726 0
568 289 0
79 0
3 0
727 0
987 644 0
535 0
801 0
123 333 0
282 373 0
16 600 0
508 0
941 319 0
324 0
687 0
173 0
938 0
210 157 0
642 612 0
953 0
211 406 0
690 0
809 0
595 502 0
736 0
606 0
648 430 0
579 131 0
80 0
836 0
740 0
705 623 0
783 0
291 677 0
408 460 0
226 630 0
370 0
952 442 0
951 0
36 0
506 0
557 655 0
655 0
758 0
471 583 0
855 0
17 0
568 0
879 0
533 429 0
181 0
599 0
688 122 0
145 667 0
224 401 0
670 0
124 415 0
153 190 0
335 711 0
602 0
319 0
526 0
745 0
29 0
95 919 0
49 0
322 0
50 0
226 0
373 0
379 0
763 869 0
568 540 0
673 9 0
301 0
717 0
708 0
849 914 0
929 0
232 0
749 0
698 0
736 140 0
139 0
381 0
147 0
378 0
858 0
439 0
594 939 0
896 0
368 2 0
164 0
749 63 0
8 0
709 0
408 0
223 0
618 0
566 0
836 638 0
739 0
832 0
224 238 0
745 639 0
848 634 0
683 0
799 0
631 71 0
604 0
858 0
848 0
913 238 0
690 0
824 0
477 0
617 223 0
26 535 0
594 45 0
186 0
35 0
139 0
363 0
263 0
673 693 0
91 253 0
99 0
296 861 0
987 0
971 0
48 729 0
286 0
268 0
965 0
313 36 0
223 0
28 0
291 0
380 0
818 0
68 0
512 984 0
797 357 0
305 0
560 457 0
249 925 0
759 0
777 126 0
272 0
752 0
493 0
692 0
486 0
912 0
530 0
957 0
781 0
902 0
548 0
829 0
586 0
973 503 0
205 0
937 0
939 0
208 45 0
549 0
786 0
951 0
808 0
713 28 0
551 0
720 0
648 0
215 0
361 0
480 290 0
603 917 0
834 0
564 0
707 0
192 186 0
218 0
54 110 0
151 0
414 0
240 479 0
763 0
267 483 0
99 0
226 882 0
118 0
444 583 0
86 0
759 0
76 0
620 0
733 0
929 0
241 0
256 0
200 0
313 14 0
439 0
306 0
106 38 0
212 0
320 181 0
942 0
695 0
261 0
840 0
364 0
599 0
365 0
91 0
853 0
596 0
850 0
73 0
295 0
948 0
360 348 0
733 0
715 0
705 198 0
728 0
746 415 0
695 0
203 972 0
900 0
656 762 0
622 0
620 0
964 326 0
801 0
979 0
399 0
16 175 0
225 725 0
345 913 0
379 0
988 0
876 156 0
96 426 0
920 762 0
365 0
588 0
249 179 0
892 0
818 0
240 374 0
368 0
879 0
836 0
529 0
219 0
661 0
413 0
622 487 0
444 0
103 567 0
801 75 0
552 0
666 0
20 415 0
795 0
942 0
427 198 0
126 0
841 809 0
218 0
307 0
809 234 0
76 0
956 300 0
894 191 0
328 0
894 0
83 0
108 567 0
37 0
832 0
504 0
884 149 0
313 806 0
523 0
883 181 0
20 0
991 0
915 870 0
968 0
14 0
826 685 0
297 0
422 0
390 342 0
931 405 0
242 0
913 0
689 484 0
999 0
123 0
281 993 0
312 0
955 0
934 0
699 0
93 0
647 39 0
345 634 0
609 0
755 830 0
811 173 0
413 0
860 0
642 0
343 0
828 0
696 539 0
298 557 0
341 0
22 0
569 0
780 0
913 0
775 0
341 0
625 0
245 0
125 0
211 0
30 0
310 0
959 0
666 0
837 0
378 101 0
512 0
1000 0
35 589 0
299 0
537 876 0
792 0
728 330 0
752 0
49 962 0
752 0
663 0
994 628 0
823 735 0
320 0
430 0
691 758 0
969 990 0
480 0
569 0
467 0
57 0
210 163 0
494 0
746 0
234 38 0
664 0
987 0
786 422 0
628 0
442 666 0
132 0
690 0
562 958 0
991 271 0
423 0
182 0
477 0
790 0
384 0
964 421 0
427 0
8 0
352 854 0
4 399 0
371 438 0
401 0
433 0
201 0
65 0
653 0
460 0
381 197 0
422 0
881 189 0
731 31 0
576 998 0
300 13 0
275 0
947 0
452 0
320 0
102 0
347 0
764 0
576 0
696 0
209 0
938 0
288 886 0
777 995 0
706 0
785 421 0
661 566 0
16 59 0
928 0
419 852 0
656 336 0
866 0
56 0
729 580 0
98 0
23 0
783 0
447 0
202 0
484 919 0
65 113 0
673 365 0
249 998 0
838 0
633 265 0
360 0
100 231 0
719 271 0
475 0
749 0
332 0
925 0
43 158 0
995 0
361 0
37 0
545 50 0
978 0
444 0
941 0
977 0
290 0
312 0
569 0
751 0
82 412 0
234 0
322 0
229 0
948 0
221 239 0
658 0
851 311 0
690 0
286 0
345 279 0
882 0
682 620 0
845 0
982 0
236 957 0
629 0
404 863 0
409 572 0
347 0
175 935 0
554 0
618 53 0
666 890 0
472 0
986 0
58 0
148 0
744 595 0
97 0
322 0
402 0
218 693 0
25 438 0
50 0
107 0
668 0
956 862 0
180 0
21 0
219 0
148 0
438 0
937 641 0
932 0
963 0
404 0
908 0
624 0
921 0
570 0
409 0
744 127 0
5 0
379 0
251 0
729 0
197 374 0
765 263 0
430 0
998 0
438 0
611 0
491 0
187 0
952 60 0
699 846 0
824 0
356 0
346 0
363 565 0
560 619 0
774 23 0
23 0
72 96 0
121 0
473 0
748 0
975 0
464 0
280 0
399 0
650 0
464 0
192 739 0
58 0
931 0
233 421 0
386 149 0
872 285 0
91 852 0
939 644 0
386 0
224 526 0
530 0
141 0
344 958 0
82 0
941 0
61 878 0
692 0
690 661 0
295 0
950 0
687 0
451 126 0
666 0
813 0
789 719 0
370 0
243 0
814 0
235 694 0
786 0
671 0
552 0
795 0
975 0
657 791 0
252 285 0
45 0
869 0
27 0
701 0
507 949 0
52 0
268 0
554 0
804 0
540 0
284 798 0
505 700 0
26 951 0
957 598 0
436 0
203 0
593 0
120 823 0
289 380 0
750 0
38 0
684 0
286 31 0
981 0
959 0
743 0
272 876 0
743 0
591 0
608 0
212 191 0
866 587 0
356 286 0
105 325 0
641 0
660 0
258 733 0
584 0
809 333 0
51 0
594 0
967 0
485 911 0
930 0
662 0
427 47 0
85 0
36 0
420 0
568 0
190 0
280 0
154 300 0
378 0
407 0
660 975 0
769 13 0
4 79 0
465 0
127 0
97 774 0
568 0
653 0
488 251 0
509 0
899 0
569 602 0
234 975 0
915 0
227 0
513 399 0
436 647 0
5 0
63 0
840 0
960 378 0
741 0
389 0
286 855 0
197 191 0
106 0
973 0
654 0
476 838 0
934 0
352 537 0
196 0
305 0
434 0
944 0
960 67 0
11 0
472 685 0
637 0
718 0
568 488 0
843 0
112 0
297 426 0
833 154 0
984 380 0
613 0
100 0
346 0
368 0
939 791 0
187 0
687 0
189 303 0
269 967 0
800 0
930 0
383 0
933 0
726 0
329 0
629 0
645 503 0
629 0
765 0
778 0
720 30 0
560 0
230 0
261 0
608 0
538 0
503 0
27 287 0
758 703 0
363 0
295 0
811 0
687 0
414 0
882 893 0
713 871 0
419 428 0
156 0
97 254 0
269 0
218 0
637 0
93 239 0
947 0
252 294 0
502 486 0
618 0
202 0
19 0
124 0
936 171 0
309 0
441 674 0
245 287 0
494 0
962 0
416 388 0
871 0
812 0
385 0
516 0
204 590 0
53 0
176 0
480 0
443 0
737 93 0
764 0
921 557 0
469 0
14 0
984 0
435 277 0
193 415 0
571 0
779 0
9 0
670 0
196 0
163 0
436 381 0
424 794 0
187 0
339 0
378 0
667 0
942 0
24 0
973 822 0
36 0
974 703 0
841 76 0
378 855 0
745 900 0
116 0
291 455 0
804 0
910 0
433 905 0
645 286 0
641 0
926 0
549 0
842 0
989 0
105 708 0
185 670 0
43 0
8 0
233 0
89 0
985 842 0
429 143 0
903 0
311 0
414 0
888 193 0
89 0
645 0
130 724 0
832 439 0
234 87 0
616 0
853 0
894 0
273 268 0
876 0
745 20 0
103 0
543 0
282 0
8 415 0
646 0
914 0
359 0
792 106 0
296 0
623 0
487 0
153 809 0
793 583 0
499 0
733 0
109 0
947 0
472 664 0
660 0
775 0
890 0
952 0
630 0
744 0
469 0
829 0
5 0
218 0
340 0
785 0
707 0
364 373 0
434 0
617 0
968 0
662 0
424 0
178 227 0
912 0
937 0
945 0
266 662 0
415 0
703 0
168 0
502 551 0
419 141 0
195 309 0
88 118 0
972 238 0
290 0
911 0
398 0
18 0
274 0
69 0
288 0
884 0
818 0
230 0
967 0
715 0
130 0
405 0
950 0
507 0
398 0
438 0
890 906 0
530 557 0
711 0
698 0
648 660 0
458 325 0
409 831 0
902 0
441 21 0
248 0
113 0
100 0
592 0
417 322 0
301 0
369 31 0
531 0
465 741 0
134 0
183 0
968 0
109 0
240 0
691 0
816 511 0
613 829 0
185 801 0
176 0
416 22 0
665 0
353 0
230 0
246 0
467 0
164 0
25 0
684 925 0
12 0
385 924 0
980 60 0
38 0
708 0
19 0
365 0
101 0
264 594 0
306 0
841 430 0
481 0
502 998 0
786 0
40 141 0
548 0
646 0
897 694 0
354 0
272 0
464 251 0
561 893 0
157 0
491 0
17 0
302 0
395 860 0
563 0
79 0
760 76 0
471 0
573 0
777 0
517 678 0
312 0
434 44 0
87 71 0
156 0
598 0
72 742 0
430 486 0
729 662 0
141 0
825 0
368 0
897 334 0
871 0
386 748 0
961 566 0
18 0
923 0
80 759 0
226 0
130 757 0
9 355 0
586 812 0
497 0
405 0
994 941 0
381 0
464 0
886 0
154 0
145 226 0
482 0
600 0
914 279 0
520 567 0
513 0
664 0
846 647 0
363 180 0
179 0
944 203 0
788 0
455 0
994 0
177 655 0
416 0
583 0
288 653 0
4 0
175 0
874 0
542 0
119 0
830 0
522 0
154 0
33 671 0
285 0
205 0
310 0
406 39 0
468 0
635 0
893 0
52 540 0
144 281 0
239 95 0
412 294 0
181 0
286 0
272 729 0
827 0
559 0
804 0
783 0
714 0
1 0
401 0
485 0
213 527 0
572 0
518 0
97 23 0
192 0
957 0
733 0
822 0
137 147 0
128 0
320 299 0
936 983 0
595 0
210 0
104 739 0
928 942 0
733 94 0
998 503 0
984 0
569 38 0
186 348 0
301 0
695 0
645 0
170 0
849 0
386 0
770 0
896 0
852 821 0
403 0
871 0
461 0
382 0
262 0
405 0
840 383 0
687 0
25 628 0
887 0
450 0
454 0
996 0
497 0
444 0
307 0
162 413 0
76 0
346 0
612 165 0
138 0
355 0
144 362 0
702 863 0
169 215 0
721 114 0
354 0
98 0
186 38 0
442 830 0
779 0
624 323 0
97 899 0
832 0
160 0
335 0
351 0
788 0
192 489 0
836 0
144 0
817 517 0
479 0
214 0
919 0
778 853 0
857 0
285 0
41 191 0
5 0
593 0
677 0
532 0
316 0
668 173 0
776 0
562 0
837 0
527 0
453 0
8 476 0
990 0
136 638 0
755 743 0
440 532 0
966 0
980 0
131 886 0
25 0
16 0
729 0
675 0
944 0
940 974 0
420 0
974 919 0
988 525 0
80 462 0
299 318 0
225 0
947 0
657 0
352 557 0
40 207 0
477 0
388 0
526 0
684 143 0
478 854 0
131 0
836 895 0
649 363 0
749 78 0
33 0
130 0
137 492 0
409 829 0
696 725 0
269 0
738 0
177 691 0
198 0
642 0
497 733 0
488 953 0
780 311 0
953 0
464 764 0
93 0
30 0
691 0
454 0
193 0
602 0
544 0
664 0
296 531 0
58 0
37 0
652 0
932 0
805 0
356 0
512 0
73 0
946 0
328 749 0
564 750 0
323 0
586 0
792 38 0
931 0
368 289 0
793 0
154 0
340 181 0
375 0
347 77 0
77 0
947 0
72 790 0
76 654 0
918 0
977 0
507 821 0
345 580 0
920 0
299 0
201 884 0
633 578 0
350 0
117 215 0
749 486 0
344 0
858 0
201 0
854 0
720 530 0
246 0
622 0
929 0
929 0
474 703 0
911 0
325 0
22 0
994 0
466 0
634 663 0
49 0
894 0
664 232 0
786 43 0
353 287 0
634 0
760 269 0
351 0
67 804 0
701 0
900 0
25 0
576 190 0
276 0
164 0
449 858 0
522 0
969 0
535 0
79 0
43 0
465 0
864 0
121 884 0
844 0
209 0
770 0
713 0
349 0
590 0
98 0
688 308 0
380 534 0
524 0
596 0
963 0
321 759 0
856 0
621 0
297 935 0
765 605 0
275 0
309 486 0
971 0
602 0
858 0
773 671 0
36 0
973 0
451 982 0
857 241 0
590 0
384 0
689 0
291 869 0
723 0
48 0
844 0
551 0
654 0
356 0
796 0
21 0
833 0
98 973 0
61 0
744 278 0
972 0
357 901 0
305 0
92 0
864 0
749 975 0
198 0
822 191 0
360 335 0
980 0
855 0
480 142 0
125 263 0
510 0
88 245 0
524 30 0
716 686 0
214 0
167 0
196 0
563 0
747 675 0
137 965 0
394 0
310 0
232 0
347 227 0
219 652 0
357 157 0
293 85 0
497 508 0
326 0
204 0
611 502 0
681 0
713 0
408 42 0
567 0
857 0
592 0
676 0
444 0
433 194 0
18 684 0
498 0
816 0
222 0
920 0
769 0
32 0
867 0
453 0
893 0
641 0
835 0
921 0
745 346 0
314 0
971 0
952 0
976 826 0
234 0
601 130 0
330 821 0
367 0
906 317 0
121 244 0
359 0
465 0
587 0
526 0
976 0
873 194 0
627 0
89 673 0
599 0
515 0
880 0
512 0
671 0
632 0
341 599 0
358 0
225 84 0
443 163 0
410 0
179 6 0
23 0
924 0
944 0
558 0
982 887 0
353 0
921 130 0
971 0
82 0
379 0
944 0
140 0
966 0
295 0
210 0
320 0
367 0
554 462 0
976 981 0
48 829 0
710 0
461 606 0
513 667 0
81 0
705 0
970 286 0
987 13 0
901 0
736 261 0
620 821 0
364 0
440 364 0
664 0
650 959 0
546 756 0
345 0
46 0
105 0
642 461 0
272 945 0
414 0
622 0
804 0
536 20 0
154 0
6 295 0
46 247 0
793 314 0
831 0
618 493 0
635 0
989 637 0
284 0
411 382 0
689 431 0
469 0
451 244 0
881 842 0
997 527 0
577 194 0
480 170 0
704 98 0
140 191 0
448 59 0
913 0
22 0
744 0
352 0
410 0
980 583 0
660 0
619 203 0
985 0
656 0
835 381 0
156 0
272 0
804 725 0
353 503 0
581 0
396 0
796 0
284 0
635 0
586 0
732 548 0
667 0
924 0
241 0
717 319 0
789 0
703 0
750 671 0
155 691 0
374 0
595 0
197 69 0
456 332 0
647 0
344 923 0
164 0
856 662 0
639 0
127 0
210 212 0
475 958 0
507 0
192 0
463 0
544 945 0
517 0
884 0
156 0
519 0
441 771 0
495 0
957 0
735 0
909 0
899 0
711 0
359 0
721 502 0
506 315 0
293 0
107 0
297 717 0
89 0
459 0
186 0
596 391 0
501 0
957 0
682 502 0
842 0
556 0
466 388 0
358 0
571 0
594 76 0
545 858 0
817 67 0
550 0
698 0
744 0
522 398 0
545 0
459 0
936 0
771 0
566 0
523 667 0
621 0
897 0
892 542 0
800 0
494 0
662 0
255 0
59 795 0
121 270 0
157 0
38 543 0
691 0
350 0
400 0
252 0
998 0
560 685 0
779 0
710 0
771 0
958 0
515 671 0
907 94 0
213 0
114 0
128 861 0
841 0
506 631 0
266 0
38 0
527 0
211 0
303 0
656 222 0
407 0
970 0
508 0
85 0
808 450 0
30 0
595 0
547 0
979 0
681 939 0
953 134 0
240 0
748 926 0
48 0
806 0
512 0
882 0
591 0
640 222 0
948 663 0
765 0
734 0
738 415 0
688 0
885 0
898 669 0
491 0
994 246 0
78 0
760 0
300 461 0
506 607 0
641 123 0
668 0
788 0
553 325 0
555 0
77 0
664 817 0
462 0
490 0
357 623 0
195 0
124 0
339 147 0
656 0
553 0
165 0
69 53 0
587 0
814 0
829 0
975 0
923 0
40 0
522 915 0
486 0
673 670 0
872 0
352 0
253 0
582 0
162 0
739 828 0
365 727 0
421 0
884 0
851 0
465 0
928 799 0
723 0
110 0
393 0
67 0
702 0
461 0
303 0
881 0
323 0
146 772 0
459 0
602 203 0
642 659 0
665 2 0
627 0
941 0
480 270 0
153 0
399 0
8 897 0
955 958 0
79 0
113 0
498 0
354 0
466 0
380 0
288 559 0
260 0
281 0
811 0
662 0
873 974 0
379 396 0
376 421 0
183 0
854 0
455 0
559 0
563 0
956 693 0
243 731 0
288 0
694 0
629 557 0
269 973 0
817 0
988 0
891 0
358 0
595 0
259 0
283 190 0
617 335 0
862 0
225 474 0
714 0
497 0
855 0
970 0
245 990 0
544 0
911 0
505 0
956 0
218 0
802 427 0
168 977 0
314 0
810 934 0
913 0
170 0
407 0
72 501 0
856 689 0
904 935 0
569 0
985 0
88 0
576 933 0
226 195 0
313 399 0
725 0
304 0
483 863 0
26 597 0
65 807 0
649 723 0
504 0
794 973 0
562 0
66 0
955 0
218 781 0
376 913 0
57 484 0
201 121 0
830 0
928 200 0
103 0
810 147 0
503 0
106 388 0
97 0
490 0
786 0
797 215 0
963 0
116 966 0
739 501 0
736 0
972 95 0
715 187 0
657 852 0
870 0
983 0
891 85 0
501 229 0
735 0
218 955 0
395 389 0
4 0
406 0
706 0
524 0
701 0
785 0
485 0
9 0
566 0
895 0
724 77 0
306 0
673 645 0
889 0
417 0
883 0
923 118 0
633 0
777 0
737 0
419 0
603 108 0
785 0
407 0
379 0
980 0
543 0
888 0
463 0
552 0
122 463 0
222 510 0
982 0
274 427 0
276 0
604 0
622 0
473 84 0
489 818 0
228 895 0
993 183 0
524 0
401 0
360 812 0
791 855 0
211 420 0
376 0
434 396 0
968 0
337 863 0
615 0
231 0
825 0
471 0
469 0
563 0
107 29 0
602 0
667 0
160 734 0
224 351 0
624 510 0
328 756 0
143 0
239 0
841 0
679 0
765 0
358 0
301 0
835 933 0
597 0
555 246 0
764 213 0
802 478 0
848 203 0
645 0
181 0
500 0
712 739 0
141 0
799 0
158 0
954 463 0
7 0
292 149 0
386 502 0
943 0
895 0
440 0
685 0
97 570 0
529 795 0
174 943 0
705 363 0
932 0
384 87 0
186 958 0
901 430 0
916 0
953 0
669 0
653 0
499 0
369 77 0
684 0
331 0
358 0
209 0
662 0
406 758 0
534 0
314 0
603 0
954 468 0
873 77 0
641 0
995 0
589 310 0
350 0
74 539 0
114 661 0
144 401 0
782 0
653 0
977 418 0
267 212 0
920 0
623 0
268 374 0
313 0
890 0
40 619 0
564 0
491 0
277 0
692 0
800 0
654 751 0
413 0
274 0
132 0
227 0
279 0
541 933 0
462 0
941 0
685 0
106 78 0
330 516 0
381 0
118 927 0
562 85 0
272 0
99 871 0
198 0
647 103 0
523 0
826 83 0
27 0
975 0
244 213 0
98 0
120 0
120 934 0
378 451 0
778 195 0
243 0
219 0
832 357 0
139 0
747 343 0
984 79 0
49 950 0
69 0
504 917 0
760 0
476 647 0
112 866 0
253 0
610 0
800 0
448 0
176 0
711 0
342 0
321 0
560 0
741 0
697 0
339 0
389 0
90 423 0
844 0
576 0
378 0
595 0
8 88 0
743 0
224 0
121 102 0
157 527 0
498 535 0
9 0
624 0
649 0
720 404 0
578 0
57 0
566 0
245 0
206 0
955 0
578 0
923 0
124 0
809 0
632 0
464 327 0
185 117 0
898 15 0
718 0
482 655 0
851 0
593 0
60 0
31 0
472 122 0
816 99 0
165 0
880 0
566 0
576 0
1000 0
445 0
232 213 0
675 463 0
914 0
928 749 0
412 102 0
321 823 0
128 0
781 0
454 0
77 0
406 0
722 0
613 0
107 0
224 0
14 0
43 0
683 0
274 892 0
506 0
376 976 0
319 0
210 0
387 0
397 0
379 0
938 0
126 0
345 844 0
670 0
418 0
538 643 0
396 0
358 0
250 259 0
17 0
74 0
406 0
420 0
156 0
72 0
567 0
289 0
515 0
492 0
170 0
908 0
443 0
193 0
901 0
614 230 0
226 796 0
82 642 0
439 0
91 0
968 0
956 23 0
978 979 0
269 0
765 0
81 0
28 0
733 0
984 0
761 0
335 0
163 0
520 0
647 0
468 740 0
762 0
818 0
269 0
82 0
649 987 0
521 658 0
556 0
69 0
357 0
584 0
196 0
743 0
683 0
685 0
50 0
902 0
362 866 0
268 0
447 0
212 285 0
260 0
170 0
535 0
314 15 0
11 62 0
241 993 0
782 0
468 0
175 583 0
274 0
87 0
130 0
147 813 0
600 0
403 0
42 0
832 830 0
706 555 0
304 0
738 0
295 0
689 0
149 0
954 0
767 0
364 0
145 869 0
949 0
275 0
207 0
566 0
940 110 0
728 0
619 915 0
414 0
425 324 0
952 130 0
859 783 0
380 751 0
780 0
537 0
682 692 0
390 0
908 927 0
752 501 0
456 0
768 510 0
835 0
43 813 0
389 0
178 0
528 386 0
93 0
757 23 0
502 0
4 0
172 695 0
258 158 0
227 0
737 482 0
20 0
477 0
327 0
122 0
904 0
181 183 0
989 247 0
72 136 0
884 580 0
598 0
257 439 0
364 0
563 550 0
256 361 0
405 0
378 0
912 0
609 0
913 0
384 298 0
852 0
226 0
528 753 0
354 11 0
640 0
951 0
899 0
10 207 0
863 0
91 0
268 0
14 0
872 0
12 0
826 971 0
765 0
316 0
779 39 0
803 0
334 0
76 0
351 0
221 0
321 0
513 234 0
70 0
466 0
216 672 0
588 0
761 0
150 0
564 596 0
945 420 0
757 0
313 0
241 0
879 0
342 0
42 22 0
583 0
353 0
244 0
139 0
822 0
360 0
210 933 0
848 5 0
437 0
732 0
453 253 0
929 0
473 130 0
1 149 0
356 0
491 271 0
590 0
425 207 0
233 548 0
229 0
54 558 0
3 77 0
839 0
628 565 0
566 0
214 0
83 844 0
273 869 0
189 134 0
452 0
65 143 0
354 0
263 0
195 0
922 0
139 0
583 0
744 358 0
341 0
905 0
350 0
491 0
432 601 0
995 847 0
26 0
39 0
434 0
696 0
280 0
639 0
609 526 0
119 0
348 0
311 0
875 0
886 0
507 607 0
120 607 0
233 0
638 0
269 0
779 0
605 0
295 0
883 731 0
842 763 0
460 4 0
600 933 0
147 763 0
344 70 0
91 0
842 0
344 309 0
822 0
537 326 0
630 0
420 0
788 0
22 0
720 350 0
559 0
573 0
722 727 0
328 874 0
346 0
573 0
288 0
293 0
899 92 0
344 133 0
641 964 0
603 611 0
223 0
328 527 0
363 0
946 645 0
50 0
882 0
940 0
348 0
596 0
493 741 0
186 539 0
703 0
121 0
56 0
774 0
58 237 0
497 0
463 0
892 0
892 780 0
391 0
916 0
976 295 0
445 0
28 0
252 503 0
387 732 0
257 603 0
660 0
613 0
444 0
453 0
781 749 0
587 687 0
989 0
329 0
9 0
190 14 0
87 0
985 0
936 739 0
392 0
868 0
75 54 0
825 0
133 0
490 0
717 0
304 782 0
915 940 0
388 0
952 902 0
986 0
457 0
570 0
352 0
809 0
726 0
936 0
836 0
90 0
234 0
336 0
496 0
547 0
345 660 0
626 269 0
81 0
265 0
274 188 0
873 404 0
551 0
371 0
76 918 0
762 0
247 0
728 975 0
864 0
379 267 0
46 0
233 383 0
300 0
668 125 0
729 918 0
989 0
778 501 0
504 0
63 0
138 0
394 0
257 0
969 0
382 0
209 571 0
374 0
344 553 0
799 0
259 0
409 860 0
848 0
950 0
424 844 0
42 0
620 991 0
592 593 0
938 663 0
365 21 0
912 730 0
569 0
32 430 0
777 0
646 0
939 0
247 0
105 0
266 0
618 0
385 0
679 0
690 0
977 0
22 839 0
84 0
216 662 0
576 47 0
953 121 0
87 0
866 101 0
259 0
802 579 0
777 0
858 284 0
151 0
621 0
862 0
492 0
86 175 0
640 588 0
371 759 0
156 383 0
713 996 0
863 0
172 0
668 0
33 0
410 579 0
328 0
791 0
698 844 0
905 0
40 0
500 0
192 0
966 0
195 686 0
980 76 0
184 964 0
403 87 0
24 0
470 0
548 559 0
177 839 0
696 541 0
26 0
723 0
6 0
636 0
207 0
120 67 0
83 0
226 0
833 0
894 0
730 2 0
407 0
138 0
352 838 0
136 0
410 0
207 0
947 0
353 636 0
424 0
402 531 0
380 0
280 0
733 685 0
406 0
153 626 0
233 0
970 0
834 0
288 0
711 0
65 0
396 677 0
672 909 0
644 0
249 0
147 0
830 0
365 863 0
301 0
410 222 0
232 0
380 0
886 246 0
977 0
77 0
660 820 0
324 0
4 0
660 0
270 0
272 958 0
638 0
82 0
662 0
85 0
41 274 0
555 0
172 0
537 875 0
671 0
631 0
937 0
222 0
737 367 0
853 861 0
472 136 0
241 0
81 305 0
942 951 0
702 0
355 780 0
496 713 0
245 0
924 0
214 0
42 604 0
314 0
972 0
550 0
144 0
402 715 0
974 0
969 622 0
765 0
101 0
137 0
812 0
912 0
47 0
447 0
598 0
97 375 0
981 0
266 0
529 0
227 0
54 479 0
368 681 0
413 0
84 0
232 990 0
942 0
477 0
285 0
841 0
721 0
62 0
453 0
363 0
325 0
625 0
113 0
979 0
618 0
527 0
111 607 0
419 0
445 0
405 0
919 0
518 0
52 0
510 0
222 0
284 604 0
207 0
856 0
683 221 0
66 0
940 0
264 0
43 645 0
854 407 0
993 996 0
7 0
345 0
495 0
259 559 0
717 0
347 0
506 0
825 118 0
220 0
857 0
458 0
593 0
792 0
248 878 0
457 0
998 0
297 0
857 763 0
20 943 0
216 963 0
595 236 0
584 0
556 0
657 0
754 812 0
165 0
614 0
889 0
953 0
275 0
805 0
933 239 0
865 0
220 0
54 0
530 0
747 0
962 134 0
143 0
476 766 0
60 0
515 0
57 0
441 0
27 0
886 0
514 142 0
872 484 0
635 763 0
62 535 0
227 0
672 0
251 0
138 0
526 0
426 0
89 0
251 0
515 0
777 0
200 0
825 0
656 0
138 595 0
800 545 0
504 0
831 0
727 591 0
26 0
961 0
781 0
539 531 0
557 990 0
239 0
363 0
394 999 0
952 662 0
538 0
784 0
746 0
154 0
47 0
104 961 0
642 0
168 143 0
876 0
460 0
369 0
675 0
102 0
113 0
373 0
745 0
472 0
720 361 0
956 0
803 0
835 747 0
91 284 0
579 45 0
216 0
111 0
801 0
216 473 0
668 198 0
388 0
917 95 0
804 62 0
862 0
161 0
661 0
860 887 0
685 0
446 0
207 855 0
958 0
710 0
225 213 0
497 0
905 0
561 0
610 0
808 0
186 0
610 854 0
689 930 0
74 99 0
602 350 0
135 0
343 0
540 0
793 100 0
458 0
818 509 0
532 348 0
275 222 0
10 0
94 0
881 762 0
5 389 0
232 663 0
136 0
628 0
936 0
386 655 0
518 0
623 0
554 0
675 70 0
146 0
996 0
424 0
511 0
616 0
986 0
832 0
285 510 0
518 0
644 0
961 237 0
940 0
440 0
992 392 0
48 0
788 319 0
483 662 0
398 0
910 0
853 0
624 632 0
168 0
819 0
313 854 0
665 0
370 0
46 0
537 0
637 0
948 237 0
793 0
1 0
35 0
72 0
783 0
224 650 0
45 0
683 302 0
8 0
811 0
652 0
180 0
114 783 0
845 0
414 0
200 173 0
130 868 0
702 0
918 0
348 0
227 0
946 0
434 10 0
635 0
859 534 0
582 0
92 0
557 0
707 0
98 0
700 613 0
327 0
457 0
898 0
450 0
777 0
685 0
243 0
121 429 0
371 0
847 0
968 53 0
584 410 0
607 0
965 429 0
905 0
332 0
483 21 0
488 574 0
530 749 0
408 586 0
601 0
376 0
545 0
443 0
82 453 0
515 782 0
355 0
506 925 0
660 0
753 38 0
184 0
420 0
39 0
992 921 0
760 0
324 0
924 0
301 0
458 846 0
1 0
3 917 0
716 0
590 0
919 0
720 503 0
866 0
924 0
478 319 0
578 740 0
509 0
9 0
25 151 0
865 277 0
168 623 0
865 0
931 0
177 0
521 0
653 0
677 0
923 0
302 0
605 0
578 660 0
856 482 0
553 0
952 0
798 0
464 0
847 0
537 0
771 502 0
138 0
338 0
954 963 0
243 0
240 664 0
960 898 0
605 0
554 0
8 0
424 73 0
561 0
346 0
855 0
90 0
768 0
73 0
829 0
319 0
740 0
993 258 0
385 0
312 499 0
654 0
907 0
698 0
288 383 0
394 831 0
682 446 0
184 542 0
764 0
313 0
256 445 0
848 294 0
134 0
970 0
288 0
859 173 0
448 0
589 0
429 0
201 370 0
349 0
104 4 0
412 0
462 679 0
819 876 0
877 0
627 91 0
614 0
393 602 0
20 0
834 260 0
188 0
843 532 0
637 0
208 0
175 0
685 0
292 0
664 0
107 0
557 0
806 702 0
842 365 0
941 0
589 0
689 0
319 0
954 691 0
696 0
745 15 0
792 334 0
280 0
388 0
526 0
888 0
663 0
566 247 0
953 157 0
304 0
216 0
14 0
782 999 0
726 0
244 0
539 0
626 0
831 0
463 0
88 0
797 0
499 0
552 0
695 0
63 0
856 850 0
90 399 0
839 0
764 0
703 0
691 0
272 541 0
539 991 0
516 0
139 0
636 0
923 516 0
961 0
640 363 0
289 0
373 0
995 0
993 0
16 0
26 812 0
390 303 0
119 0
250 541 0
941 0
135 0
193 266 0
101 0
761 0
368 0
866 0
423 0
551 0
600 340 0
860 0
880 68 0
62 0
73 409 0
713 654 0
974 0
279 0
752 493 0
724 0
319 0
852 0
306 0
764 0
708 0
579 0
733 0
428 757 0
364 0
201 0
292 414 0
699 189 0
902 0
509 0
922 0
373 463 0
61 0
337 383 0
873 0
48 0
7 0
269 0
685 223 0
276 0
954 283 0
291 0
604 222 0
784 867 0
93 0
897 933 0
797 0
138 0
578 0
472 0
152 370 0
214 0
915 0
60 0
108 733 0
545 0
192 0
80 0
211 0
685 0
712 517 0
336 0
867 254 0
152 0
818 0
321 571 0
657 476 0
145 597 0
86 0
728 0
444 0
123 255 0
3 0
442 338 0
750 0
159 0
569 0
230 0
396 0
211 0
89 0
90 0
224 0
704 546 0
174 0
474 0
478 0
911 0
587 0
194 186 0
609 339 0
188 663 0
881 0
352 0
470 0
650 0
381 663 0
324 0
346 0
950 0
946 0
889 0
195 726 0
783 0
922 151 0
682 278 0
80 0
558 46 0
412 0
359 0
26 0
9 0
777 829 0
562 0
979 13 0
302 0
798 0
688 823 0
329 51 0
297 0
185 117 0
235 0
156 0
256 0
282 0
31 0
203 660 0
620 404 0
101 0
701 0
449 299 0
685 0
312 517 0
377 0
967 0
140 0
128 473 0
549 0
89 802 0
304 636 0
472 989 0
210 0
459 0
257 53 0
200 0
366 0
720 0
906 0
924 413 0
249 0
90 0
657 0
994 0
891 0
976 0
103 0
698 876 0
675 0
804 0
857 0
805 806 0
566 150 0
311 0
163 143 0
70 0
651 0
628 181 0
571 0
995 406 0
624 0
731 0
432 260 0
246 0
225 452 0
321 0
452 0
37 0
175 0
401 0
105 43 0
701 0
593 484 0
567 0
154 966 0
505 0
684 638 0
165 870 0
295 0
898 0
355 0
804 0
382 0
442 218 0
707 0
95 0
2 0
796 0
697 0
304 81 0
419 454 0
929 0
721 0
988 0
11 0
462 0
931 0
425 439 0
727 0
834 604 0
145 701 0
734 0
833 994 0
846 0
430 295 0
280 722 0
459 0
837 0
240 470 0
200 894 0
982 0
984 0
660 0
289 0
441 0
371 0
138 924 0
893 0
618 117 0
97 0
24 4 0
692 0
366 0
633 0
120 0
883 0
581 0
31 383 0
854 0
363 0
16 0
414 0
691 44 0
340 0
42 0
153 0
772 0
222 0
328 0
344 279 0
549 0
758 0
927 615 0
92 0
290 980 0
789 0
430 950 0
609 0
308 0
159 0
161 906 0
546 238 0
728 0
563 0
168 0
554 820 0
467 0
550 0
72 0
548 0
707 0
922 0
457 0
628 0
76 0
840 530 0
308 0
160 731 0
285 134 0
290 0
667 767 0
291 0
375 0
100 30 0
724 382 0
137 914 0
944 0
924 0
886 0
224 0
359 0
470 0
946 156 0
113 115 0
42 0
889 879 0
966 0
387 0
761 0
655 0
664 412 0
528 919 0
817 84 0
641 0
905 0
613 0
986 0
993 0
455 0
757 0
91 0
943 0
357 0
109 999 0
848 0
736 0
100 0
106 116 0
865 0
607 0
824 0
202 0
35 0
479 0
152 900 0
635 507 0
208 0
69 0
525 0
878 879 0
58 802 0
206 0
392 99 0
59 0
661 0
50 0
745 0
760 0
599 0
579 0
787 0
103 0
588 494 0
797 0
510 0
514 0
441 0
969 0
798 0
331 0
540 0
350 607 0
420 444 0
169 0
2 0
328 0
689 510 0
13 0
873 378 0
384 896 0
973 0
750 0
455 0
499 0
396 0
846 0
715 0
354 0
109 0
299 0
225 0
828 949 0
320 643 0
384 949 0
179 0
478 215 0
715 0
959 0
822 0
592 0
338 207 0
501 949 0
312 0
156 0
552 0
805 0
488 73 0
296 867 0
306 0
566 0
415 71 0
924 0
560 642 0
26 0
169 0
315 0
157 0
438 0
20 0
904 0
97 102 0
496 0
631 0
432 181 0
488 0
644 756 0
218 0
82 0
800 612 0
440 974 0
292 0
11 341 0
168 0
11 205 0
612 0
293 0
722 605 0
842 311 0
632 82 0
989 0
982 0
545 0
267 869 0
379 405 0
50 325 0
537 0
422 0
321 435 0
609 0
890 0
160 656 0
356 0
660 254 0
350 0
824 0
396 0
982 0
342 0
725 0
195 613 0
964 0
913 435 0
671 0
179 0
857 0
378 0
650 188 0
824 0
39 0
521 354 0
687 0
497 0
560 0
151 0
426 758 0
509 0
292 589 0
347 94 0
695 287 0
290 0
959 0
516 0
40 413 0
868 0
385 415 0
793 0
440 221 0
116 199 0
952 0
733 0
485 0
644 14 0
14 0
81 203 0
685 0
928 826 0
89 0
997 215 0
438 999 0
324 0
315 0
486 0
798 151 0
43 500 0
759 0
368 238 0
611 0
345 309 0
121 709 0
600 0
945 250 0
735 0
549 0
906 0
184 0
524 0
161 0
170 0
478 671 0
944 0
347 0
382 0
708 0
833 455 0
834 0
256 0
590 0
513 982 0
892 0
167 0
388 0
357 0
950 0
182 0
311 0
384 0
962 503 0
433 212 0
85 0
973 0
172 0
186 917 0
16 43 0
116 0
633 0
273 681 0
294 535 0
379 133 0
799 0
900 0
571 726 0
609 369 0
865 450 0
512 0
58 750 0
765 0
589 0
661 679 0
508 0
420 0
549 0
280 0
643 0
130 0
738 0
366 0
562 0
946 821 0
689 0
226 571 0
48 0
208 0
138 0
885 0
52 0
251 0
934 0
365 0
14 0
346 0
633 686 0
321 653 0
345 974 0
16 0
360 919 0
114 822 0
504 0
705 0
916 0
615 0
235 0
91 279 0
932 0
719 0
503 0
381 0
837 367 0
376 0
712 171 0
347 0
612 0
447 0
257 10 0
166 0
379 0
31 0
553 111 0
977 0
626 694 0
624 0
90 0
369 174 0
379 0
762 335 0
498 387 0
241 0
726 0
872 0
619 0
761 194 0
836 0
777 0
772 957 0
540 181 0
518 0
716 0
541 0
711 0
474 0
219 23 0
313 0
284 70 0
689 33 0
191 0
411 0
659 0
161 0
811 0
961 572 0
255 0
843 0
634 0
784 209 0
720 0
50 0
289 0
972 0
352 0
947 0
970 0
908 0
905 0
887 0
706 0
976 0
368 358 0
921 125 0
476 0
724 0
105 0
351 0
872 0
610 573 0
508 0
308 0
682 0
780 0
440 0
220 0
335 0
857 0
736 368 0
205 0
472 674 0
914 0
795 131 0
628 0
42 483 0
588 197 0
306 838 0
497 0
943 0
904 0
594 43 0
245 0
113 0
846 0
373 0
234 0
993 0
408 0
65 199 0
118 518 0
556 0
305 0
643 495 0
307 0
494 375 0
336 0
818 0
464 341 0
542 0
495 0
132 0
165 190 0
243 719 0
199 0
659 133 0
917 0
994 0
880 62 0
847 0
153 805 0
834 0
233 0
865 0
2 471 0
193 293 0
888 0
286 0
35 0
307 580 0
625 0
578 0
838 0
574 14 0
260 541 0
782 887 0
771 557 0
21 0
842 586 0
695 0
93 0
836 0
92 0
456 330 0
551 0
176 0
439 0
530 668 0
398 0
668 0
888 0
121 295 0
348 669 0
972 0
966 0
505 980 0
318 0
423 0
868 0
191 0
547 0
375 0
632 0
179 565 0
906 116 0
378 0
171 421 0
200 0
314 926 0
603 0
363 182 0
751 0
599 0
107 0
577 0
678 0
166 0
925 0
744 0
762 486 0
159 807 0
816 135 0
430 0
277 0
524 0
996 965 0
657 0
462 0
884 639 0
405 0
75 0
649 0
485 165 0
260 0
388 574 0
896 272 0
274 0
818 0
405 0
586 0
690 0
531 980 0
813 0
582 0
50 43 0
805 999 0
688 0
189 0
548 0
943 0
879 0
902 0
995 653 0
428 788 0
725 311 0
505 829 0
917 0
835 0
797 943 0
79 0
323 183 0
922 0
349 5 0
578 735 0
277 0
490 0
913 0
613 567 0
893 0
757 0
592 0
384 238 0
326 0
419 0
219 837 0
6 0
495 0
81 550 0
888 0
1 813 0
8 0
310 0
100 0
28 0
732 0
569 333 0
35 118 0
825 428 0
722 763 0
3 0
496 992 0
848 575 0
872 119 0
179 0
57 900 0
393 0
260 0
518 0
842 0
659 0
505 0
59 0
220 0
14 519 0
418 716 0
255 0
931 0
43 0
2 0
260 421 0
859 0
712 548 0
594 0
722 0
136 0
56 414 0
305 591 0
853 0
432 807 0
874 651 0
694 0
633 702 0
929 468 0
402 0
393 813 0
820 431 0
291 468 0
346 0
378 380 0
487 0
890 0
9 371 0
984 264 0
673 0
304 0
11 0
280 0
706 819 0
943 0
457 147 0
322 778 0
710 0
159 0
44 0
268 501 0
430 0
357 0
243 651 0
434 0
687 0
385 798 0
369 196 0
340 926 0
340 0
375 0
50 787 0
393 771 0
798 0
961 0
8 0
306 0
481 898 0
200 840 0
673 204 0
417 0
225 41 0
580 0
449 0
62 0
926 0
880 319 0
558 0
769 0
968 0
791 0
516 0
612 0
803 0
364 0
201 774 0
378 0
297 0
362 0
89 796 0
33 342 0
785 743 0
519 0
930 0
840 897 0
82 0
657 623 0
952 141 0
32 0
431 0
486 0
33 0
73 228 0
77 158 0
248 0
621 0
81 839 0
440 130 0
715 0
189 0
424 28 0
140 0
120 0
581 0
461 0
711 0
702 0
891 22 0
774 0
484 0
785 455 0
354 0
442 890 0
389 0
742 0
100 0
56 547 0
312 0
539 0
317 247 0
830 0
52 0
649 796 0
392 0
734 0
666 285 0
137 247 0
497 586 0
936 0
197 0
847 0
222 0
411 0
594 0
704 101 0
376 0
305 580 0
540 695 0
65 0
787 0
585 209 0
562 742 0
449 0
212 0
922 0
80 0
593 0
668 223 0
50 0
490 0
521 0
476 0
115 0
145 859 0
250 0
528 463 0
784 714 0
941 0
311 0
64 897 0
108 28 0
793 907 0
355 0
220 0
706 46 0
235 0
520 674 0
61 0
630 0
131 0
427 0
549 0
646 0
340 0
328 0
891 356 0
703 0
930 726 0
583 0
674 0
167 0
669 0
61 533 0
870 0
460 0
187 0
123 0
615 0
608 114 0
492 0
102 0
573 0
554 0
207 0
171 0
309 109 0
977 0
258 255 0
848 939 0
1 173 0
95 0
886 0
525 0
506 0
916 0
856 0
949 0
305 0
322 510 0
585 0
994 0
25 0
121 0
651 62 0
90 62 0
767 0
7 0
926 0
307 285 0
997 0
464 835 0
683 0
75 0
254 0
684 157 0
189 0
313 0
62 0
574 0
432 0
275 167 0
913 0
624 0
754 263 0
82 435 0
66 0
529 935 0
630 719 0
737 0
199 0
498 660 0
869 0
753 0
255 0
563 92 0
611 0
245 0
128 0
309 0
92 918 0
616 581 0
709 0
752 438 0
139 365 0
112 818 0
51 0
324 0
146 0
175 935 0
170 366 0
18 0
792 807 0
908 0
949 0
784 535 0
148 0
641 117 0
650 0
320 208 0
146 0
354 0
288 0
600 0
901 0
332 758 0
688 961 0
483 663 0
498 734 0
5 0
996 0
982 839 0
820 0
664 671 0
193 0
587 0
768 0
600 0
325 22 0
130 0
230 0
83 843 0
362 0
633 958 0
683 471 0
956 813 0
191 0
219 511 0
65 0
569 0
203 0
460 0
994 15 0
858 277 0
388 84 0
153 0
430 0
678 0
977 181 0
207 0
505 666 0
432 0
236 0
665 0
858 0
361 0
662 0
991 0
85 0
388 0
552 0
464 988 0
820 0
569 739 0
598 0
555 0
8 0
984 0
99 0
176 3 0
193 0
153 0
981 0
222 0
549 870 0
425 0
476 438 0
286 0
784 0
938 0
773 0
46 0
362 0
753 0
526 0
33 754 0
13 149 0
189 0
995 206 0
425 0
364 0
679 0
479 0
55 0
676 5 0
949 0
664 154 0
254 0
184 0
33 0
1000 0
733 598 0
71 0
464 0
290 653 0
312 0
403 679 0
649 0
280 0
720 268 0
4 0
158 0
352 770 0
409 1 0
685 0
731 260 0
305 133 0
20 0
818 831 0
986 0
770 0
258 0
535 0
165 7 0
825 0
739 0
844 199 0
795 119 0
768 662 0
476 0
436 807 0
52 0
534 0
432 0
140 0
278 0
946 747 0
731 0
894 0
587 0
101 0
888 284 0
190 0
787 238 0
500 847 0
925 0
996 0
66 948 0
768 0
994 0
737 0
928 0
393 781 0
604 0
483 470 0
755 0
50 0
781 991 0
388 0
90 0
78 0
104 0
361 619 0
540 0
307 0
547 0
480 475 0
312 0
5 109 0
945 0
398 0
770 0
129 261 0
871 0
427 699 0
720 737 0
999 0
826 0
248 0
712 0
369 0
247 0
428 0
310 0
491 823 0
412 0
175 0
337 0
991 0
962 0
536 0
482 0
49 0
754 0
384 0
240 544 0
222 0
826 0
72 0
298 0
545 0
980 0
572 191 0
304 0
911 0
74 0
305 0
171 0
953 0
793 106 0
656 0
489 0
776 861 0
169 0
480 244 0
792 0
374 0
180 0
871 0
846 0
437 0
652 0
557 0
709 111 0
657 500 0
268 0
278 0
555 822 0
192 0
67 0
385 0
736 0
471 0
409 0
187 0
446 0
940 0
362 0
917 0
307 0
537 0
369 322 0
422 0
476 0
158 0
633 0
336 0
552 0
996 0
637 0
468 0
915 303 0
406 0
922 0
649 0
573 782 0
480 0
411 702 0
332 551 0
323 0
272 779 0
745 0
753 223 0
681 606 0
3 0
992 58 0
722 382 0
970 0
246 0
146 0
948 0
93 245 0
819 0
625 201 0
862 0
705 0
183 0
704 482 0
922 0
362 0
173 623 0
953 0
756 0
106 349 0
805 111 0
280 178 0
45 0
649 0
77 0
668 0
436 965 0
379 0
494 0
502 0
808 0
878 0
928 363 0
922 251 0
136 0
624 0
457 0
465 0
474 0
515 844 0
403 0
458 754 0
114 0
545 101 0
241 399 0
192 0
645 0
512 102 0
384 0
109 0
608 0
53 0
500 0
143 0
523 852 0
769 516 0
466 695 0
967 0
369 0
796 0
603 0
975 0
52 0
158 0
683 926 0
728 0
486 0
206 0
931 0
308 0
256 0
404 0
505 0
900 0
717 0
369 798 0
542 583 0
245 0
449 0
792 101 0
813 54 0
558 0
825 0
41 655 0
574 0
42 0
696 0
462 543 0
164 0
281 0
525 125 0
240 53 0
635 95 0
704 0
430 0
75 303 0
148 0
585 183 0
497 374 0
851 0
196 0
756 0
106 0
441 0
262 0
882 15 0
757 0
226 0
313 0
42 0
97 737 0
21 677 0
934 423 0
656 766 0
138 0
376 0
457 0
497 0
185 0
716 725 0
601 893 0
991 0
169 796 0
283 0
993 485 0
260 0
23 0
98 0
858 142 0
720 282 0
789 0
905 0
122 0
458 661 0
156 134 0
987 0
162 675 0
51 343 0
866 0
651 0
258 163 0
701 0
23 0
448 0
735 0
289 0
589 0
563 0
449 497 0
40 0
194 639 0
514 0
667 285 0
55 0
901 0
326 0
992 854 0
306 0
964 0
479 0
890 78 0
436 0
531 334 0
191 0
752 0
32 0
777 474 0
776 0
67 867 0
362 0
887 0
578 0
290 0
713 0
378 0
28 0
733 0
189 0
475 573 0
741 0
184 103 0
646 871 0
264 0
731 0
208 0
908 0
261 0
731 0
922 534 0
697 0
137 0
875 685 0
676 0
72 0
582 0
311 0
819 0
883 0
252 0
833 0
696 411 0
868 0
416 0
337 522 0
434 0
220 206 0
636 0
434 445 0
208 559 0
400 174 0
909 0
442 0
822 0
556 0
48 573 0
297 778 0
779 0
759 0
219 0
411 0
84 0
637 0
782 0
787 382 0
813 0
307 415 0
995 836 0
142 0
529 477 0
112 596 0
414 0
426 0
368 0
213 0
343 0
822 0
160 671 0
2 0
667 116 0
523 0
339 883 0
761 410 0
173 0
873 51 0
373 0
434 0
40 173 0
956 0
158 0
275 0
511 0
528 0
591 0
813 0
774 0
670 0
560 0
691 639 0
25 214 0
889 441 0
766 542 0
56 198 0
288 185 0
229 0
657 811 0
447 0
481 379 0
397 0
14 0
723 0
415 0
450 0
167 0
995 0
813 0
28 0
349 0
12 0
546 922 0
745 0
866 0
858 0
154 0
52 663 0
423 0
360 0
992 0
958 0
762 0
592 667 0
986 34 0
418 0
510 0
871 0
117 0
38 0
459 0
692 934 0
873 0
649 0
446 0
104 0
61 0
889 0
408 0
644 0
117 0
314 0
375 0
240 0
42 0
784 0
319 0
704 532 0
832 473 0
923 0
158 0
691 188 0
251 0
540 0
876 0
138 0
553 0
737 0
234 780 0
576 515 0
7 0
884 0
135 0
361 0
914 503 0
50 124 0
51 340 0
611 0
519 0
104 152 0
747 478 0
642 0
497 0
672 0
313 0
298 242 0
998 0
345 612 0
495 0
596 0
19 0
832 587 0
218 0
930 827 0
202 515 0
371 740 0
620 0
71 0
661 374 0
501 0
641 47 0
353 0
559 0
830 0
947 0
603 453 0
796 0
912 0
470 943 0
317 0
475 0
460 0
156 0
166 0
867 755 0
138 0
976 638 0
536 253 0
100 223 0
318 0
876 988 0
126 0
207 0
949 119 0
969 886 0
177 130 0
389 0
181 0
404 0
643 0
690 494 0
956 230 0
250 130 0
988 0
731 205 0
634 0
219 63 0
326 0
545 537 0
93 974 0
535 0
410 357 0
753 0
112 326 0
742 0
893 542 0
170 116 0
631 911 0
792 971 0
526 359 0
875 710 0
947 14 0
508 0
953 146 0
126 743 0
805 0
471 0
344 0
737 140 0
665 0
596 0
425 0
736 0
411 0
355 550 0
677 0
654 335 0
638 0
209 0
507 995 0
577 0
90 0
525 334 0
865 0
341 0
920 0
960 0
328 0
761 0
353 219 0
996 748 0
320 234 0
271 0
75 0
268 0
62 55 0
264 0
596 0
855 0
229 0
116 0
153 0
346 702 0
953 83 0
484 198 0
752 87 0
889 0
447 0
998 0
748 0
168 0
184 0
246 0
420 0
873 0
227 0
640 963 0
352 0
990 0
17 0
6 0
334 0
521 134 0
526 0
344 0
562 286 0
661 431 0
488 150 0
911 0
778 0
298 0
280 0
893 0
3 511 0
325 0
320 458 0
83 110 0
689 0
798 0
606 0
169 62 0
218 290 0
340 0
950 0
872 896 0
194 983 0
265 0
36 0
13 0
426 0
941 0
110 0
675 0
865 0
80 0
508 0
935 0
484 0
876 172 0
354 0
794 0
327 0
522 37 0
568 0
270 0
472 0
765 0
391 0
96 0
793 850 0
255 0
915 23 0
155 0
904 649 0
361 771 0
686 0
874 0
316 0
843 0
907 0
927 0
529 643 0
25 0
294 0
969 0
108 831 0
254 47 0
11 852 0
107 0
342 0
223 127 0
187 0
106 197 0
801 354 0
812 0
567 0
273 0
229 878 0
262 0
563 71 0
613 0
290 0
600 0
291 718 0
882 0
86 0
319 0
564 0
441 745 0
676 894 0
558 119 0
328 0
308 0
145 0
803 0
565 679 0
354 0
23 631 0
79 0
442 0
288 0
329 0
550 0
949 0
297 0
85 118 0
285 0
442 245 0
485 0
993 207 0
61 0
373 0
719 0
656 0
808 538 0
859 205 0
440 135 0
720 0
220 0
956 0
833 396 0
537 0
397 0
119 0
356 0
642 0
194 0
408 71 0
201 139 0
129 0
399 0
939 0
532 0
142 0
96 0
110 0
731 0
641 0
376 0
539 0
464 0
858 0
499 0
659 0
9 0
186 0
642 517 0
747 0
374 0
968 787 0
668 0
758 0
414 0
427 0
917 0
352 0
915 957 0
114 0
60 999 0
153 0
162 494 0
450 506 0
2 0
529 0
751 0
520 0
481 0
218 875 0
453 0
688 0
946 0
956 0
33 0
161 0
472 0
167 0
525 0
967 0
78 0
355 0
662 910 0
945 293 0
666 974 0
48 0
667 0
498 830 0
129 0
847 575 0
210 0
207 0
424 0
554 0
970 691 0
601 0
844 0
394 701 0
333 246 0
62 0
490 0
558 0
136 444 0
226 0
277 222 0
947 0
822 0
296 278 0
992 642 0
945 0
374 7 0
384 0
488 71 0
670 0
664 0
780 607 0
686 0
221 0
214 663 0
973 0
635 0
482 0
655 0
578 894 0
77 0
59 693 0
608 620 0
192 746 0
508 0
222 0
217 767 0
1000 642 0
698 0
650 0
169 779 0
968 311 0
515 0
411 0
844 735 0
156 0
384 0
740 54 0
758 798 0
297 284 0
848 153 0
968 81 0
970 0
945 924 0
235 0
458 0
308 0
891 0
568 239 0
169 762 0
813 0
496 0
776 0
451 0
946 2 0
68 0
296 917 0
208 0
705 0
317 0
93 0
672 750 0
301 0
301 0
325 567 0
267 0
36 0
615 0
194 506 0
268 654 0
255 0
665 0
232 0
257 393 0
236 0
860 0
93 575 0
617 0
465 716 0
856 55 0
928 0
297 726 0
109 0
317 0
506 260 0
694 0
253 0
386 0
396 0
485 0
396 0
394 559 0
336 218 0
463 0
179 0
88 0
652 0
886 0
459 0
452 0
885 943 0
960 990 0
804 0
729 0
379 399 0
293 0
599 0
609 165 0
164 646 0
780 0
657 0
632 530 0
308 0
368 668 0
579 0
882 0
404 654 0
707 0
205 143 0
809 0
951 0
343 0
509 0
358 0
291 763 0
315 294 0
602 862 0
917 0
649 0
445 0
673 0
280 0
806 0
250 804 0
980 0
247 0
590 0
819 0
109 351 0
285 567 0
111 0
337 110 0
408 0
245 541 0
970 0
712 859 0
352 66 0
466 0
274 0
267 0
720 0
283 86 0
647 0
930 0
484 0
83 0
577 0
822 0
765 918 0
305 0
583 0
643 0
862 0
642 589 0
817 0
29 0
248 428 0
779 0
64 493 0
869 0
450 0
130 0
666 445 0
409 0
983 0
952 37 0
210 0
512 0
795 0
418 0
329 443 0
369 0
223 0
704 0
472 0
388 0
337 0
240 0
249 549 0
120 799 0
426 119 0
317 0
126 0
374 0
966 822 0
922 0
959 0
577 0
880 706 0
401 0
225 811 0
239 0
261 61 0
827 639 0
474 187 0
861 0
825 510 0
483 997 0
95 0
766 0
789 0
846 0
713 42 0
791 0
179 0
193 0
488 740 0
135 0
455 0
688 0
440 137 0
729 707 0
129 14 0
430 0
857 873 0
527 0
81 845 0
565 366 0
453 0
425 0
989 526 0
250 919 0
67 596 0
348 0
261 0
17 6 0
53 0
714 0
976 618 0
501 0
56 0
782 0
962 0
24 544 0
865 823 0
905 0
362 0
373 0
651 0
95 0
440 0
243 533 0
111 0
377 682 0
538 0
824 569 0
817 937 0
922 0
269 0
567 0
974 663 0
384 0
800 0
154 0
944 0
423 0
32 912 0
567 0
386 0
554 0
595 0
870 0
432 521 0
987 0
664 0
483 0
17 246 0
147 0
619 0
914 790 0
274 613 0
65 0
698 0
267 0
282 879 0
898 0
10 0
524 0
646 0
622 343 0
79 0
799 87 0
824 0
304 491 0
120 607 0
547 0
996 0
491 941 0
741 0
335 0
832 405 0
617 758 0
628 0
448 0
359 0
173 0
429 0
663 0
249 682 0
266 0
574 0
35 573 0
92 0
223 0
302 391 0
10 0
461 0
461 181 0
580 0
981 0
789 0
822 63 0
79 0
265 0
536 0
953 0
467 0
680 531 0
200 336 0
816 0
891 0
661 0
52 383 0
140 591 0
504 627 0
490 0
58 0
38 0
762 452 0
778 0
763 0
400 0
616 0
321 0
747 612 0
466 0
664 209 0
542 327 0
777 0
436 445 0
128 0
789 0
476 0
90 827 0
197 0
434 991 0
742 903 0
913 0
778 0
491 0
830 903 0
493 0
987 0
931 142 0
199 0
538 827 0
507 0
196 0
998 0
901 0
428 0
704 0
692 0
664 493 0
962 0
256 29 0
868 0
302 318 0
584 441 0
914 0
644 0
641 522 0
209 0
96 0
993 817 0
9 0
360 0
560 405 0
588 0
840 650 0
776 211 0
824 88 0
288 0
417 605 0
495 0
378 0
33 759 0
899 0
17 987 0
692 431 0
112 775 0
970 0
495 0
381 125 0
254 0
420 198 0
160 846 0
355 0
885 0
461 390 0
975 0
786 940 0
166 15 0
164 0
280 0
935 0
785 0
328 294 0
264 0
193 0
400 0
931 511 0
110 150 0
562 0
661 542 0
584 0
841 0
556 0
588 0
357 0
381 0
214 0
270 0
145 844 0
392 0
221 0
194 0
373 0
457 0
790 0
798 0
457 0
903 0
334 0
12 0
505 0
312 754 0
189 751 0
897 0
358 0
10 0
640 0
952 754 0
76 0
402 0
785 515 0
855 0
302 0
447 0
811 0
645 0
347 0
66 0
289 427 0
125 0
107 0
47 0
964 0
582 0
591 0
857 158 0
14 351 0
563 0
987 0
489 189 0
471 0
602 455 0
477 0
786 0
908 0
706 346 0
593 0
265 967 0
97 459 0
933 495 0
944 0
981 0
841 0
648 99 0
498 0
575 0
502 0
852 493 0
106 534 0
485 0
703 0
732 0
90 564 0
482 0
842 0
332 0
108 0
418 0
357 670 0
257 0
287 0
618 0
816 0
184 887 0
553 867 0
417 0
266 325 0
770 939 0
361 0
339 0
35 0
544 0
585 866 0
284 0
82 0
894 0
905 0
153 279 0
925 0
278 0
184 699 0
383 0
849 0
900 0
242 0
880 34 0
654 0
801 0
644 0
802 0
325 590 0
328 819 0
274 0
543 0
890 0
629 0
652 701 0
81 0
994 591 0
66 0
754 389 0
769 0
825 0
554 0
815 0
611 582 0
202 0
30 0
224 335 0
673 702 0
205 389 0
94 0
609 0
182 38 0
271 0
932 0
321 0
157 118 0
499 431 0
795 0
928 57 0
57 727 0
661 0
279 0
342 0
529 0
318 0
58 0
290 0
721 0
748 0
771 0
69 95 0
382 0
211 0
457 0
690 0
690 0
80 0
468 182 0
947 163 0
206 0
227 0
28 0
712 0
605 933 0
468 711 0
457 0
993 0
548 671 0
997 0
539 0
830 0
997 0
377 798 0
573 551 0
907 0
459 0
880 0
480 0
571 0
62 0
675 326 0
464 383 0
471 0
899 0
485 0
443 276 0
996 0
65 0
23 0
104 0
425 933 0
222 0
631 0
88 0
173 0
999 0
523 0
874 780 0
823 0
137 0
51 263 0
518 0
910 0
435 996 0
128 0
711 0
435 0
121 453 0
283 0
270 935 0
864 0
441 0
713 0
811 0
49 0
934 151 0
46 0
790 0
651 277 0
897 0
163 0
914 197 0
335 0
913 937 0
226 0
844 0
147 0
466 995 0
295 0
644 0
569 0
354 0
618 0
423 0
877 0
175 0
602 0
310 0
461 0
820 0
184 0
174 0
402 0
592 0
505 587 0
159 0
936 552 0
807 0
108 0
948 0
329 0
146 0
691 0
840 0
469 967 0
248 0
495 0
896 598 0
815 0
387 0
518 0
529 170 0
585 0
364 0
850 0
776 0
867 0
46 0
320 0
333 926 0
326 878 0
641 0
896 378 0
514 0
789 311 0
668 71 0
243 0
303 0
265 255 0
932 0
452 309 0
516 0
513 0
231 0
553 629 0
647 0
817 0
442 0
327 0
446 0
726 0
381 0
949 0
258 950 0
629 0
435 0
837 0
385 199 0
829 150 0
1000 286 0
534 0
913 450 0
746 0
91 263 0
514 315 0
167 0
160 0
456 0
737 0
805 0
811 0
669 0
595 831 0
858 0
827 740 0
475 0
75 0
450 0
4 0
464 996 0
680 0
81 0
473 0
822 0
705 0
106 0
796 0
43 0
827 0
530 0
209 214 0
22 79 0
803 0
550 751 0
192 590 0
755 0
575 0
492 0
833 0
435 0
461 0
442 453 0
493 0
287 0
307 0
433 437 0
656 0
107 723 0
970 486 0
818 0
922 0
272 106 0
825 0
259 0
546 198 0
32 511 0
973 719 0
893 0
100 0
323 477 0
949 0
839 0
752 0
714 435 0
346 0
512 551 0
286 0
928 427 0
335 0
522 0
337 0
214 0
790 0
665 0
747 238 0
227 0
853 0
475 364 0
246 0
964 0
512 557 0
918 750 0
730 380 0
829 0
376 851 0
538 0
554 223 0
286 511 0
537 0
404 0
840 0
699 0
226 739 0
872 0
384 0
910 0
599 0
580 0
105 702 0
931 0
235 0
538 0
679 0
463 599 0
688 287 0
121 0
349 319 0
774 0
696 402 0
710 0
996 0
140 0
322 494 0
637 0
680 709 0
89 0
412 0
683 270 0
571 0
445 0
791 0
807 0
803 0
440 0
825 0
784 983 0
286 0
306 244 0
287 0
641 0
586 55 0
415 0
240 991 0
512 89 0
214 0
763 556 0
303 0
276 0
11 0
268 60 0
871 831 0
190 111 0
97 0
613 0
264 0
317 0
202 0
578 0
802 0
442 0
546 155 0
464 873 0
990 0
881 157 0
967 0
117 0
418 0
541 0
1000 223 0
281 828 0
944 634 0
818 567 0
718 791 0
584 922 0
169 0
179 0
96 0
108 0
133 0
336 151 0
252 0
367 0
512 0
422 0
109 215 0
110 871 0
195 0
913 0
167 0
947 0
751 567 0
216 0
1000 0
964 0
973 0
420 0
531 0
688 47 0
963 543 0
534 0
164 0
980 638 0
857 149 0
858 0
801 202 0
439 0
96 813 0
40 373 0
384 0
149 0
33 123 0
267 0
462 0
349 0
491 0
166 0
58 387 0
615 0
142 0
653 0
110 71 0
303 0
468 0
912 673 0
244 0
89 353 0
714 92 0
814 559 0
340 0
344 204 0
857 166 0
883 686 0
187 0
29 0
108 0
148 0
870 0
802 443 0
170 135 0
594 0
713 154 0
717 0
168 81 0
488 743 0
348 772 0
743 0
27 0
884 0
229 0
2 0
408 0
433 118 0
64 345 0
899 0
417 479 0
631 0
728 0
770 0
508 0
505 746 0
233 844 0
632 0
713 899 0
76 525 0
354 0
581 0
912 976 0
184 978 0
987 191 0
170 0
784 156 0
648 0
867 494 0
409 0
301 631 0
289 666 0
578 0
349 0
901 0
552 0
725 0
236 0
792 307 0
33 0
578 0
956 0
467 69 0
136 0
778 810 0
69 0
81 270 0
728 0
16 0
158 0
877 0
529 0
940 0
959 0
59 0
315 870 0
57 0
792 966 0
373 398 0
9 0
481 0
998 0
164 526 0
925 207 0
847 0
403 270 0
298 0
348 0
961 507 0
667 0
304 825 0
976 800 0
542 0
781 198 0
547 0
810 818 0
865 0
170 0
319 0
528 836 0
710 0
634 0
138 179 0
504 790 0
190 0
352 543 0
575 0
178 0
806 0
707 0
351 0
789 271 0
270 0
684 0
953 538 0
374 0
807 0
18 84 0
872 0
689 451 0
322 0
156 0
501 741 0
619 0
236 741 0
261 0
822 0
468 724 0
964 0
572 0
418 0
735 0
284 0
965 599 0
161 0
336 434 0
724 228 0
365 0
581 0
651 0
317 813 0
64 235 0
689 643 0
439 0
133 950 0
648 0
464 701 0
203 0
384 0
931 454 0
573 246 0
23 0
23 0
496 0
772 0
86 0
834 0
409 381 0
720 917 0
688 134 0
141 0
610 229 0
800 749 0
328 0
940 0
428 0
608 0
751 0
898 63 0
706 0
836 423 0
800 690 0
585 349 0
110 0
444 0
957 0
275 158 0
535 0
545 0
611 659 0
685 0
433 906 0
912 774 0
379 0
786 916 0
841 0
282 196 0
232 0
64 739 0
662 0
770 0
138 0
101 0
111 0
892 0
815 0
218 724 0
382 0
482 0
533 254 0
987 0
32 0
177 462 0
268 0
97 682 0
132 0
993 0
686 0
761 604 0
849 268 0
188 975 0
701 0
187 0
783 0
955 0
281 927 0
759 0
22 0
520 0
611 0
420 0
650 0
322 0
237 0
106 859 0
342 0
413 0
256 745 0
600 0
154 0
819 30 0
838 902 0
919 0
199 0
479 0
904 994 0
240 0
266 0
688 875 0
428 0
515 486 0
737 171 0
238 0
762 0
26 350 0
56 558 0
175 0
48 2 0
153 0
73 718 0
424 0
357 750 0
395 0
84 493 0
288 0
693 991 0
795 0
100 461 0
90 0
65 0
467 166 0
388 0
417 0
980 0
784 732 0
276 0
868 191 0
422 0
428 0
686 519 0
831 0
691 133 0
547 883 0
104 0
497 611 0
297 150 0
538 0
402 999 0
427 0
17 25 0
544 0
22 0
968 0
968 896 0
819 0
493 0
794 0
556 0
974 0
805 46 0
371 335 0
659 183 0
542 0
342 703 0
586 0
260 0
915 788 0
638 0
341 0
736 0
160 680 0
790 0
747 0
474 0
858 0
985 390 0
834 0
480 0
561 0
248 0
616 0
562 0
87 0
287 0
15 0
75 0
955 0
449 0
466 958 0
616 0
592 870 0
809 0
71 0
994 0
791 0
504 301 0
896 763 0
40 247 0
61 886 0
59 0
418 819 0
701 0
408 0
863 0
355 0
419 222 0
217 898 0
120 0
551 0
634 355 0
992 905 0
376 0
171 0
113 878 0
152 0
955 76 0
536 0
816 0
68 0
871 0
519 0
418 535 0
777 0
388 0
171 0
385 836 0
826 0
139 0
290 0
335 0
776 0
8 0
45 0
815 0
302 0
673 658 0
14 0
936 802 0
476 0
930 941 0
699 0
993 869 0
609 0
330 0
274 581 0
216 36 0
676 0
656 132 0
228 0
503 0
954 83 0
822 0
303 0
762 0
962 0
854 415 0
303 0
577 0
594 166 0
340 0
242 998 0
680 585 0
770 0
244 0
808 0
829 0
411 0
485 542 0
256 0
355 0
908 0
481 0
508 788 0
302 0
297 0
114 188 0
859 923 0
593 967 0
731 0
737 0
578 235 0
944 0
988 0
306 0
558 959 0
557 933 0
262 0
425 598 0
77 719 0
925 0
513 0
739 0
639 967 0
634 924 0
684 0
859 0
816 0
423 0
922 556 0
413 0
483 0
810 0
811 45 0
219 582 0
82 469 0
104 817 0
56 463 0
864 0
10 0
977 302 0
272 0
941 0
721 0
73 908 0
105 0
783 0
539 676 0
660 220 0
484 -1001 0
906 -1001 0
-484 -906 1001 0
719 -1002 0
-890 -1002 0
-719 890 1002 0
64 -1003 0
-751 -1003 0
-64 751 1003 0
600 -1004 0
317 -1004 0
-600 -317 1004 0
-954 -1005 0
489 -1005 0
954 -489 1005 0
31 -1006 0
-437 -1006 0
-31 437 1006 0
-492 -1007 0
731 -1007 0
492 -731 1007 0
-76 -1008 0
481 -1008 0
76 -481 1008 0
104 -1009 0
-427 -1009 0
-104 427 1009 0
-368 -1010 0
445 -1010 0
368 -445 1010 0
-672 -1011 0
216 -1011 0
672 -216 1011 0
463 -1012 0
81 -1012 0
-463 -81 1012 0
-19 -1013 0
477 -1013 0
19 -477 1013 0
677 -1014 0
285 -1014 0
-677 -285 1014 0
400 -1015 0
-279 -1015 0
-400 279 1015 0
-505 -1016 0
913 -1016 0
505 -913 1016 0
484 -1017 0
-869 -1017 0
-484 869 1017 0
496 -1018 0
873 -1018 0
-496 -873 1018 0
660 -1019 0
-390 -1019 0
-660 390 1019 0
308 -1020 0
516 -1020 0
-308 -516 1020 0
256 -1021 0
-187 -1021 0
-256 187 1021 0
326 -1022 0
180 -1022 0
-326 -180 1022 0
359 -1023 0
-58 -1023 0
-359 58 1023 0
374 -1024 0
-547 -1024 0
-374 547 1024 0
-441 -1025 0
508 -1025 0
441 -508 1025 0
781 -1026 0
643 -1026 0
-781 -643 1026 0
470 -1027 0
-636 -1027 0
-470 636 1027 0
-652 -1028 0
698 -1028 0
652 -698 1028 0
787 -1029 0
274 -1029 0
-787 -274 1029 0
740 -1030 0
123 -1030 0
-740 -123 1030 0
437 -1031 0
77 -1031 0
-437 -77 1031 0
382 -1032 0
786 -1032 0
-382 -786 1032 0
554 -1033 0
193 -1033 0
-554 -193 1033 0
-936 -1034 0
229 -1034 0
936 -229 1034 0
970 -1035 0
290 -1035 0
-970 -290 1035 0
179 -1036 0
-213 -1036 0
-179 213 1036 0
880 -1037 0
207 -1037 0
-880 -207 1037 0
791 -1038 0
906 -1038 0
-791 -906 1038 0
24 -1039 0
809 -1039 0
-24 -809 1039 0
874 -1040 0
890 -1040 0
-874 -890 1040 0
720 -1041 0
380 -1041 0
-720 -380 1041 0
503 -1042 0
338 -1042 0
-503 -338 1042 0
111 -1043 0
-359 -1043 0
-111 359 1043 0
768 -1044 0
506 -1044 0
-768 -506 1044 0
288 -1045 0
-213 -1045 0
-288 213 1045 0
-812 -1046 0
251 -1046 0
812 -251 1046 0
112 -1047 0
887 -1047 0
-112 -887 1047 0
327 -1048 0
450 -1048 0
-327 -450 1048 0
430 -1049 0
796 -1049 0
-430 -796 1049 0
30 -1050 0
-859 -1050 0
-30 859 1050 0
-147 -1051 0
603 -1051 0
147 -603 1051 0
568 -1052 0
906 -1052 0
-568 -906 1052 0
351 -1053 0
610 -1053 0
-351 -610 1053 0
408 -1054 0
146 -1054 0
-408 -146 1054 0
193 -1055 0
273 -1055 0
-193 -273 1055 0
-344 -1056 0
507 -1056 0
344 -507 1056 0
-452 -1057 0
27 -1057 0
452 -27 1057 0
785 -1058 0
305 -1058 0
-785 -305 1058 0
-608 -1059 0
68 -1059 0
608 -68 1059 0
591 -1060 0
-834 -1060 0
-591 834 1060 0
-480 -1061 0
487 -1061 0
480 -487 1061 0
182 -1062 0
121 -1062 0
-182 -121 1062 0
-633 -1063 0
506 -1063 0
633 -506 1063 0
-945 -1064 0
138 -1064 0
945 -138 1064 0
899 -1065 0
-158 -1065 0
-899 158 1065 0
885 -1066 0
-589 -1066 0
-885 589 1066 0
-152 -1067 0
158 -1067 0
152 -158 1067 0
-212 -1068 0
866 -1068 0
212 -866 1068 0
24 -1069 0
864 -1069 0
-24 -864 1069 0
500 -1070 0
-797 -1070 0
-500 797 1070 0
792 -1071 0
-567 -1071 0
-792 567 1071 0
-528 -1072 0
552 -1072 0
528 -552 1072 0
384 -1073 0
348 -1073 0
-384 -348 1073 0
-857 -1074 0
734 -1074 0
857 -734 1074 0
331 -1075 0
-598 -1075 0
-331 598 1075 0
246 -1076 0
-298 -1076 0
-246 298 1076 0
51 -1077 0
-567 -1077 0
-51 567 1077 0
-73 -1078 0
374 -1078 0
73 -374 1078 0
741 -1079 0
18 -1079 0
-741 -18 1079 0
-509 -1080 0
930 -1080 0
509 -930 1080 0
660 -1081 0
-581 -1081 0
-660 581 1081 0
-60 -1082 0
618 -1082 0
60 -618 1082 0
-546 -1083 0
644 -1083 0
546 -644 1083 0
133 -1084 0
675 -1084 0
-133 -675 1084 0
499 -1085 0
619 -1085 0
-499 -619 1085 0
-989 -1086 0
859 -1086 0
989 -859 1086 0
-272 -1087 0
788 -1087 0
272 -788 1087 0
214 -1088 0
-614 -1088 0
-214 614 1088 0
508 -1089 0
570 -1089 0
-508 -570 1089 0
871 -1090 0
610 -1090 0
-871 -610 1090 0
-449 -1091 0
76 -1091 0
449 -76 1091 0
607 -1092 0
-726 -1092 0
-607 726 1092 0
192 -1093 0
-901 -1093 0
-192 901 1093 0
480 -1094 0
-811 -1094 0
-480 811 1094 0
680 -1095 0
542 -1095 0
-680 -542 1095 0
693 -1096 0
-135 -1096 0
-693 135 1096 0
345 -1097 0
-855 -1097 0
-345 855 1097 0
224 -1098 0
-634 -1098 0
-224 634 1098 0
-708 -1099 0
994 -1099 0
708 -994 1099 0
650 -1100 0
545 -1100 0
-650 -545 1100 0
-641 -1101 0
636 -1101 0
641 -636 1101 0
296 -1102 0
957 -1102 0
-296 -957 1102 0
896 -1103 0
-847 -1103 0
-896 847 1103 0
-956 -1104 0
481 -1104 0
956 -481 1104 0
-899 -1105 0
762 -1105 0
899 -762 1105 0
507 -1106 0
-557 -1106 0
-507 557 1106 0
679 -1107 0
-458 -1107 0
-679 458 1107 0
901 -1108 0
-197 -1108 0
-901 197 1108 0
270 -1109 0
562 -1109 0
-270 -562 1109 0
414 -1110 0
-719 -1110 0
-414 719 1110 0
810 -1111 0
538 -1111 0
-810 -538 1111 0
790 -1112 0
244 -1112 0
-790 -244 1112 0
903 -1113 0
353 -1113 0
-903 -353 1113 0
944 -1114 0
839 -1114 0
-944 -839 1114 0
877 -1115 0
98 -1115 0
-877 -98 1115 0
987 -1116 0
330 -1116 0
-987 -330 1116 0
-744 -1117 0
174 -1117 0
744 -174 1117 0
605 -1118 0
803 -1118 0
-605 -803 1118 0
353 -1119 0
-295 -1119 0
-353 295 1119 0
931 -1120 0
35 -1120 0
-931 -35 1120 0
615 -1121 0
46 -1121 0
-615 -46 1121 0
-701 -1122 0
201 -1122 0
701 -201 1122 0
37 -1123 0
809 -1123 0
-37 -809 1123 0
-912 -1124 0
457 -1124 0
912 -457 1124 0
-618 -1125 0
843 -1125 0
618 -843 1125 0
621 -1126 0
106 -1126 0
-621 -106 1126 0
839 -1127 0
-566 -1127 0
-839 566 1127 0
-24 -1128 0
708 -1128 0
24 -708 1128 0
558 -1129 0
645 -1129 0
-558 -645 1129 0
-272 -1130 0
306 -1130 0
272 -306 1130 0
1000 -1131 0
986 -1131 0
-1000 -986 1131 0
526 -1132 0
117 -1132 0
-526 -117 1132 0
-337 -1133 0
473 -1133 0
337 -473 1133 0
510 -1134 0
-735 -1134 0
-510 735 1134 0
-434 -1135 0
409 -1135 0
434 -409 1135 0
656 -1136 0
613 -1136 0
-656 -613 1136 0
624 -1137 0
-366 -1137 0
-624 366 1137 0
628 -1138 0
868 -1138 0
-628 -868 1138 0
473 -1139 0
-159 -1139 0
-473 159 1139 0
628 -1140 0
-910 -1140 0
-628 910 1140 0
904 -1141 0
-355 -1141 0
-904 355 1141 0
335 -1142 0
-621 -1142 0
-335 621 1142 0
671 -1143 0
364 -1143 0
-671 -364 1143 0
735 -1144 0
-196 -1144 0
-735 196 1144 0
848 -1145 0
-519 -1145 0
-848 519 1145 0
939 -1146 0
777 -1146 0
-939 -777 1146 0
455 -1147 0
-225 -1147 0
-455 225 1147 0
723 -1148 0
634 -1148 0
-723 -634 1148 0
927 -1149 0
205 -1149 0
-927 -205 1149 0
511 -1150 0
267 -1150 0
-511 -267 1150 0
-154 -1151 0
541 -1151 0
154 -541 1151 0
-960 -1152 0
708 -1152 0
960 -708 1152 0
-748 -1153 0
25 -1153 0
748 -25 1153 0
484 -1154 0
602 -1154 0
-484 -602 1154 0
223 -1155 0
342 -1155 0
-223 -342 1155 0
653 -1156 0
785 -1156 0
-653 -785 1156 0
-928 -1157 0
342 -1157 0
928 -342 1157 0
32 -1158 0
-709 -1158 0
-32 709 1158 0
456 -1159 0
-393 -1159 0
-456 393 1159 0
782 -1160 0
-340 -1160 0
-782 340 1160 0
836 -1161 0
-692 -1161 0
-836 692 1161 0
256 -1162 0
-423 -1162 0
-256 423 1162 0
637 -1163 0
-181 -1163 0
-637 181 1163 0
-938 -1164 0
915 -1164 0
938 -915 1164 0
16 -1165 0
-330 -1165 0
-16 330 1165 0
-59 -1166 0
500 -1166 0
59 -500 1166 0
-548 -1167 0
521 -1167 0
548 -521 1167 0
495 -1168 0
-526 -1168 0
-495 526 1168 0
-485 -1169 0
946 -1169 0
485 -946 1169 0
174 -1170 0
713 -1170 0
-174 -713 1170 0
983 -1171 0
937 -1171 0
-983 -937 1171 0
773 -1172 0
570 -1172 0
-773 -570 1172 0
235 -1173 0
-622 -1173 0
-235 622 1173 0
557 -1174 0
355 -1174 0
-557 -355 1174 0
-74 -1175 0
460 -1175 0
74 -460 1175 0
-134 -1176 0
937 -1176 0
134 -937 1176 0
960 -1177 0
-958 -1177 0
-960 958 1177 0
295 -1178 0
-193 -1178 0
-295 193 1178 0
409 -1179 0
-335 -1179 0
-409 335 1179 0
205 -1180 0
859 -1180 0
-205 -859 1180 0
192 -1181 0
739 -1181 0
-192 -739 1181 0
-327 -1182 0
113 -1182 0
327 -113 1182 0
176 -1183 0
262 -1183 0
-176 -262 1183 0
102 -1184 0
700 -1184 0
-102 -700 1184 0
150 -1185 0
257 -1185 0
-150 -257 1185 0
-314 -1186 0
661 -1186 0
314 -661 1186 0
-772 -1187 0
19 -1187 0
772 -19 1187 0
335 -1188 0
625 -1188 0
-335 -625 1188 0
596 -1189 0
-878 -1189 0
-596 878 1189 0
56 -1190 0
-908 -1190 0
-56 908 1190 0
-945 -1191 0
364 -1191 0
945 -364 1191 0
551 -1192 0
131 -1192 0
-551 -131 1192 0
765 -1193 0
-268 -1193 0
-765 268 1193 0
-257 -1194 0
132 -1194 0
257 -132 1194 0
80 -1195 0
-439 -1195 0
-80 439 1195 0
244 -1196 0
707 -1196 0
-244 -707 1196 0
792 -1197 0
961 -1197 0
-792 -961 1197 0
-33 -1198 0
644 -1198 0
33 -644 1198 0
555 -1199 0
-382 -1199 0
-555 382 1199 0
847 -1200 0
669 -1200 0
-847 -669 1200 0
312 -1201 0
-751 -1201 0
-312 751 1201 0
511 -1202 0
-308 -1202 0
-511 308 1202 0
-568 -1203 0
776 -1203 0
568 -776 1203 0
591 -1204 0
989 -1204 0
-591 -989 1204 0
743 -1205 0
748 -1205 0
-743 -748 1205 0
365 -1206 0
-775 -1206 0
-365 775 1206 0
-811 -1207 0
573 -1207 0
811 -573 1207 0
110 -1208 0
929 -1208 0
-110 -929 1208 0
874 -1209 0
353 -1209 0
-874 -353 1209 0
197 -1210 0
250 -1210 0
-197 -250 1210 0
-817 -1211 0
683 -1211 0
817 -683 1211 0
438 -1212 0
-461 -1212 0
-438 461 1212 0
405 -1213 0
539 -1213 0
-405 -539 1213 0
243 -1214 0
-862 -1214 0
-243 862 1214 0
104 -1215 0
59 -1215 0
-104 -59 1215 0
808 -1216 0
118 -1216 0
-808 -118 1216 0
63 -1217 0
-50 -1217 0
-63 50 1217 0
360 -1218 0
817 -1218 0
-360 -817 1218 0
15 -1219 0
3 -1219 0
-15 -3 1219 0
105 -1220 0
433 -1220 0
-105 -433 1220 0
470 -1221 0
236 -1221 0
-470 -236 1221 0
-12 -1222 0
355 -1222 0
12 -355 1222 0
-624 -1223 0
737 -1223 0
624 -737 1223 0
878 -1224 0
242 -1224 0
-878 -242 1224 0
-592 -1225 0
391 -1225 0
592 -391 1225 0
119 -1226 0
-651 -1226 0
-119 651 1226 0
-786 -1227 0
434 -1227 0
786 -434 1227 0
143 -1228 0
-966 -1228 0
-143 966 1228 0
664 -1229 0
689 -1229 0
-664 -689 1229 0
474 -1230 0
-255 -1230 0
-474 255 1230 0
-760 -1231 0
940 -1231 0
760 -940 1231 0
726 -1232 0
-757 -1232 0
-726 757 1232 0
360 -1233 0
896 -1233 0
-360 -896 1233 0
591 -1234 0
173 -1234 0
-591 -173 1234 0
210 -1235 0
-79 -1235 0
-210 79 1235 0
102 -1236 0
133 -1236 0
-102 -133 1236 0
624 -1237 0
-590 -1237 0
-624 590 1237 0
-417 -1238 0
876 -1238 0
417 -876 1238 0
928 -1239 0
-844 -1239 0
-928 844 1239 0
-417 -1240 0
173 -1240 0
417 -173 1240 0
-132 -1241 0
338 -1241 0
132 -338 1241 0
520 -1242 0
-757 -1242 0
-520 757 1242 0
915 -1243 0
338 -1243 0
-915 -338 1243 0
-790 -1244 0
369 -1244 0
790 -369 1244 0
983 -1245 0
-978 -1245 0
-983 978 1245 0
-529 -1246 0
652 -1246 0
529 -652 1246 0
-280 -1247 0
228 -1247 0
280 -228 1247 0
-832 -1248 0
214 -1248 0
832 -214 1248 0
527 -1249 0
-83 -1249 0
-527 83 1249 0
-322 -1250 0
412 -1250 0
322 -412 1250 0
-201 -1251 0
377 -1251 0
201 -377 1251 0
-258 -1252 0
123 -1252 0
258 -123 1252 0
-709 -1253 0
146 -1253 0
709 -146 1253 0
109 -1254 0
-239 -1254 0
-109 239 1254 0
77 -1255 0
-165 -1255 0
-77 165 1255 0
536 -1256 0
-644 -1256 0
-536 644 1256 0
748 -1257 0
785 -1257 0
-748 -785 1257 0
307 -1258 0
209 -1258 0
-307 -209 1258 0
659 -1259 0
-670 -1259 0
-659 670 1259 0
463 -1260 0
441 -1260 0
-463 -441 1260 0
-49 -1261 0
355 -1261 0
49 -355 1261 0
984 -1262 0
-968 -1262 0
-984 968 1262 0
-849 -1263 0
938 -1263 0
849 -938 1263 0
700 -1264 0
-646 -1264 0
-700 646 1264 0
117 -1265 0
297 -1265 0
-117 -297 1265 0
808 -1266 0
937 -1266 0
-808 -937 1266 0
963 -1267 0
361 -1267 0
-963 -361 1267 0
-69 -1268 0
722 -1268 0
69 -722 1268 0
-801 -1269 0
497 -1269 0
801 -497 1269 0
982 -1270 0
-295 -1270 0
-982 295 1270 0
271 -1271 0
436 -1271 0
-271 -436 1271 0
957 -1272 0
698 -1272 0
-957 -698 1272 0
517 -1273 0
939 -1273 0
-517 -939 1273 0
-993 -1274 0
410 -1274 0
993 -410 1274 0
253 -1275 0
-655 -1275 0
-253 655 1275 0
106 -1276 0
266 -1276 0
-106 -266 1276 0
-426 -1277 0
142 -1277 0
426 -142 1277 0
550 -1278 0
385 -1278 0
-550 -385 1278 0
989 -1279 0
492 -1279 0
-989 -492 1279 0
-992 -1280 0
550 -1280 0
992 -550 1280 0
359 -1281 0
985 -1281 0
-359 -985 1281 0
379 -1282 0
994 -1282 0
-379 -994 1282 0
391 -1283 0
942 -1283 0
-391 -942 1283 0
594 -1284 0
-702 -1284 0
-594 702 1284 0
-864 -1285 0
130 -1285 0
864 -130 1285 0
963 -1286 0
929 -1286 0
-963 -929 1286 0
669 -1287 0
-527 -1287 0
-669 527 1287 0
367 -1288 0
909 -1288 0
-367 -909 1288 0
413 -1289 0
-701 -1289 0
-413 701 1289 0
397 -1290 0
-926 -1290 0
-397 926 1290 0
310 -1291 0
172 -1291 0
-310 -172 1291 0
782 -1292 0
981 -1292 0
-782 -981 1292 0
903 -1293 0
306 -1293 0
-903 -306 1293 0
-312 -1294 0
947 -1294 0
312 -947 1294 0
334 -1295 0
-358 -1295 0
-334 358 1295 0
-713 -1296 0
276 -1296 0
713 -276 1296 0
-274 -1297 0
756 -1297 0
274 -756 1297 0
224 -1298 0
-483 -1298 0
-224 483 1298 0
-158 -1299 0
818 -1299 0
158 -818 1299 0
-172 -1300 0
921 -1300 0
172 -921 1300 0
38 -1301 0
-973 -1301 0
-38 973 1301 0
543 -1302 0
18 -1302 0
-543 -18 1302 0
806 -1303 0
-6 -1303 0
-806 6 1303 0
-411 -1304 0
170 -1304 0
411 -170 1304 0
503 -1305 0
-762 -1305 0
-503 762 1305 0
732 -1306 0
-334 -1306 0
-732 334 1306 0
711 -1307 0
412 -1307 0
-711 -412 1307 0
325 -1308 0
770 -1308 0
-325 -770 1308 0
918 -1309 0
-127 -1309 0
-918 127 1309 0
903 -1310 0
266 -1310 0
-903 -266 1310 0
686 -1311 0
818 -1311 0
-686 -818 1311 0
997 -1312 0
228 -1312 0
-997 -228 1312 0
648 -1313 0
-82 -1313 0
-648 82 1313 0
-345 -1314 0
250 -1314 0
345 -250 1314 0
574 -1315 0
398 -1315 0
-574 -398 1315 0
-337 -1316 0
209 -1316 0
337 -209 1316 0
768 -1317 0
-640 -1317 0
-768 640 1317 0
752 -1318 0
-463 -1318 0
-752 463 1318 0
588 -1319 0
-95 -1319 0
-588 95 1319 0
710 -1320 0
348 -1320 0
-710 -348 1320 0
647 -1321 0
733 -1321 0
-647 -733 1321 0
440 -1322 0
-991 -1322 0
-440 991 1322 0
-436 -1323 0
818 -1323 0
436 -818 1323 0
-745 -1324 0
181 -1324 0
745 -181 1324 0
967 -1325 0
-194 -1325 0
-967 194 1325 0
-328 -1326 0
806 -1326 0
328 -806 1326 0
880 -1327 0
-638 -1327 0
-880 638 1327 0
990 -1328 0
-853 -1328 0
-990 853 1328 0
770 -1329 0
-7 -1329 0
-770 7 1329 0
668 -1330 0
-540 -1330 0
-668 540 1330 0
116 -1331 0
-789 -1331 0
-116 789 1331 0
160 -1332 0
-992 -1332 0
-160 992 1332 0
63 -1333 0
-426 -1333 0
-63 426 1333 0
-977 -1334 0
789 -1334 0
977 -789 1334 0
614 -1335 0
954 -1335 0
-614 -954 1335 0
724 -1336 0
-149 -1336 0
-724 149 1336 0
-261 -1337 0
897 -1337 0
261 -897 1337 0
949 -1338 0
707 -1338 0
-949 -707 1338 0
707 -1339 0
-231 -1339 0
-707 231 1339 0
-569 -1340 0
403 -1340 0
569 -403 1340 0
646 -1341 0
-46 -1341 0
-646 46 1341 0
151 -1342 0
269 -1342 0
-151 -269 1342 0
422 -1343 0
267 -1343 0
-422 -267 1343 0
630 -1344 0
-613 -1344 0
-630 613 1344 0
-725 -1345 0
3 -1345 0
725 -3 1345 0
399 -1346 0
197 -1346 0
-399 -197 1346 0
-857 -1347 0
485 -1347 0
857 -485 1347 0
-884 -1348 0
457 -1348 0
884 -457 1348 0
-785 -1349 0
975 -1349 0
785 -975 1349 0
-800 -1350 0
461 -1350 0
800 -461 1350 0
732 -1351 0
18 -1351 0
-732 -18 1351 0
-504 -1352 0
859 -1352 0
504 -859 1352 0
-10 -1353 0
194 -1353 0
10 -194 1353 0
-337 -1354 0
575 -1354 0
337 -575 1354 0
392 -1355 0
-703 -1355 0
-392 703 1355 0
142 -1356 0
762 -1356 0
-142 -762 1356 0
430 -1357 0
635 -1357 0
-430 -635 1357 0
-989 -1358 0
571 -1358 0
989 -571 1358 0
99 -1359 0
90 -1359 0
-99 -90 1359 0
64 -1360 0
767 -1360 0
-64 -767 1360 0
-521 -1361 0
95 -1361 0
521 -95 1361 0
708 -1362 0
498 -1362 0
-708 -498 1362 0
-884 -1363 0
300 -1363 0
884 -300 1363 0
132 -1364 0
996 -1364 0
-132 -996 1364 0
640 -1365 0
489 -1365 0
-640 -489 1365 0
466 -1366 0
-750 -1366 0
-466 750 1366 0
-417 -1367 0
458 -1367 0
417 -458 1367 0
6 -1368 0
-676 -1368 0
-6 676 1368 0
795 -1369 0
-526 -1369 0
-795 526 1369 0
806 -1370 0
-886 -1370 0
-806 886 1370 0
694 -1371 0
202 -1371 0
-694 -202 1371 0
703 -1372 0
303 -1372 0
-703 -303 1372 0
56 -1373 0
-769 -1373 0
-56 769 1373 0
-629 -1374 0
554 -1374 0
629 -554 1374 0
127 -1375 0
917 -1375 0
-127 -917 1375 0
-569 -1376 0
309 -1376 0
569 -309 1376 0
270 -1377 0
57 -1377 0
-270 -57 1377 0
994 -1378 0
-30 -1378 0
-994 30 1378 0
895 -1379 0
-294 -1379 0
-895 294 1379 0
-492 -1380 0
833 -1380 0
492 -833 1380 0
991 -1381 0
-217 -1381 0
-991 217 1381 0
909 -1382 0
193 -1382 0
-909 -193 1382 0
175 -1383 0
761 -1383 0
-175 -761 1383 0
397 -1384 0
-279 -1384 0
-397 279 1384 0
543 -1385 0
-394 -1385 0
-543 394 1385 0
-217 -1386 0
354 -1386 0
217 -354 1386 0
-475 -1387 0
939 -1387 0
475 -939 1387 0
-681 -1388 0
865 -1388 0
681 -865 1388 0
192 -1389 0
-475 -1389 0
-192 475 1389 0
-379 -1390 0
588 -1390 0
379 -588 1390 0
194 -1391 0
-855 -1391 0
-194 855 1391 0
693 -1392 0
-23 -1392 0
-693 23 1392 0
-153 -1393 0
473 -1393 0
153 -473 1393 0
563 -1394 0
-805 -1394 0
-563 805 1394 0
974 -1395 0
789 -1395 0
-974 -789 1395 0
383 -1396 0
473 -1396 0
-383 -473 1396 0
879 -1397 0
-243 -1397 0
-879 243 1397 0
790 -1398 0
628 -1398 0
-790 -628 1398 0
767 -1399 0
770 -1399 0
-767 -770 1399 0
-173 -1400 0
985 -1400 0
173 -985 1400 0
564 -1401 0
-110 -1401 0
-564 110 1401 0
790 -1402 0
-685 -1402 0
-790 685 1402 0
523 -1403 0
578 -1403 0
-523 -578 1403 0
319 -1404 0
596 -1404 0
-319 -596 1404 0
972 -1405 0
698 -1405 0
-972 -698 1405 0
928 -1406 0
-714 -1406 0
-928 714 1406 0
430 -1407 0
690 -1407 0
-430 -690 1407 0
439 -1408 0
582 -1408 0
-439 -582 1408 0
-877 -1409 0
474 -1409 0
877 -474 1409 0
-311 -1410 0
441 -1410 0
311 -441 1410 0
-640 -1411 0
632 -1411 0
640 -632 1411 0
883 -1412 0
-653 -1412 0
-883 653 1412 0
829 -1413 0
113 -1413 0
-829 -113 1413 0
968 -1414 0
-934 -1414 0
-968 934 1414 0
-431 -1415 0
673 -1415 0
431 -673 1415 0
676 -1416 0
-167 -1416 0
-676 167 1416 0
-306 -1417 0
964 -1417 0
306 -964 1417 0
-547 -1418 0
858 -1418 0
547 -858 1418 0
501 -1419 0
-789 -1419 0
-501 789 1419 0
3 -1420 0
145 -1420 0
-3 -145 1420 0
-409 -1421 0
402 -1421 0
409 -402 1421 0
-288 -1422 0
112 -1422 0
288 -112 1422 0
-788 -1423 0
281 -1423 0
788 -281 1423 0
860 -1424 0
796 -1424 0
-860 -796 1424 0
-49 -1425 0
163 -1425 0
49 -163 1425 0
-616 -1426 0
354 -1426 0
616 -354 1426 0
562 -1427 0
-806 -1427 0
-562 806 1427 0
815 -1428 0
822 -1428 0
-815 -822 1428 0
341 -1429 0
-269 -1429 0
-341 269 1429 0
-376 -1430 0
947 -1430 0
376 -947 1430 0
341 -1431 0
-990 -1431 0
-341 990 1431 0
795 -1432 0
594 -1432 0
-795 -594 1432 0
119 -1433 0
67 -1433 0
-119 -67 1433 0
-452 -1434 0
761 -1434 0
452 -761 1434 0
543 -1435 0
-678 -1435 0
-543 678 1435 0
365 -1436 0
394 -1436 0
-365 -394 1436 0
304 -1437 0
762 -1437 0
-304 -762 1437 0
-112 -1438 0
208 -1438 0
112 -208 1438 0
663 -1439 0
-666 -1439 0
-663 666 1439 0
166 -1440 0
4 -1440 0
-166 -4 1440 0
95 -1441 0
-829 -1441 0
-95 829 1441 0
31 -1442 0
350 -1442 0
-31 -350 1442 0
-240 -1443 0
701 -1443 0
240 -701 1443 0
702 -1444 0
-261 -1444 0
-702 261 1444 0
400 -1445 0
91 -1445 0
-400 -91 1445 0
963 -1446 0
-430 -1446 0
-963 430 1446 0
624 -1447 0
-166 -1447 0
-624 166 1447 0
671 -1448 0
-623 -1448 0
-671 623 1448 0
-517 -1449 0
691 -1449 0
517 -691 1449 0
870 -1450 0
-358 -1450 0
-870 358 1450 0
320 -1451 0
315 -1451 0
-320 -315 1451 0
703 -1452 0
146 -1452 0
-703 -146 1452 0
-144 -1453 0
930 -1453 0
144 -930 1453 0
844 -1454 0
-61 -1454 0
-844 61 1454 0
904 -1455 0
480 -1455 0
-904 -480 1455 0
387 -1456 0
-430 -1456 0
-387 430 1456 0
-896 -1457 0
340 -1457 0
896 -340 1457 0
-439 -1458 0
889 -1458 0
439 -889 1458 0
-976 -1459 0
686 -1459 0
976 -686 1459 0
413 -1460 0
-950 -1460 0
-413 950 1460 0
792 -1461 0
-16 -1461 0
-792 16 1461 0
-350 -1462 0
338 -1462 0
350 -338 1462 0
322 -1463 0
-119 -1463 0
-322 119 1463 0
-170 -1464 0
369 -1464 0
170 -369 1464 0
232 -1465 0
21 -1465 0
-232 -21 1465 0
340 -1466 0
964 -1466 0
-340 -964 1466 0
-403 -1467 0
780 -1467 0
403 -780 1467 0
912 -1468 0
413 -1468 0
-912 -413 1468 0
168 -1469 0
299 -1469 0
-168 -299 1469 0
862 -1470 0
-203 -1470 0
-862 203 1470 0
364 -1471 0
-863 -1471 0
-364 863 1471 0
341 -1472 0
909 -1472 0
-341 -909 1472 0
-31 -1473 0
817 -1473 0
31 -817 1473 0
344 -1474 0
171 -1474 0
-344 -171 1474 0
928 -1475 0
-942 -1475 0
-928 942 1475 0
662 -1476 0
364 -1476 0
-662 -364 1476 0
-584 -1477 0
693 -1477 0
584 -693 1477 0
-140 -1478 0
724 -1478 0
140 -724 1478 0
-827 -1479 0
523 -1479 0
827 -523 1479 0
4 -1480 0
-46 -1480 0
-4 46 1480 0
793 -1481 0
-919 -1481 0
-793 919 1481 0
120 -1482 0
-148 -1482 0
-120 148 1482 0
708 -1483 0
-918 -1483 0
-708 918 1483 0
-97 -1484 0
812 -1484 0
97 -812 1484 0
277 -1485 0
789 -1485 0
-277 -789 1485 0
-188 -1486 0
443 -1486 0
188 -443 1486 0
-41 -1487 0
606 -1487 0
41 -606 1487 0
-832 -1488 0
851 -1488 0
832 -851 1488 0
296 -1489 0
-833 -1489 0
-296 833 1489 0
204 -1490 0
-62 -1490 0
-204 62 1490 0
354 -1491 0
-271 -1491 0
-354 271 1491 0
-128 -1492 0
611 -1492 0
128 -611 1492 0
44 -1493 0
314 -1493 0
-44 -314 1493 0
520 -1494 0
-750 -1494 0
-520 750 1494 0
1000 -1495 0
383 -1495 0
-1000 -383 1495 0
674 -1496 0
209 -1496 0
-674 -209 1496 0
135 -1497 0
-317 -1497 0
-135 317 1497 0
-40 -1498 0
65 -1498 0
40 -65 1498 0
239 -1499 0
604 -1499 0
-239 -604 1499 0
-19 -1500 0
426 -1500 0
19 -426 1500 0
420 -1501 0
994 -1501 0
-420 -994 1501 0
876 -1502 0
-598 -1502 0
-876 598 1502 0
-587 -1503 0
275 -1503 0
587 -275 1503 0
-698 -1504 0
483 -1504 0
698 -483 1504 0
452 -1505 0
-836 -1505 0
-452 836 1505 0
598 -1506 0
-43 -1506 0
-598 43 1506 0
595 -1507 0
802 -1507 0
-595 -802 1507 0
400 -1508 0
-691 -1508 0
-400 691 1508 0
344 -1509 0
-821 -1509 0
-344 821 1509 0
910 -1510 0
449 -1510 0
-910 -449 1510 0
994 -1511 0
801 -1511 0
-994 -801 1511 0
421 -1512 0
587 -1512 0
-421 -587 1512 0
-637 -1513 0
297 -1513 0
637 -297 1513 0
790 -1514 0
-893 -1514 0
-790 893 1514 0
-592 -1515 0
995 -1515 0
592 -995 1515 0
605 -1516 0
-151 -1516 0
-605 151 1516 0
472 -1517 0
-556 -1517 0
-472 556 1517 0
-666 -1518 0
571 -1518 0
666 -571 1518 0
845 -1519 0
-132 -1519 0
-845 132 1519 0
152 -1520 0
989 -1520 0
-152 -989 1520 0
-396 -1521 0
219 -1521 0
396 -219 1521 0
171 -1522 0
635 -1522 0
-171 -635 1522 0
-776 -1523 0
804 -1523 0
776 -804 1523 0
199 -1524 0
12 -1524 0
-199 -12 1524 0
87 -1525 0
444 -1525 0
-87 -444 1525 0
183 -1526 0
284 -1526 0
-183 -284 1526 0
27 -1527 0
-703 -1527 0
-27 703 1527 0
699 -1528 0
81 -1528 0
-699 -81 1528 0
519 -1529 0
529 -1529 0
-519 -529 1529 0
775 -1530 0
-810 -1530 0
-775 810 1530 0
136 -1531 0
-813 -1531 0
-136 813 1531 0
37 -1532 0
556 -1532 0
-37 -556 1532 0
866 -1533 0
738 -1533 0
-866 -738 1533 0
-1 -1534 0
893 -1534 0
1 -893 1534 0
24 -1535 0
-921 -1535 0
-24 921 1535 0
-984 -1536 0
948 -1536 0
984 -948 1536 0
672 -1537 0
376 -1537 0
-672 -376 1537 0
893 -1538 0
993 -1538 0
-893 -993 1538 0
610 -1539 0
-822 -1539 0
-610 822 1539 0
686 -1540 0
-903 -1540 0
-686 903 1540 0
275 -1541 0
-255 -1541 0
-275 255 1541 0
-322 -1542 0
657 -1542 0
322 -657 1542 0
-656 -1543 0
125 -1543 0
656 -125 1543 0
-243 -1544 0
277 -1544 0
243 -277 1544 0
395 -1545 0
986 -1545 0
-395 -986 1545 0
853 -1546 0
-365 -1546 0
-853 365 1546 0
-83 -1547 0
811 -1547 0
83 -811 1547 0
-504 -1548 0
92 -1548 0
504 -92 1548 0
496 -1549 0
-253 -1549 0
-496 253 1549 0
203 -1550 0
-278 -1550 0
-203 278 1550 0
435 -1551 0
521 -1551 0
-435 -521 1551 0
658 -1552 0
754 -1552 0
-658 -754 1552 0
928 -1553 0
-214 -1553 0
-928 214 1553 0
-346 -1554 0
267 -1554 0
346 -267 1554 0
-164 -1555 0
218 -1555 0
164 -218 1555 0
863 -1556 0
882 -1556 0
-863 -882 1556 0
440 -1557 0
120 -1557 0
-440 -120 1557 0
-928 -1558 0
429 -1558 0
928 -429 1558 0
789 -1559 0
996 -1559 0
-789 -996 1559 0
-276 -1560 0
946 -1560 0
276 -946 1560 0
805 -1561 0
947 -1561 0
-805 -947 1561 0
904 -1562 0
722 -1562 0
-904 -722 1562 0
2 -1563 0
569 -1563 0
-2 -569 1563 0
-739 -1564 0
801 -1564 0
739 -801 1564 0
318 -1565 0
-406 -1565 0
-318 406 1565 0
413 -1566 0
739 -1566 0
-413 -739 1566 0
-82 -1567 0
75 -1567 0
82 -75 1567 0
399 -1568 0
997 -1568 0
-399 -997 1568 0
-197 -1569 0
897 -1569 0
197 -897 1569 0
182 -1570 0
-908 -1570 0
-182 908 1570 0
518 -1571 0
589 -1571 0
-518 -589 1571 0
-140 -1572 0
969 -1572 0
140 -969 1572 0
-778 -1573 0
481 -1573 0
778 -481 1573 0
-996 -1574 0
905 -1574 0
996 -905 1574 0
-723 -1575 0
538 -1575 0
723 -538 1575 0
926 -1576 0
-324 -1576 0
-926 324 1576 0
365 -1577 0
331 -1577 0
-365 -331 1577 0
568 -1578 0
311 -1578 0
-568 -311 1578 0
132 -1579 0
251 -1579 0
-132 -251 1579 0
455 -1580 0
-218 -1580 0
-455 218 1580 0
16 -1581 0
473 -1581 0
-16 -473 1581 0
-796 -1582 0
473 -1582 0
796 -473 1582 0
551 -1583 0
35 -1583 0
-551 -35 1583 0
36 -1584 0
-79 -1584 0
-36 79 1584 0
29 -1585 0
922 -1585 0
-29 -922 1585 0
660 -1586 0
859 -1586 0
-660 -859 1586 0
82 -1587 0
698 -1587 0
-82 -698 1587 0
549 -1588 0
867 -1588 0
-549 -867 1588 0
-5 -1589 0
73 -1589 0
5 -73 1589 0
-581 -1590 0
849 -1590 0
581 -849 1590 0
557 -1591 0
-902 -1591 0
-557 902 1591 0
-808 -1592 0
603 -1592 0
808 -603 1592 0
-553 -1593 0
364 -1593 0
553 -364 1593 0
230 -1594 0
929 -1594 0
-230 -929 1594 0
-539 -1595 0
146 -1595 0
539 -146 1595 0
-882 -1596 0
165 -1596 0
882 -165 1596 0
923 -1597 0
249 -1597 0
-923 -249 1597 0
-585 -1598 0
71 -1598 0
585 -71 1598 0
502 -1599 0
490 -1599 0
-502 -490 1599 0
-733 -1600 0
465 -1600 0
733 -465 1600 0
924 -1601 0
674 -1601 0
-924 -674 1601 0
960 -1602 0
738 -1602 0
-960 -738 1602 0
956 -1603 0
137 -1603 0
-956 -137 1603 0
-900 -1604 0
595 -1604 0
900 -595 1604 0
88 -1605 0
-245 -1605 0
-88 245 1605 0
-689 -1606 0
835 -1606 0
689 -835 1606 0
893 -1607 0
763 -1607 0
-893 -763 1607 0
751 -1608 0
407 -1608 0
-751 -407 1608 0
94 -1609 0
-691 -1609 0
-94 691 1609 0
621 -1610 0
540 -1610 0
-621 -540 1610 0
920 -1611 0
-838 -1611 0
-920 838 1611 0
158 -1612 0
682 -1612 0
-158 -682 1612 0
423 -1613 0
364 -1613 0
-423 -364 1613 0
868 -1614 0
210 -1614 0
-868 -210 1614 0
536 -1615 0
910 -1615 0
-536 -910 1615 0
967 -1616 0
-241 -1616 0
-967 241 1616 0
277 -1617 0
849 -1617 0
-277 -849 1617 0
640 -1618 0
-494 -1618 0
-640 494 1618 0
-72 -1619 0
53 -1619 0
72 -53 1619 0
97 -1620 0
-423 -1620 0
-97 423 1620 0
-172 -1621 0
114 -1621 0
172 -114 1621 0
157 -1622 0
921 -1622 0
-157 -921 1622 0
102 -1623 0
-973 -1623 0
-102 973 1623 0
528 -1624 0
-218 -1624 0
-528 218 1624 0
-209 -1625 0
981 -1625 0
209 -981 1625 0
-612 -1626 0
707 -1626 0
612 -707 1626 0
32 -1627 0
301 -1627 0
-32 -301 1627 0
168 -1628 0
468 -1628 0
-168 -468 1628 0
-315 -1629 0
267 -1629 0
315 -267 1629 0
426 -1630 0
617 -1630 0
-426 -617 1630 0
269 -1631 0
-733 -1631 0
-269 733 1631 0
140 -1632 0
524 -1632 0
-140 -524 1632 0
1000 -1633 0
-168 -1633 0
-1000 168 1633 0
960 -1634 0
974 -1634 0
-960 -974 1634 0
-724 -1635 0
801 -1635 0
724 -801 1635 0
984 -1636 0
993 -1636 0
-984 -993 1636 0
685 -1637 0
-78 -1637 0
-685 78 1637 0
-96 -1638 0
276 -1638 0
96 -276 1638 0
-876 -1639 0
739 -1639 0
876 -739 1639 0
253 -1640 0
89 -1640 0
-253 -89 1640 0
357 -1641 0
-965 -1641 0
-357 965 1641 0
-824 -1642 0
446 -1642 0
824 -446 1642 0
23 -1643 0
-954 -1643 0
-23 954 1643 0
280 -1644 0
765 -1644 0
-280 -765 1644 0
205 -1645 0
411 -1645 0
-205 -411 1645 0
376 -1646 0
-310 -1646 0
-376 310 1646 0
517 -1647 0
-852 -1647 0
-517 852 1647 0
416 -1648 0
-266 -1648 0
-416 266 1648 0
-920 -1649 0
778 -1649 0
920 -778 1649 0
-85 -1650 0
-737 -1651 0
707 -1651 0
737 -707 1651 0
896 -1652 0
-375 -1652 0
-896 375 1652 0
836 -1653 0
-797 -1653 0
-836 797 1653 0
-665 -1654 0
540 -1654 0
665 -540 1654 0
-717 -1655 0
202 -1655 0
717 -202 1655 0
-56 -1656 0
489 -1656 0
56 -489 1656 0
-650 -1657 0
25 -1657 0
650 -25 1657 0
200 -1658 0
497 -1658 0
-200 -497 1658 0
181 -1659 0
436 -1659 0
-181 -436 1659 0
343 -1660 0
-269 -1660 0
-343 269 1660 0
863 -1661 0
-228 -1661 0
-863 228 1661 0
295 -1662 0
-507 -1662 0
-295 507 1662 0
253 -1663 0
-463 -1663 0
-253 463 1663 0
605 -1664 0
-723 -1664 0
-605 723 1664 0
239 -1665 0
269 -1665 0
-239 -269 1665 0
-516 -1666 0
171 -1666 0
516 -171 1666 0
734 -1667 0
-446 -1667 0
-734 446 1667 0
148 -1668 0
268 -1668 0
-148 -268 1668 0
293 -1669 0
-695 -1669 0
-293 695 1669 0
664 -1670 0
-1000 -1670 0
-664 1000 1670 0
-603 -1671 0
204 -1671 0
603 -204 1671 0
904 -1672 0
750 -1672 0
-904 -750 1672 0
496 -1673 0
-216 -1673 0
-496 216 1673 0
-178 -1674 0
710 -1674 0
178 -710 1674 0
-139 -1675 0
826 -1675 0
139 -826 1675 0
-50 -1676 0
794 -1676 0
50 -794 1676 0
44 -1677 0
337 -1677 0
-44 -337 1677 0
407 -1678 0
-246 -1678 0
-407 246 1678 0
767 -1679 0
-114 -1679 0
-767 114 1679 0
367 -1680 0
998 -1680 0
-367 -998 1680 0
-275 -1681 0
954 -1681 0
275 -954 1681 0
397 -1682 0
35 -1682 0
-397 -35 1682 0
-289 -1683 0
153 -1683 0
289 -153 1683 0
216 -1684 0
-748 -1684 0
-216 748 1684 0
174 -1685 0
378 -1685 0
-174 -378 1685 0
571 -1686 0
810 -1686 0
-571 -810 1686 0
126 -1687 0
509 -1687 0
-126 -509 1687 0
269 -1688 0
644 -1688 0
-269 -644 1688 0
-301 -1689 0
795 -1689 0
301 -795 1689 0
403 -1690 0
217 -1690 0
-403 -217 1690 0
119 -1691 0
-314 -1691 0
-119 314 1691 0
338 -1692 0
801 -1692 0
-338 -801 1692 0
244 -1693 0
562 -1693 0
-244 -562 1693 0
870 -1694 0
180 -1694 0
-870 -180 1694 0
-259 -1695 0
57 -1695 0
259 -57 1695 0
-608 -1696 0
977 -1696 0
608 -977 1696 0
221 -1697 0
-461 -1697 0
-221 461 1697 0
267 -1698 0
-870 -1698 0
-267 870 1698 0
986 -1699 0
529 -1699 0
-986 -529 1699 0
333 -1700 0
524 -1700 0
-333 -524 1700 0
712 -1701 0
-489 -1701 0
-712 489 1701 0
898 -1702 0
-647 -1702 0
-898 647 1702 0
472 -1703 0
-620 -1703 0
-472 620 1703 0
-795 -1704 0
292 -1704 0
795 -292 1704 0
895 -1705 0
-428 -1705 0
-895 428 1705 0
-206 -1706 0
337 -1706 0
206 -337 1706 0
587 -1707 0
-390 -1707 0
-587 390 1707 0
798 -1708 0
330 -1708 0
-798 -330 1708 0
-737 -1709 0
127 -1709 0
737 -127 1709 0
211 -1710 0
-61 -1710 0
-211 61 1710 0
804 -1711 0
-381 -1711 0
-804 381 1711 0
-617 -1712 0
4 -1712 0
617 -4 1712 0
356 -1713 0
187 -1713 0
-356 -187 1713 0
214 -1714 0
-846 -1714 0
-214 846 1714 0
-320 -1715 0
998 -1715 0
320 -998 1715 0
-266 -1716 0
889 -1716 0
266 -889 1716 0
295 -1717 0
86 -1717 0
-295 -86 1717 0
984 -1718 0
-391 -1718 0
-984 391 1718 0
-713 -1719 0
866 -1719 0
713 -866 1719 0
-560 -1720 0
252 -1720 0
560 -252 1720 0
-673 -1721 0
218 -1721 0
673 -218 1721 0
544 -1722 0
-947 -1722 0
-544 947 1722 0
656 -1723 0
-121 -1723 0
-656 121 1723 0
-53 -1724 0
289 -1724 0
53 -289 1724 0
319 -1725 0
729 -1725 0
-319 -729 1725 0
380 -1726 0
651 -1726 0
-380 -651 1726 0
943 -1727 0
-391 -1727 0
-943 391 1727 0
63 -1728 0
-268 -1728 0
-63 268 1728 0
403 -1729 0
514 -1729 0
-403 -514 1729 0
255 -1730 0
127 -1730 0
-255 -127 1730 0
246 -1731 0
195 -1731 0
-246 -195 1731 0
775 -1732 0
-847 -1732 0
-775 847 1732 0
500 -1733 0
638 -1734 0
-197 -1734 0
-638 197 1734 0
450 -1735 0
-750 -1735 0
-450 750 1735 0
-160 -1736 0
197 -1736 0
160 -197 1736 0
719 -1737 0
116 -1737 0
-719 -116 1737 0
925 -1738 0
317 -1738 0
-925 -317 1738 0
888 -1739 0
742 -1739 0
-888 -742 1739 0
-147 -1740 0
874 -1740 0
147 -874 1740 0
552 -1741 0
-537 -1741 0
-552 537 1741 0
616 -1742 0
727 -1742 0
-616 -727 1742 0
-577 -1743 0
743 -1743 0
577 -743 1743 0
88 -1744 0
-70 -1744 0
-88 70 1744 0
142 -1745 0
221 -1745 0
-142 -221 1745 0
944 -1746 0
-753 -1746 0
-944 753 1746 0
-968 -1747 0
1 -1747 0
968 -1 1747 0
271 -1748 0
-719 -1748 0
-271 719 1748 0
639 -1749 0
290 -1749 0
-639 -290 1749 0
800 -1750 0
-799 -1750 0
-800 799 1750 0
314 -1751 0
754 -1751 0
-314 -754 1751 0
111 -1752 0
907 -1752 0
-111 -907 1752 0
536 -1753 0
185 -1753 0
-536 -185 1753 0
111 -1754 0
-823 -1754 0
-111 823 1754 0
605 -1755 0
338 -1755 0
-605 -338 1755 0
974 -1756 0
-579 -1756 0
-974 579 1756 0
771 -1757 0
899 -1757 0
-771 -899 1757 0
502 -1758 0
-783 -1758 0
-502 783 1758 0
415 -1759 0
-834 -1759 0
-415 834 1759 0
152 -1760 0
-988 -1760 0
-152 988 1760 0
815 -1761 0
-583 -1761 0
-815 583 1761 0
-308 -1762 0
498 -1762 0
308 -498 1762 0
165 -1763 0
-902 -1763 0
-165 902 1763 0
-801 -1764 0
52 -1764 0
801 -52 1764 0
869 -1765 0
827 -1765 0
-869 -827 1765 0
214 -1766 0
465 -1766 0
-214 -465 1766 0
839 -1767 0
161 -1767 0
-839 -161 1767 0
391 -1768 0
157 -1768 0
-391 -157 1768 0
-285 -1769 0
474 -1769 0
285 -474 1769 0
-97 -1770 0
654 -1770 0
97 -654 1770 0
95 -1771 0
546 -1771 0
-95 -546 1771 0
685 -1772 0
-430 -1772 0
-685 430 1772 0
260 -1773 0
-535 -1773 0
-260 535 1773 0
970 -1774 0
649 -1774 0
-970 -649 1774 0
744 -1775 0
197 -1775 0
-744 -197 1775 0
606 -1776 0
-965 -1776 0
-606 965 1776 0
576 -1777 0
767 -1777 0
-576 -767 1777 0
240 -1778 0
299 -1778 0
-240 -299 1778 0
520 -1779 0
296 -1779 0
-520 -296 1779 0
336 -1780 0
325 -1780 0
-336 -325 1780 0
-916 -1781 0
803 -1781 0
916 -803 1781 0
600 -1782 0
-200 -1782 0
-600 200 1782 0
42 -1783 0
-526 -1783 0
-42 526 1783 0
724 -1784 0
810 -1784 0
-724 -810 1784 0
-88 -1785 0
965 -1785 0
88 -965 1785 0
-255 -1786 0
961 -1786 0
255 -961 1786 0
614 -1787 0
-868 -1787 0
-614 868 1787 0
302 -1788 0
684 -1788 0
-302 -684 1788 0
3 -1789 0
-783 -1789 0
-3 783 1789 0
314 -1790 0
81 -1790 0
-314 -81 1790 0
626 -1791 0
-159 -1791 0
-626 159 1791 0
43 -1792 0
786 -1792 0
-43 -786 1792 0
420 -1793 0
-254 -1793 0
-420 254 1793 0
-341 -1794 0
923 -1794 0
341 -923 1794 0
711 -1795 0
57 -1795 0
-711 -57 1795 0
-497 -1796 0
580 -1796 0
497 -580 1796 0
-475 -1797 0
371 -1797 0
475 -371 1797 0
805 -1798 0
-212 -1798 0
-805 212 1798 0
-274 -1799 0
585 -1799 0
274 -585 1799 0
-282 -1800 0
228 -1800 0
282 -228 1800 0
752 -1801 0
-881 -1801 0
-752 881 1801 0
-700 -1802 0
626 -1802 0
700 -626 1802 0
804 -1803 0
699 -1803 0
-804 -699 1803 0
-413 -1804 0
9 -1804 0
413 -9 1804 0
-747 -1805 0
642 -1805 0
747 -642 1805 0
215 -1806 0
-10 -1806 0
-215 10 1806 0
29 -1807 0
-454 -1807 0
-29 454 1807 0
679 -1808 0
310 -1808 0
-679 -310 1808 0
-941 -1809 0
946 -1809 0
941 -946 1809 0
558 -1810 0
385 -1810 0
-558 -385 1810 0
720 -1811 0
555 -1811 0
-720 -555 1811 0
311 -1812 0
247 -1812 0
-311 -247 1812 0
-979 -1813 0
881 -1813 0
979 -881 1813 0
-869 -1814 0
323 -1814 0
869 -323 1814 0
119 -1815 0
282 -1815 0
-119 -282 1815 0
756 -1816 0
-95 -1816 0
-756 95 1816 0
-170 -1817 0
77 -1817 0
170 -77 1817 0
655 -1818 0
-457 -1818 0
-655 457 1818 0
423 -1819 0
-755 -1819 0
-423 755 1819 0
-475 -1820 0
508 -1820 0
475 -508 1820 0
119 -1821 0
221 -1821 0
-119 -221 1821 0
-191 -1822 0
65 -1822 0
191 -65 1822 0
-352 -1823 0
551 -1823 0
352 -551 1823 0
614 -1824 0
-331 -1824 0
-614 331 1824 0
-805 -1825 0
51 -1825 0
805 -51 1825 0
237 -1826 0
829 -1826 0
-237 -829 1826 0
-328 -1827 0
333 -1827 0
328 -333 1827 0
-618 -1828 0
374 -1828 0
618 -374 1828 0
455 -1829 0
777 -1829 0
-455 -777 1829 0
-69 -1830 0
409 -1830 0
69 -409 1830 0
884 -1831 0
-700 -1831 0
-884 700 1831 0
487 -1832 0
949 -1832 0
-487 -949 1832 0
535 -1833 0
942 -1833 0
-535 -942 1833 0
48 -1834 0
353 -1834 0
-48 -353 1834 0
-297 -1835 0
642 -1835 0
297 -642 1835 0
-756 -1836 0
57 -1836 0
756 -57 1836 0
-160 -1837 0
102 -1837 0
160 -102 1837 0
252 -1838 0
-78 -1838 0
-252 78 1838 0
995 -1839 0
2 -1839 0
-995 -2 1839 0
707 -1840 0
-919 -1840 0
-707 919 1840 0
-82 -1841 0
629 -1841 0
82 -629 1841 0
176 -1842 0
34 -1842 0
-176 -34 1842 0
112 -1843 0
-351 -1843 0
-112 351 1843 0
566 -1844 0
14 -1844 0
-566 -14 1844 0
560 -1845 0
778 -1845 0
-560 -778 1845 0
-616 -1846 0
928 -1846 0
616 -928 1846 0
614 -1847 0
-602 -1847 0
-614 602 1847 0
757 -1848 0
-21 -1848 0
-757 21 1848 0
-624 -1849 0
306 -1849 0
624 -306 1849 0
-577 -1850 0
527 -1850 0
577 -527 1850 0
332 -1851 0
-687 -1851 0
-332 687 1851 0
40 -1852 0
-629 -1852 0
-40 629 1852 0
328 -1853 0
-541 -1853 0
-328 541 1853 0
104 -1854 0
856 -1854 0
-104 -856 1854 0
246 -1855 0
-388 -1855 0
-246 388 1855 0
768 -1856 0
-530 -1856 0
-768 530 1856 0
-259 -1857 0
497 -1857 0
259 -497 1857 0
-75 -1858 0
314 -1858 0
75 -314 1858 0
-224 -1859 0
641 -1859 0
224 -641 1859 0
887 -1860 0
180 -1860 0
-887 -180 1860 0
588 -1861 0
-47 -1861 0
-588 47 1861 0
815 -1862 0
396 -1862 0
-815 -396 1862 0
133 -1863 0
242 -1863 0
-133 -242 1863 0
494 -1864 0
-261 -1864 0
-494 261 1864 0
622 -1865 0
444 -1865 0
-622 -444 1865 0
-904 -1866 0
889 -1866 0
904 -889 1866 0
-112 -1867 0
835 -1867 0
112 -835 1867 0
-955 -1868 0
235 -1868 0
955 -235 1868 0
32 -1869 0
563 -1869 0
-32 -563 1869 0
795 -1870 0
875 -1870 0
-795 -875 1870 0
5 -1871 0
380 -1871 0
-5 -380 1871 0
-817 -1872 0
37 -1872 0
817 -37 1872 0
310 -1873 0
630 -1873 0
-310 -630 1873 0
80 -1874 0
964 -1874 0
-80 -964 1874 0
719 -1875 0
330 -1875 0
-719 -330 1875 0
12 -1876 0
-605 -1876 0
-12 605 1876 0
-418 -1877 0
877 -1877 0
418 -877 1877 0
-330 -1878 0
788 -1878 0
330 -788 1878 0
552 -1879 0
349 -1879 0
-552 -349 1879 0
-216 -1880 0
291 -1880 0
216 -291 1880 0
-499 -1881 0
810 -1881 0
499 -810 1881 0
-584 -1882 0
970 -1882 0
584 -970 1882 0
928 -1883 0
153 -1883 0
-928 -153 1883 0
-696 -1884 0
538 -1884 0
696 -538 1884 0
-684 -1885 0
457 -1885 0
684 -457 1885 0
-636 -1886 0
609 -1886 0
636 -609 1886 0
972 -1887 0
-661 -1887 0
-972 661 1887 0
-298 -1888 0
425 -1888 0
298 -425 1888 0
296 -1889 0
-193 -1889 0
-296 193 1889 0
-192 -1890 0
539 -1890 0
192 -539 1890 0
767 -1891 0
889 -1891 0
-767 -889 1891 0
499 -1892 0
930 -1892 0
-499 -930 1892 0
882 -1893 0
-775 -1893 0
-882 775 1893 0
541 -1894 0
-494 -1894 0
-541 494 1894 0
-400 -1895 0
912 -1895 0
400 -912 1895 0
-636 -1896 0
1 -1896 0
636 -1 1896 0
-72 -1897 0
102 -1897 0
72 -102 1897 0
268 -1898 0
-559 -1898 0
-268 559 1898 0
-658 -1899 0
541 -1899 0
658 -541 1899 0
-370 -1900 0
706 -1900 0
370 -706 1900 0
928 -1901 0
-688 -1901 0
-928 688 1901 0
652 -1902 0
-52 -1902 0
-652 52 1902 0
200 -1903 0
-805 -1903 0
-200 805 1903 0
616 -1904 0
667 -1904 0
-616 -667 1904 0
155 -1905 0
-758 -1905 0
-155 758 1905 0
536 -1906 0
-35 -1906 0
-536 35 1906 0
254 -1907 0
-949 -1907 0
-254 949 1907 0
-653 -1908 0
761 -1908 0
653 -761 1908 0
783 -1909 0
-259 -1909 0
-783 259 1909 0
695 -1910 0
575 -1910 0
-695 -575 1910 0
34 -1911 0
633 -1911 0
-34 -633 1911 0
-57 -1912 0
718 -1912 0
57 -718 1912 0
-346 -1913 0
595 -1913 0
346 -595 1913 0
87 -1914 0
-572 -1914 0
-87 572 1914 0
880 -1915 0
-751 -1915 0
-880 751 1915 0
62 -1916 0
-278 -1916 0
-62 278 1916 0
567 -1917 0
-533 -1917 0
-567 533 1917 0
243 -1918 0
-358 -1918 0
-243 358 1918 0
-212 -1919 0
649 -1919 0
212 -649 1919 0
-441 -1920 0
145 -1920 0
441 -145 1920 0
678 -1921 0
-374 -1921 0
-678 374 1921 0
127 -1922 0
-788 -1922 0
-127 788 1922 0
-640 -1923 0
973 -1923 0
640 -973 1923 0
822 -1924 0
-446 -1924 0
-822 446 1924 0
583 -1925 0
-466 -1925 0
-583 466 1925 0
53 -1926 0
-293 -1926 0
-53 293 1926 0
670 -1927 0
-130 -1927 0
-670 130 1927 0
87 -1928 0
565 -1928 0
-87 -565 1928 0
-779 -1929 0
740 -1929 0
779 -740 1929 0
583 -1930 0
50 -1930 0
-583 -50 1930 0
342 -1931 0
818 -1931 0
-342 -818 1931 0
656 -1932 0
-75 -1932 0
-656 75 1932 0
-782 -1933 0
553 -1933 0
782 -553 1933 0
-864 -1934 0
511 -1934 0
864 -511 1934 0
-446 -1935 0
201 -1935 0
446 -201 1935 0
591 -1936 0
938 -1936 0
-591 -938 1936 0
975 -1937 0
-575 -1937 0
-975 575 1937 0
757 -1938 0
-772 -1938 0
-757 772 1938 0
264 -1939 0
410 -1939 0
-264 -410 1939 0
444 -1940 0
443 -1940 0
-444 -443 1940 0
-83 -1941 0
754 -1941 0
83 -754 1941 0
192 -1942 0
-49 -1942 0
-192 49 1942 0
38 -1943 0
-637 -1943 0
-38 637 1943 0
3 -1944 0
-917 -1944 0
-3 917 1944 0
-80 -1945 0
781 -1945 0
80 -781 1945 0
38 -1946 0
-180 -1946 0
-38 180 1946 0
-395 -1947 0
627 -1947 0
395 -627 1947 0
-88 -1948 0
259 -1948 0
88 -259 1948 0
132 -1949 0
-806 -1949 0
-132 806 1949 0
-357 -1950 0
443 -1950 0
357 -443 1950 0
749 -1951 0
-373 -1951 0
-749 373 1951 0
355 -1952 0
-295 -1952 0
-355 295 1952 0
871 -1953 0
166 -1953 0
-871 -166 1953 0
1000 -1954 0
845 -1954 0
-1000 -845 1954 0
424 -1955 0
-553 -1955 0
-424 553 1955 0
-282 -1956 0
181 -1956 0
282 -181 1956 0
846 -1957 0
451 -1957 0
-846 -451 1957 0
637 -1958 0
-687 -1958 0
-637 687 1958 0
-488 -1959 0
332 -1959 0
488 -332 1959 0
677 -1960 0
-892 -1960 0
-677 892 1960 0
-257 -1961 0
347 -1961 0
257 -347 1961 0
152 -1962 0
684 -1962 0
-152 -684 1962 0
819 -1963 0
34 -1963 0
-819 -34 1963 0
-328 -1964 0
23 -1964 0
328 -23 1964 0
-539 -1965 0
458 -1965 0
539 -458 1965 0
77 -1966 0
-119 -1966 0
-77 119 1966 0
355 -1967 0
-23 -1967 0
-355 23 1967 0
895 -1968 0
268 -1968 0
-895 -268 1968 0
268 -1969 0
-543 -1969 0
-268 543 1969 0
-980 -1970 0
164 -1970 0
980 -164 1970 0
927 -1971 0
-22 -1971 0
-927 22 1971 0
398 -1972 0
-110 -1972 0
-398 110 1972 0
343 -1973 0
618 -1973 0
-343 -618 1973 0
160 -1974 0
-337 -1974 0
-160 337 1974 0
61 -1975 0
-85 -1975 0
-61 85 1975 0
-181 -1976 0
210 -1976 0
181 -210 1976 0
887 -1977 0
12 -1977 0
-887 -12 1977 0
724 -1978 0
-230 -1978 0
-724 230 1978 0
900 -1979 0
-326 -1979 0
-900 326 1979 0
-753 -1980 0
541 -1980 0
753 -541 1980 0
-912 -1981 0
391 -1981 0
912 -391 1981 0
-60 -1982 0
385 -1982 0
60 -385 1982 0
-353 -1983 0
774 -1983 0
353 -774 1983 0
-322 -1984 0
418 -1984 0
322 -418 1984 0
912 -1985 0
-606 -1985 0
-912 606 1985 0
-785 -1986 0
475 -1986 0
785 -475 1986 0
-89 -1987 0
810 -1987 0
89 -810 1987 0
-682 -1988 0
658 -1988 0
682 -658 1988 0
864 -1989 0
171 -1989 0
-864 -171 1989 0
-616 -1990 0
89 -1990 0
616 -89 1990 0
479 -1991 0
611 -1991 0
-479 -611 1991 0
784 -1992 0
779 -1992 0
-784 -779 1992 0
940 -1993 0
801 -1993 0
-940 -801 1993 0
357 -1994 0
324 -1994 0
-357 -324 1994 0
-424 -1995 0
742 -1995 0
424 -742 1995 0
462 -1996 0
852 -1996 0
-462 -852 1996 0
-144 -1997 0
559 -1997 0
144 -559 1997 0
256 -1998 0
18 -1998 0
-256 -18 1998 0
982 -1999 0
-868 -1999 0
-982 868 1999 0
100 -2000 0
418 -2000 0
-100 -418 2000 0
-654 -2001 0
306 -2001 0
654 -306 2001 0
-984 -2002 0
596 -2002 0
984 -596 2002 0
848 -2003 0
-997 -2003 0
-848 997 2003 0
-446 -2004 0
894 -2005 0
-855 -2005 0
-894 855 2005 0
196 -2006 0
-447 -2006 0
-196 447 2006 0
864 -2007 0
59 -2007 0
-864 -59 2007 0
-698 -2008 0
866 -2008 0
698 -866 2008 0
943 -2009 0
670 -2009 0
-943 -670 2009 0
566 -2010 0
-982 -2010 0
-566 982 2010 0
238 -2011 0
-239 -2011 0
-238 239 2011 0
632 -2012 0
425 -2012 0
-632 -425 2012 0
902 -2013 0
100 -2013 0
-902 -100 2013 0
408 -2014 0
994 -2014 0
-408 -994 2014 0
808 -2015 0
-999 -2015 0
-808 999 2015 0
-493 -2016 0
210 -2016 0
493 -210 2016 0
-762 -2017 0
780 -2017 0
762 -780 2017 0
559 -2018 0
913 -2018 0
-559 -913 2018 0
460 -2019 0
298 -2019 0
-460 -298 2019 0
928 -2020 0
-362 -2020 0
-928 362 2020 0
200 -2021 0
-963 -2021 0
-200 963 2021 0
944 -2022 0
205 -2022 0
-944 -205 2022 0
-610 -2023 0
257 -2023 0
610 -257 2023 0
-48 -2024 0
628 -2024 0
48 -628 2024 0
303 -2025 0
692 -2025 0
-303 -692 2025 0
-563 -2026 0
269 -2026 0
563 -269 2026 0
-578 -2027 0
84 -2027 0
578 -84 2027 0
715 -2028 0
-278 -2028 0
-715 278 2028 0
941 -2029 0
817 -2029 0
-941 -817 2029 0
851 -2030 0
985 -2030 0
-851 -985 2030 0
-426 -2031 0
33 -2031 0
426 -33 2031 0
-283 -2032 0
116 -2032 0
283 -116 2032 0
392 -2033 0
-139 -2033 0
-392 139 2033 0
136 -2034 0
-391 -2034 0
-136 391 2034 0
199 -2035 0
-862 -2035 0
-199 862 2035 0
207 -2036 0
-997 -2036 0
-207 997 2036 0
3 -2037 0
-646 -2037 0
-3 646 2037 0
862 -2038 0
-931 -2038 0
-862 931 2038 0
16 -2039 0
663 -2039 0
-16 -663 2039 0
335 -2040 0
890 -2040 0
-335 -890 2040 0
942 -2041 0
-366 -2041 0
-942 366 2041 0
95 -2042 0
828 -2042 0
-95 -828 2042 0
868 -2043 0
26 -2043 0
-868 -26 2043 0
-598 -2044 0
913 -2044 0
598 -913 2044 0
-904 -2045 0
807 -2045 0
904 -807 2045 0
403 -2046 0
610 -2046 0
-403 -610 2046 0
396 -2047 0
-879 -2047 0
-396 879 2047 0
505 -2048 0
-7 -2048 0
-505 7 2048 0
448 -2049 0
-954 -2049 0
-448 954 2049 0
735 -2050 0
-35 -2050 0
-735 35 2050 0
862 -2051 0
126 -2051 0
-862 -126 2051 0
-185 -2052 0
830 -2052 0
185 -830 2052 0
442 -2053 0
-991 -2053 0
-442 991 2053 0
799 -2054 0
-19 -2054 0
-799 19 2054 0
-770 -2055 0
470 -2055 0
770 -470 2055 0
8 -2056 0
482 -2056 0
-8 -482 2056 0
580 -2057 0
626 -2057 0
-580 -626 2057 0
-264 -2058 0
392 -2058 0
264 -392 2058 0
-737 -2059 0
817 -2059 0
737 -817 2059 0
514 -2060 0
-247 -2060 0
-514 247 2060 0
-918 -2061 0
778 -2061 0
918 -778 2061 0
191 -2062 0
106 -2062 0
-191 -106 2062 0
278 -2063 0
-655 -2063 0
-278 655 2063 0
696 -2064 0
-791 -2064 0
-696 791 2064 0
55 -2065 0
-578 -2065 0
-55 578 2065 0
473 -2066 0
-127 -2066 0
-473 127 2066 0
431 -2067 0
449 -2067 0
-431 -449 2067 0
279 -2068 0
-210 -2068 0
-279 210 2068 0
440 -2069 0
-366 -2069 0
-440 366 2069 0
718 -2070 0
-909 -2070 0
-718 909 2070 0
304 -2071 0
-371 -2071 0
-304 371 2071 0
488 -2072 0
-667 -2072 0
-488 667 2072 0
483 -2073 0
75 -2073 0
-483 -75 2073 0
927 -2074 0
413 -2074 0
-927 -413 2074 0
694 -2075 0
-839 -2075 0
-694 839 2075 0
-232 -2076 0
745 -2076 0
232 -745 2076 0
710 -2077 0
-591 -2077 0
-710 591 2077 0
-331 -2078 0
19 -2078 0
331 -19 2078 0
987 -2079 0
729 -2079 0
-987 -729 2079 0
-584 -2080 0
193 -2080 0
584 -193 2080 0
-539 -2081 0
555 -2081 0
539 -555 2081 0
146 -2082 0
514 -2082 0
-146 -514 2082 0
772 -2083 0
721 -2083 0
-772 -721 2083 0
16 -2084 0
706 -2084 0
-16 -706 2084 0
178 -2085 0
449 -2085 0
-178 -449 2085 0
-528 -2086 0
718 -2086 0
528 -718 2086 0
-954 -2087 0
985 -2087 0
954 -985 2087 0
502 -2088 0
-59 -2088 0
-502 59 2088 0
155 -2089 0
-366 -2089 0
-155 366 2089 0
536 -2090 0
-501 -2090 0
-536 501 2090 0
-585 -2091 0
380 -2091 0
585 -380 2091 0
285 -2092 0
434 -2092 0
-285 -434 2092 0
303 -2093 0
-155 -2093 0
-303 155 2093 0
206 -2094 0
445 -2094 0
-206 -445 2094 0
-16 -2095 0
66 -2095 0
16 -66 2095 0
-212 -2096 0
481 -2096 0
212 -481 2096 0
24 -2097 0
847 -2097 0
-24 -847 2097 0
312 -2098 0
882 -2098 0
-312 -882 2098 0
495 -2099 0
-814 -2099 0
-495 814 2099 0
-697 -2100 0
861 -2100 0
697 -861 2100 0
390 -2101 0
114 -2101 0
-390 -114 2101 0
1000 -2102 0
670 -2102 0
-1000 -670 2102 0
718 -2103 0
-685 -2103 0
-718 685 2103 0
150 -2104 0
-875 -2104 0
-150 875 2104 0
-777 -2105 0
889 -2105 0
777 -889 2105 0
-112 -2106 0
36 -2106 0
112 -36 2106 0
69 -2107 0
33 -2107 0
-69 -33 2107 0
-73 -2108 0
526 -2108 0
73 -526 2108 0
31 -2109 0
-519 -2109 0
-31 519 2109 0
-864 -2110 0
589 -2110 0
864 -589 2110 0
899 -2111 0
251 -2111 0
-899 -251 2111 0
956 -2112 0
625 -2112 0
-956 -625 2112 0
727 -2113 0
45 -2113 0
-727 -45 2113 0
-506 -2114 0
971 -2114 0
506 -971 2114 0
668 -2115 0
-301 -2115 0
-668 301 2115 0
-107 -2116 0
429 -2116 0
107 -429 2116 0
277 -2117 0
771 -2117 0
-277 -771 2117 0
735 -2118 0
-267 -2118 0
-735 267 2118 0
-810 -2119 0
646 -2119 0
810 -646 2119 0
-472 -2120 0
829 -2120 0
472 -829 2120 0
-757 -2121 0
899 -2121 0
757 -899 2121 0
960 -2122 0
-841 -2122 0
-960 841 2122 0
-382 -2123 0
697 -2123 0
382 -697 2123 0
404 -2124 0
515 -2124 0
-404 -515 2124 0
-473 -2125 0
227 -2125 0
473 -227 2125 0
286 -2126 0
500 -2126 0
-286 -500 2126 0
610 -2127 0
313 -2127 0
-610 -313 2127 0
-65 -2128 0
779 -2128 0
65 -779 2128 0
916 -2129 0
-421 -2129 0
-916 421 2129 0
-472 -2130 0
833 -2130 0
472 -833 2130 0
571 -2131 0
-350 -2131 0
-571 350 2131 0
-34 -2132 0
85 -2132 0
34 -85 2132 0
-868 -2133 0
252 -2133 0
868 -252 2133 0
486 -2134 0
878 -2135 0
-965 -2135 0
-878 965 2135 0
496 -2136 0
970 -2136 0
-496 -970 2136 0
40 -2137 0
630 -2137 0
-40 -630 2137 0
362 -2138 0
497 -2138 0
-362 -497 2138 0
-131 -2139 0
617 -2139 0
131 -617 2139 0
-592 -2140 0
416 -2140 0
592 -416 2140 0
2 -2141 0
-455 -2141 0
-2 455 2141 0
-145 -2142 0
625 -2142 0
145 -625 2142 0
900 -2143 0
1 -2143 0
-900 -1 2143 0
152 -2144 0
941 -2144 0
-152 -941 2144 0
812 -2145 0
450 -2145 0
-812 -450 2145 0
844 -2146 0
395 -2146 0
-844 -395 2146 0
864 -2147 0
598 -2147 0
-864 -598 2147 0
-67 -2148 0
609 -2148 0
67 -609 2148 0
542 -2149 0
313 -2149 0
-542 -313 2149 0
-337 -2150 0
145 -2150 0
337 -145 2150 0
8 -2151 0
127 -2151 0
-8 -127 2151 0
-451 -2152 0
273 -2152 0
451 -273 2152 0
343 -2153 0
-821 -2153 0
-343 821 2153 0
-418 -2154 0
922 -2154 0
418 -922 2154 0
736 -2155 0
-863 -2155 0
-736 863 2155 0
-380 -2156 0
948 -2156 0
380 -948 2156 0
-920 -2157 0
389 -2157 0
920 -389 2157 0
37 -2158 0
610 -2158 0
-37 -610 2158 0
-777 -2159 0
941 -2159 0
777 -941 2159 0
940 -2160 0
779 -2160 0
-940 -779 2160 0
447 -2161 0
206 -2161 0
-447 -206 2161 0
640 -2162 0
-862 -2162 0
-640 862 2162 0
827 -2163 0
809 -2163 0
-827 -809 2163 0
-371 -2164 0
683 -2164 0
371 -683 2164 0
-152 -2165 0
163 -2165 0
152 -163 2165 0
-113 -2166 0
684 -2166 0
113 -684 2166 0
24 -2167 0
-594 -2167 0
-24 594 2167 0
-441 -2168 0
129 -2168 0
441 -129 2168 0
904 -2169 0
-236 -2169 0
-904 236 2169 0
-818 -2170 0
347 -2170 0
818 -347 2170 0
-443 -2171 0
508 -2171 0
443 -508 2171 0
38 -2172 0
257 -2172 0
-38 -257 2172 0
-298 -2173 0
689 -2173 0
298 -689 2173 0
-643 -2174 0
858 -2174 0
643 -858 2174 0
424 -2175 0
55 -2175 0
-424 -55 2175 0
-33 -2176 0
173 -2176 0
33 -173 2176 0
-368 -2177 0
900 -2177 0
368 -900 2177 0
566 -2178 0
-963 -2178 0
-566 963 2178 0
660 -2179 0
-118 -2179 0
-660 118 2179 0
-432 -2180 0
404 -2180 0
432 -404 2180 0
-201 -2181 0
506 -2181 0
201 -506 2181 0
374 -2182 0
533 -2182 0
-374 -533 2182 0
135 -2183 0
-983 -2183 0
-135 983 2183 0
756 -2184 0
170 -2184 0
-756 -170 2184 0
184 -2185 0
937 -2185 0
-184 -937 2185 0
735 -2186 0
-59 -2186 0
-735 59 2186 0
624 -2187 0
-401 -2187 0
-624 401 2187 0
95 -2188 0
-7 -2188 0
-95 7 2188 0
712 -2189 0
-606 -2189 0
-712 606 2189 0
680 -2190 0
273 -2190 0
-680 -273 2190 0
95 -2191 0
-957 -2191 0
-95 957 2191 0
430 -2192 0
-221 -2192 0
-430 221 2192 0
678 -2193 0
837 -2193 0
-678 -837 2193 0
-83 -2194 0
945 -2194 0
83 -945 2194 0
971 -2195 0
-654 -2195 0
-971 654 2195 0
286 -2196 0
-318 -2196 0
-286 318 2196 0
87 -2197 0
-196 -2197 0
-87 196 2197 0
472 -2198 0
-474 -2198 0
-472 474 2198 0
-128 -2199 0
714 -2199 0
128 -714 2199 0
740 -2200 0
97 -2200 0
-740 -97 2200 0
239 -2201 0
-540 -2201 0
-239 540 2201 0
-154 -2202 0
765 -2202 0
154 -765 2202 0
341 -2203 0
-428 -2203 0
-341 428 2203 0
280 -2204 0
58 -2204 0
-280 -58 2204 0
72 -2205 0
-359 -2205 0
-72 359 2205 0
456 -2206 0
395 -2206 0
-456 -395 2206 0
-293 -2207 0
106 -2207 0
293 -106 2207 0
-931 -2208 0
186 -2208 0
931 -186 2208 0
686 -2209 0
-645 -2209 0
-686 645 2209 0
-520 -2210 0
175 -2210 0
520 -175 2210 0
736 -2211 0
526 -2211 0
-736 -526 2211 0
126 -2212 0
817 -2212 0
-126 -817 2212 0
-44 -2213 0
531 -2213 0
44 -531 2213 0
-940 -2214 0
19 -2214 0
940 -19 2214 0
460 -2215 0
723 -2215 0
-460 -723 2215 0
-544 -2216 0
261 -2216 0
544 -261 2216 0
-61 -2217 0
115 -2217 0
61 -115 2217 0
169 -2218 0
-583 -2218 0
-169 583 2218 0
780 -2219 0
-135 -2219 0
-780 135 2219 0
134 -2220 0
-391 -2220 0
-134 391 2220 0
722 -2221 0
-974 -2221 0
-722 974 2221 0
519 -2222 0
-28 -2222 0
-519 28 2222 0
125 -2223 0
988 -2223 0
-125 -988 2223 0
95 -2224 0
553 -2224 0
-95 -553 2224 0
888 -2225 0
877 -2225 0
-888 -877 2225 0
194 -2226 0
905 -2226 0
-194 -905 2226 0
312 -2227 0
-475 -2227 0
-312 475 2227 0
325 -2228 0
340 -2228 0
-325 -340 2228 0
7 -2229 0
-450 -2229 0
-7 450 2229 0
763 -2230 0
-135 -2230 0
-763 135 2230 0
171 -2231 0
985 -2231 0
-171 -985 2231 0
-616 -2232 0
510 -2232 0
616 -510 2232 0
32 -2233 0
103 -2233 0
-32 -103 2233 0
477 -2234 0
243 -2234 0
-477 -243 2234 0
362 -2235 0
578 -2235 0
-362 -578 2235 0
640 -2236 0
836 -2236 0
-640 -836 2236 0
981 -2237 0
116 -2237 0
-981 -116 2237 0
452 -2238 0
42 -2238 0
-452 -42 2238 0
904 -2239 0
246 -2239 0
-904 -246 2239 0
-600 -2240 0
997 -2240 0
600 -997 2240 0
239 -2241 0
-814 -2241 0
-239 814 2241 0
-770 -2242 0
275 -2242 0
770 -275 2242 0
557 -2243 0
753 -2243 0
-557 -753 2243 0
517 -2244 0
641 -2244 0
-517 -641 2244 0
623 -2245 0
317 -2245 0
-623 -317 2245 0
536 -2246 0
441 -2246 0
-536 -441 2246 0
166 -2247 0
-375 -2247 0
-166 375 2247 0
-665 -2248 0
441 -2248 0
665 -441 2248 0
104 -2249 0
649 -2249 0
-104 -649 2249 0
564 -2250 0
-255 -2250 0
-564 255 2250 0
-521 -2251 0
339 -2251 0
521 -339 2251 0
-233 -2252 0
714 -2252 0
233 -714 2252 0
892 -2253 0
-38 -2253 0
-892 38 2253 0
926 -2254 0
-524 -2254 0
-926 524 2254 0
-606 -2255 0
241 -2255 0
606 -241 2255 0
67 -2256 0
-270 -2256 0
-67 270 2256 0
264 -2257 0
115 -2257 0
-264 -115 2257 0
367 -2258 0
-445 -2258 0
-367 445 2258 0
-592 -2259 0
258 -2259 0
592 -258 2259 0
535 -2260 0
413 -2260 0
-535 -413 2260 0
11 -2261 0
858 -2261 0
-11 -858 2261 0
54 -2262 0
-621 -2262 0
-54 621 2262 0
567 -2263 0
-679 -2263 0
-567 679 2263 0
552 -2264 0
-577 -2264 0
-552 577 2264 0
134 -2265 0
193 -2265 0
-134 -193 2265 0
-241 -2266 0
902 -2266 0
241 -902 2266 0
-908 -2267 0
12 -2267 0
908 -12 2267 0
-889 -2268 0
203 -2268 0
889 -203 2268 0
526 -2269 0
-772 -2269 0
-526 772 2269 0
997 -2270 0
705 -2270 0
-997 -705 2270 0
749 -2271 0
877 -2271 0
-749 -877 2271 0
525 -2272 0
657 -2272 0
-525 -657 2272 0
664 -2273 0
981 -2273 0
-664 -981 2273 0
-689 -2274 0
470 -2274 0
689 -470 2274 0
903 -2275 0
339 -2275 0
-903 -339 2275 0
-808 -2276 0
448 -2276 0
808 -448 2276 0
280 -2277 0
368 -2277 0
-280 -368 2277 0
608 -2278 0
-281 -2278 0
-608 281 2278 0
295 -2279 0
268 -2279 0
-295 -268 2279 0
935 -2280 0
511 -2280 0
-935 -511 2280 0
-592 -2281 0
652 -2281 0
592 -652 2281 0
168 -2282 0
953 -2282 0
-168 -953 2282 0
638 -2283 0
780 -2283 0
-638 -780 2283 0
781 -2284 0
-535 -2284 0
-781 535 2284 0
673 -2285 0
633 -2285 0
-673 -633 2285 0
-715 -2286 0
115 -2286 0
715 -115 2286 0
299 -2287 0
-365 -2287 0
-299 365 2287 0
-442 -2288 0
757 -2288 0
442 -757 2288 0
-709 -2289 0
426 -2289 0
709 -426 2289 0
453 -2290 0
-773 -2290 0
-453 773 2290 0
590 -2291 0
-124 -2291 0
-590 124 2291 0
-926 -2292 0
234 -2292 0
926 -234 2292 0
140 -2293 0
866 -2293 0
-140 -866 2293 0
269 -2294 0
-125 -2294 0
-269 125 2294 0
408 -2295 0
779 -2295 0
-408 -779 2295 0
808 -2296 0
222 -2296 0
-808 -222 2296 0
711 -2297 0
689 -2297 0
-711 -689 2297 0
-861 -2298 0
98 -2298 0
861 -98 2298 0
212 -2299 0
-86 -2299 0
-212 86 2299 0
-851 -2300 0
89 -2300 0
851 -89 2300 0
173 -2301 0
705 -2301 0
-173 -705 2301 0
415 -2302 0
820 -2302 0
-415 -820 2302 0
-490 -2303 0
562 -2303 0
490 -562 2303 0
959 -2304 0
-287 -2304 0
-959 287 2304 0
-936 -2305 0
76 -2305 0
936 -76 2305 0
909 -2306 0
292 -2306 0
-909 -292 2306 0
-731 -2307 0
482 -2307 0
731 -482 2307 0
479 -2308 0
882 -2308 0
-479 -882 2308 0
15 -2309 0
134 -2309 0
-15 -134 2309 0
-106 -2310 0
354 -2310 0
106 -354 2310 0
150 -2311 0
693 -2311 0
-150 -693 2311 0
40 -2312 0
-683 -2312 0
-40 683 2312 0
-136 -2313 0
35 -2313 0
136 -35 2313 0
-728 -2314 0
440 -2314 0
728 -440 2314 0
-58 -2315 0
818 -2315 0
58 -818 2315 0
215 -2316 0
357 -2316 0
-215 -357 2316 0
-617 -2317 0
454 -2317 0
617 -454 2317 0
152 -2318 0
427 -2318 0
-152 -427 2318 0
558 -2319 0
701 -2319 0
-558 -701 2319 0
519 -2320 0
19 -2320 0
-519 -19 2320 0
301 -2321 0
721 -2321 0
-301 -721 2321 0
132 -2322 0
-302 -2322 0
-132 302 2322 0
216 -2323 0
138 -2323 0
-216 -138 2323 0
-912 -2324 0
644 -2324 0
912 -644 2324 0
15 -2325 0
254 -2325 0
-15 -254 2325 0
527 -2326 0
26 -2326 0
-527 -26 2326 0
693 -2327 0
-605 -2327 0
-693 605 2327 0
204 -2328 0
347 -2328 0
-204 -347 2328 0
-555 -2329 0
523 -2329 0
555 -523 2329 0
821 -2330 0
612 -2330 0
-821 -612 2330 0
144 -2331 0
313 -2331 0
-144 -313 2331 0
268 -2332 0
875 -2332 0
-268 -875 2332 0
944 -2333 0
121 -2333 0
-944 -121 2333 0
213 -2334 0
-62 -2334 0
-213 62 2334 0
-360 -2335 0
844 -2335 0
360 -844 2335 0
-553 -2336 0
798 -2336 0
553 -798 2336 0
30 -2337 0
-94 -2337 0
-30 94 2337 0
613 -2338 0
97 -2338 0
-613 -97 2338 0
648 -2339 0
-294 -2339 0
-648 294 2339 0
208 -2340 0
-886 -2340 0
-208 886 2340 0
277 -2341 0
-431 -2341 0
-277 431 2341 0
832 -2342 0
732 -2342 0
-832 -732 2342 0
-370 -2343 0
522 -2343 0
370 -522 2343 0
423 -2344 0
266 -2344 0
-423 -266 2344 0
-149 -2345 0
363 -2345 0
149 -363 2345 0
-125 -2346 0
242 -2346 0
125 -242 2346 0
-172 -2347 0
713 -2347 0
172 -713 2347 0
751 -2348 0
-550 -2348 0
-751 550 2348 0
598 -2349 0
-854 -2349 0
-598 854 2349 0
639 -2350 0
-812 -2350 0
-639 812 2350 0
605 -2351 0
-23 -2351 0
-605 23 2351 0
685 -2352 0
570 -2352 0
-685 -570 2352 0
744 -2353 0
-796 -2353 0
-744 796 2353 0
73 -2354 0
185 -2354 0
-73 -185 2354 0
-882 -2355 0
666 -2355 0
882 -666 2355 0
-963 -2356 0
513 -2356 0
963 -513 2356 0
125 -2357 0
874 -2357 0
-125 -874 2357 0
-216 -2358 0
403 -2358 0
216 -403 2358 0
56 -2359 0
-338 -2359 0
-56 338 2359 0
-265 -2360 0
513 -2360 0
265 -513 2360 0
-145 -2361 0
707 -2361 0
145 -707 2361 0
923 -2362 0
-294 -2362 0
-923 294 2362 0
720 -2363 0
75 -2363 0
-720 -75 2363 0
224 -2364 0
-871 -2364 0
-224 871 2364 0
358 -2365 0
605 -2365 0
-358 -605 2365 0
-138 -2366 0
693 -2366 0
138 -693 2366 0
-644 -2367 0
697 -2367 0
644 -697 2367 0
984 -2368 0
-71 -2368 0
-984 71 2368 0
317 -2369 0
-140 -2369 0
-317 140 2369 0
-910 -2370 0
145 -2370 0
910 -145 2370 0
-400 -2371 0
276 -2371 0
400 -276 2371 0
502 -2372 0
-677 -2372 0
-502 677 2372 0
894 -2373 0
788 -2373 0
-894 -788 2373 0
757 -2374 0
-310 -2374 0
-757 310 2374 0
412 -2375 0
-822 -2375 0
-412 822 2375 0
-538 -2376 0
419 -2376 0
538 -419 2376 0
447 -2377 0
101 -2377 0
-447 -101 2377 0
-810 -2378 0
433 -2378 0
810 -433 2378 0
338 -2379 0
-151 -2379 0
-338 151 2379 0
676 -2380 0
138 -2380 0
-676 -138 2380 0
-109 -2381 0
505 -2381 0
109 -505 2381 0
294 -2382 0
836 -2382 0
-294 -836 2382 0
514 -2383 0
-39 -2383 0
-514 39 2383 0
236 -2384 0
-197 -2384 0
-236 197 2384 0
707 -2385 0
178 -2385 0
-707 -178 2385 0
576 -2386 0
-75 -2386 0
-576 75 2386 0
556 -2387 0
-887 -2387 0
-556 887 2387 0
-384 -2388 0
246 -2388 0
384 -246 2388 0
-107 -2389 0
699 -2389 0
107 -699 2389 0
775 -2390 0
233 -2390 0
-775 -233 2390 0
-32 -2391 0
985 -2391 0
32 -985 2391 0
-995 -2392 0
451 -2392 0
995 -451 2392 0
-432 -2393 0
531 -2393 0
432 -531 2393 0
47 -2394 0
497 -2394 0
-47 -497 2394 0
448 -2395 0
662 -2395 0
-448 -662 2395 0
-776 -2396 0
222 -2396 0
776 -222 2396 0
-810 -2397 0
257 -2397 0
810 -257 2397 0
936 -2398 0
15 -2398 0
-936 -15 2398 0
-497 -2399 0
517 -2399 0
497 -517 2399 0
635 -2400 0
-543 -2400 0
-635 543 2400 0
15 -2401 0
90 -2401 0
-15 -90 2401 0
447 -2402 0
-830 -2402 0
-447 830 2402 0
3 -2403 0
18 -2403 0
-3 -18 2403 0
687 -2404 0
829 -2404 0
-687 -829 2404 0
680 -2405 0
-67 -2405 0
-680 67 2405 0
450 -2406 0
985 -2406 0
-450 -985 2406 0
643 -2407 0
-614 -2407 0
-643 614 2407 0
118 -2408 0
-388 -2408 0
-118 388 2408 0
116 -2409 0
860 -2409 0
-116 -860 2409 0
-866 -2410 0
612 -2410 0
866 -612 2410 0
-929 -2411 0
886 -2411 0
929 -886 2411 0
552 -2412 0
74 -2412 0
-552 -74 2412 0
493 -2413 0
665 -2413 0
-493 -665 2413 0
302 -2414 0
306 -2414 0
-302 -306 2414 0
-8 -2415 0
922 -2415 0
8 -922 2415 0
701 -2416 0
-151 -2416 0
-701 151 2416 0
551 -2417 0
158 -2417 0
-551 -158 2417 0
600 -2418 0
-118 -2418 0
-600 118 2418 0
911 -2419 0
-254 -2419 0
-911 254 2419 0
935 -2420 0
-637 -2420 0
-935 637 2420 0
-436 -2421 0
666 -2421 0
436 -666 2421 0
-528 -2422 0
10 -2422 0
528 -10 2422 0
223 -2423 0
-429 -2423 0
-223 429 2423 0
5 -2424 0
612 -2424 0
-5 -612 2424 0
-369 -2425 0
715 -2425 0
369 -715 2425 0
126 -2426 0
-666 -2426 0
-126 666 2426 0
216 -2427 0
791 -2427 0
-216 -791 2427 0
953 -2428 0
25 -2428 0
-953 -25 2428 0
-360 -2429 0
921 -2429 0
360 -921 2429 0
-244 -2430 0
33 -2430 0
244 -33 2430 0
-840 -2431 0
428 -2431 0
840 -428 2431 0
10 -2432 0
457 -2432 0
-10 -457 2432 0
-963 -2433 0
468 -2433 0
963 -468 2433 0
-361 -2434 0
833 -2434 0
361 -833 2434 0
-784 -2435 0
377 -2435 0
784 -377 2435 0
580 -2436 0
363 -2436 0
-580 -363 2436 0
549 -2437 0
-500 -2437 0
-549 500 2437 0
119 -2438 0
278 -2438 0
-119 -278 2438 0
273 -2439 0
-831 -2439 0
-273 831 2439 0
672 -2440 0
556 -2440 0
-672 -556 2440 0
14 -2441 0
899 -2441 0
-14 -899 2441 0
576 -2442 0
809 -2442 0
-576 -809 2442 0
6 -2443 0
618 -2443 0
-6 -618 2443 0
24 -2444 0
765 -2444 0
-24 -765 2444 0
158 -2445 0
3 -2445 0
-158 -3 2445 0
542 -2446 0
-949 -2446 0
-542 949 2446 0
-241 -2447 0
155 -2447 0
241 -155 2447 0
637 -2448 0
-325 -2448 0
-637 325 2448 0
838 -2449 0
-810 -2449 0
-838 810 2449 0
-820 -2450 0
321 -2450 0
820 -321 2450 0
647 -2451 0
-60 -2451 0
-647 60 2451 0
703 -2452 0
83 -2452 0
-703 -83 2452 0
374 -2453 0
85 -2453 0
-374 -85 2453 0
708 -2454 0
-191 -2454 0
-708 191 2454 0
-547 -2455 0
449 -2455 0
547 -449 2455 0
846 -2456 0
-565 -2456 0
-846 565 2456 0
823 -2457 0
846 -2457 0
-823 -846 2457 0
448 -2458 0
-763 -2458 0
-448 763 2458 0
431 -2459 0
522 -2459 0
-431 -522 2459 0
527 -2460 0
298 -2460 0
-527 -298 2460 0
893 -2461 0
457 -2461 0
-893 -457 2461 0
256 -2462 0
502 -2462 0
-256 -502 2462 0
174 -2463 0
91 -2463 0
-174 -91 2463 0
-656 -2464 0
174 -2464 0
656 -174 2464 0
605 -2465 0
881 -2465 0
-605 -881 2465 0
531 -2466 0
641 -2466 0
-531 -641 2466 0
-770 -2467 0
939 -2467 0
770 -939 2467 0
-28 -2468 0
769 -2468 0
28 -769 2468 0
295 -2469 0
143 -2470 0
209 -2470 0
-143 -209 2470 0
52 -2471 0
-189 -2471 0
-52 189 2471 0
877 -2472 0
56 -2473 0
782 -2473 0
-56 -782 2473 0
-308 -2474 0
907 -2474 0
308 -907 2474 0
253 -2475 0
-335 -2475 0
-253 335 2475 0
219 -2476 0
-935 -2476 0
-219 935 2476 0
213 -2477 0
653 -2477 0
-213 -653 2477 0
-76 -2478 0
379 -2478 0
76 -379 2478 0
552 -2479 0
-169 -2479 0
-552 169 2479 0
-624 -2480 0
29 -2480 0
624 -29 2480 0
735 -2481 0
-405 -2481 0
-735 405 2481 0
318 -2482 0
971 -2482 0
-318 -971 2482 0
712 -2483 0
295 -2483 0
-712 -295 2483 0
-914 -2484 0
219 -2484 0
914 -219 2484 0
966 -2485 0
526 -2485 0
-966 -526 2485 0
262 -2486 0
421 -2486 0
-262 -421 2486 0
391 -2487 0
443 -2487 0
-391 -443 2487 0
231 -2488 0
174 -2488 0
-231 -174 2488 0
965 -2489 0
-931 -2489 0
-965 931 2489 0
30 -2490 0
-595 -2490 0
-30 595 2490 0
383 -2491 0
-642 -2491 0
-383 642 2491 0
-554 -2492 0
611 -2492 0
554 -611 2492 0
-793 -2493 0
563 -2493 0
793 -563 2493 0
844 -2494 0
562 -2494 0
-844 -562 2494 0
-16 -2495 0
996 -2495 0
16 -996 2495 0
344 -2496 0
17 -2496 0
-344 -17 2496 0
6 -2497 0
841 -2497 0
-6 -841 2497 0
-931 -2498 0
243 -2498 0
931 -243 2498 0
667 -2499 0
-445 -2499 0
-667 445 2499 0
342 -2500 0
517 -2500 0
-342 -517 2500 0
348 -2501 0
-20 -2501 0
-348 20 2501 0
935 -2502 0
-454 -2502 0
-935 454 2502 0
-945 -2503 0
132 -2503 0
945 -132 2503 0
398 -2504 0
-108 -2504 0
-398 108 2504 0
-552 -2505 0
895 -2505 0
552 -895 2505 0
667 -2506 0
42 -2506 0
-667 -42 2506 0
-880 -2507 0
426 -2507 0
880 -426 2507 0
880 -2508 0
397 -2508 0
-880 -397 2508 0
199 -2509 0
-710 -2509 0
-199 710 2509 0
711 -2510 0
65 -2510 0
-711 -65 2510 0
926 -2511 0
745 -2511 0
-926 -745 2511 0
479 -2512 0
558 -2512 0
-479 -558 2512 0
237 -2513 0
-445 -2513 0
-237 445 2513 0
-528 -2514 0
824 -2514 0
528 -824 2514 0
396 -2515 0
666 -2515 0
-396 -666 2515 0
511 -2516 0
84 -2516 0
-511 -84 2516 0
120 -2517 0
601 -2517 0
-120 -601 2517 0
493 -2518 0
-107 -2518 0
-493 107 2518 0
311 -2519 0
433 -2519 0
-311 -433 2519 0
68 -2520 0
-269 -2520 0
-68 269 2520 0
-794 -2521 0
987 -2521 0
794 -987 2521 0
-645 -2522 0
618 -2522 0
645 -618 2522 0
101 -2523 0
20 -2523 0
-101 -20 2523 0
836 -2524 0
361 -2524 0
-836 -361 2524 0
-544 -2525 0
434 -2525 0
544 -434 2525 0
631 -2526 0
-261 -2526 0
-631 261 2526 0
112 -2527 0
26 -2527 0
-112 -26 2527 0
-819 -2528 0
436 -2528 0
819 -436 2528 0
509 -2529 0
178 -2529 0
-509 -178 2529 0
-112 -2530 0
5 -2530 0
112 -5 2530 0
644 -2531 0
722 -2531 0
-644 -722 2531 0
-169 -2532 0
406 -2532 0
169 -406 2532 0
480 -2533 0
-409 -2533 0
-480 409 2533 0
-922 -2534 0
676 -2534 0
922 -676 2534 0
-304 -2535 0
353 -2535 0
304 -353 2535 0
-900 -2536 0
178 -2536 0
900 -178 2536 0
591 -2537 0
-988 -2537 0
-591 988 2537 0
172 -2538 0
337 -2538 0
-172 -337 2538 0
-496 -2539 0
949 -2539 0
496 -949 2539 0
707 -2540 0
426 -2540 0
-707 -426 2540 0
732 -2541 0
-166 -2541 0
-732 166 2541 0
591 -2542 0
39 -2542 0
-591 -39 2542 0
-532 -2543 0
921 -2543 0
532 -921 2543 0
533 -2544 0
363 -2544 0
-533 -363 2544 0
-475 -2545 0
649 -2545 0
475 -649 2545 0
939 -2546 0
665 -2546 0
-939 -665 2546 0
-385 -2547 0
559 -2547 0
385 -559 2547 0
397 -2548 0
-651 -2548 0
-397 651 2548 0
926 -2549 0
-469 -2549 0
-926 469 2549 0
-338 -2550 0
395 -2550 0
338 -395 2550 0
965 -2551 0
-741 -2551 0
-965 741 2551 0
924 -2552 0
729 -2552 0
-924 -729 2552 0
-168 -2553 0
900 -2553 0
168 -900 2553 0
11 -2554 0
545 -2554 0
-11 -545 2554 0
100 -2555 0
177 -2555 0
-100 -177 2555 0
-898 -2556 0
885 -2556 0
898 -885 2556 0
211 -2557 0
473 -2557 0
-211 -473 2557 0
904 -2558 0
613 -2558 0
-904 -613 2558 0
504 -2559 0
482 -2559 0
-504 -482 2559 0
-140 -2560 0
259 -2560 0
140 -259 2560 0
424 -2561 0
766 -2561 0
-424 -766 2561 0
-435 -2562 0
721 -2562 0
435 -721 2562 0
-96 -2563 0
127 -2563 0
96 -127 2563 0
663 -2564 0
567 -2564 0
-663 -567 2564 0
609 -2565 0
-663 -2565 0
-609 663 2565 0
518 -2566 0
-411 -2566 0
-518 411 2566 0
844 -2567 0
595 -2567 0
-844 -595 2567 0
100 -2568 0
545 -2568 0
-100 -545 2568 0
748 -2569 0
-829 -2569 0
-748 829 2569 0
-715 -2570 0
572 -2570 0
715 -572 2570 0
63 -2571 0
-749 -2571 0
-63 749 2571 0
-139 -2572 0
235 -2572 0
139 -235 2572 0
-920 -2573 0
431 -2573 0
920 -431 2573 0
679 -2574 0
-730 -2574 0
-679 730 2574 0
86 -2575 0
277 -2575 0
-86 -277 2575 0
370 -2576 0
225 -2576 0
-370 -225 2576 0
-520 -2577 0
19 -2577 0
520 -19 2577 0
-952 -2578 0
649 -2578 0
952 -649 2578 0
534 -2579 0
365 -2579 0
-534 -365 2579 0
-346 -2580 0
83 -2580 0
346 -83 2580 0
-789 -2581 0
25 -2581 0
789 -25 2581 0
430 -2582 0
-523 -2582 0
-430 523 2582 0
-550 -2583 0
905 -2583 0
550 -905 2583 0
602 -2584 0
-535 -2584 0
-602 535 2584 0
-996 -2585 0
754 -2585 0
996 -754 2585 0
-217 -2586 0
930 -2586 0
217 -930 2586 0
-744 -2587 0
828 -2587 0
744 -828 2587 0
-950 -2588 0
482 -2588 0
950 -482 2588 0
335 -2589 0
-811 -2589 0
-335 811 2589 0
893 -2590 0
161 -2590 0
-893 -161 2590 0
-84 -2591 0
722 -2591 0
84 -722 2591 0
159 -2592 0
516 -2592 0
-159 -516 2592 0
13 -2593 0
-796 -2593 0
-13 796 2593 0
28 -2594 0
105 -2594 0
-28 -105 2594 0
-940 -2595 0
121 -2595 0
940 -121 2595 0
-777 -2596 0
403 -2596 0
777 -403 2596 0
-104 -2597 0
594 -2597 0
104 -594 2597 0
328 -2598 0
332 -2598 0
-328 -332 2598 0
87 -2599 0
693 -2599 0
-87 -693 2599 0
335 -2600 0
482 -2600 0
-335 -482 2600 0
348 -2601 0
-222 -2601 0
-348 222 2601 0
-484 -2602 0
906 -2602 0
484 -906 2602 0
-359 -2603 0
945 -2603 0
359 -945 2603 0
941 -2604 0
-975 -2604 0
-941 975 2604 0
-960 -2605 0
442 -2605 0
960 -442 2605 0
628 -2606 0
-239 -2606 0
-628 239 2606 0
103 -2607 0
887 -2607 0
-103 -887 2607 0
280 -2608 0
340 -2608 0
-280 -340 2608 0
-64 -2609 0
698 -2609 0
64 -698 2609 0
68 -2610 0
219 -2610 0
-68 -219 2610 0
765 -2611 0
283 -2611 0
-765 -283 2611 0
-520 -2612 0
833 -2612 0
520 -833 2612 0
160 -2613 0
278 -2613 0
-160 -278 2613 0
215 -2614 0
298 -2614 0
-215 -298 2614 0
805 -2615 0
-117 -2615 0
-805 117 2615 0
864 -2616 0
-725 -2616 0
-864 725 2616 0
358 -2617 0
909 -2617 0
-358 -909 2617 0
14 -2618 0
-266 -2618 0
-14 266 2618 0
-976 -2619 0
215 -2619 0
976 -215 2619 0
-752 -2620 0
946 -2620 0
752 -946 2620 0
47 -2621 0
126 -2621 0
-47 -126 2621 0
944 -2622 0
-406 -2622 0
-944 406 2622 0
656 -2623 0
74 -2623 0
-656 -74 2623 0
214 -2624 0
-62 -2624 0
-214 62 2624 0
568 -2625 0
-649 -2625 0
-568 649 2625 0
143 -2626 0
939 -2626 0
-143 -939 2626 0
157 -2627 0
-396 -2627 0
-157 396 2627 0
-466 -2628 0
454 -2628 0
466 -454 2628 0
518 -2629 0
-138 -2629 0
-518 138 2629 0
284 -2630 0
681 -2630 0
-284 -681 2630 0
736 -2631 0
577 -2631 0
-736 -577 2631 0
439 -2632 0
-827 -2632 0
-439 827 2632 0
680 -2633 0
641 -2633 0
-680 -641 2633 0
870 -2634 0
547 -2634 0
-870 -547 2634 0
-810 -2635 0
59 -2635 0
810 -59 2635 0
318 -2636 0
322 -2636 0
-318 -322 2636 0
800 -2637 0
-376 -2637 0
-800 376 2637 0
530 -2638 0
778 -2638 0
-530 -778 2638 0
728 -2639 0
799 -2639 0
-728 -799 2639 0
240 -2640 0
-847 -2640 0
-240 847 2640 0
277 -2641 0
132 -2641 0
-277 -132 2641 0
976 -2642 0
579 -2642 0
-976 -579 2642 0
270 -2643 0
17 -2643 0
-270 -17 2643 0
480 -2644 0
-337 -2644 0
-480 337 2644 0
192 -2645 0
-813 -2645 0
-192 813 2645 0
-648 -2646 0
233 -2646 0
648 -233 2646 0
-858 -2647 0
818 -2647 0
858 -818 2647 0
753 -2648 0
513 -2648 0
-753 -513 2648 0
866 -2649 0
-751 -2649 0
-866 751 2649 0
582 -2650 0
-439 -2650 0
-582 439 2650 0
-882 -2651 0
578 -2651 0
882 -578 2651 0
621 -2652 0
-557 -2652 0
-621 557 2652 0
44 -2653 0
162 -2653 0
-44 -162 2653 0
342 -2654 0
868 -2654 0
-342 -868 2654 0
791 -2655 0
-146 -2655 0
-791 146 2655 0
702 -2656 0
-838 -2656 0
-702 838 2656 0
783 -2657 0
990 -2657 0
-783 -990 2657 0
341 -2658 0
475 -2658 0
-341 -475 2658 0
598 -2659 0
929 -2659 0
-598 -929 2659 0
325 -2660 0
-243 -2660 0
-325 243 2660 0
829 -2661 0
-22 -2661 0
-829 22 2661 0
-290 -2662 0
278 -2662 0
290 -278 2662 0
-56 -2663 0
478 -2663 0
56 -478 2663 0
-426 -2664 0
13 -2664 0
426 -13 2664 0
456 -2665 0
634 -2665 0
-456 -634 2665 0
-131 -2666 0
954 -2666 0
131 -954 2666 0
502 -2667 0
-207 -2667 0
-502 207 2667 0
271 -2668 0
-462 -2668 0
-271 462 2668 0
-289 -2669 0
634 -2669 0
289 -634 2669 0
335 -2670 0
-579 -2670 0
-335 579 2670 0
-946 -2671 0
965 -2671 0
946 -965 2671 0
485 -2672 0
-557 -2672 0
-485 557 2672 0
-940 -2673 0
764 -2673 0
940 -764 2673 0
320 -2674 0
-337 -2674 0
-320 337 2674 0
56 -2675 0
448 -2675 0
-56 -448 2675 0
-699 -2676 0
225 -2676 0
699 -225 2676 0
12 -2677 0
675 -2677 0
-12 -675 2677 0
165 -2678 0
-278 -2678 0
-165 278 2678 0
-538 -2679 0
114 -2679 0
538 -114 2679 0
582 -2680 0
-254 -2680 0
-582 254 2680 0
32 -2681 0
-345 -2681 0
-32 345 2681 0
186 -2682 0
145 -2682 0
-186 -145 2682 0
712 -2683 0
9 -2683 0
-712 -9 2683 0
89 -2684 0
-287 -2684 0
-89 287 2684 0
311 -2685 0
-941 -2685 0
-311 941 2685 0
8 -2686 0
-436 -2686 0
-8 436 2686 0
924 -2687 0
-190 -2687 0
-924 190 2687 0
943 -2688 0
161 -2688 0
-943 -161 2688 0
710 -2689 0
387 -2689 0
-710 -387 2689 0
120 -2690 0
-815 -2690 0
-120 815 2690 0
717 -2691 0
620 -2691 0
-717 -620 2691 0
126 -2692 0
-652 -2692 0
-126 652 2692 0
946 -2693 0
314 -2693 0
-946 -314 2693 0
-560 -2694 0
692 -2694 0
560 -692 2694 0
-717 -2695 0
770 -2695 0
717 -770 2695 0
743 -2696 0
-238 -2696 0
-743 238 2696 0
508 -2697 0
-607 -2697 0
-508 607 2697 0
596 -2698 0
235 -2698 0
-596 -235 2698 0
352 -2699 0
717 -2699 0
-352 -717 2699 0
-836 -2700 0
931 -2700 0
836 -931 2700 0
-968 -2701 0
760 -2701 0
968 -760 2701 0
558 -2702 0
42 -2702 0
-558 -42 2702 0
216 -2703 0
-585 -2703 0
-216 585 2703 0
215 -2704 0
-422 -2704 0
-215 422 2704 0
202 -2705 0
874 -2705 0
-202 -874 2705 0
605 -2706 0
-767 -2706 0
-605 767 2706 0
-925 -2707 0
609 -2707 0
925 -609 2707 0
725 -2708 0
147 -2708 0
-725 -147 2708 0
121 -2709 0
-383 -2709 0
-121 383 2709 0
815 -2710 0
-668 -2710 0
-815 668 2710 0
-319 -2711 0
49 -2711 0
319 -49 2711 0
511 -2712 0
-723 -2712 0
-511 723 2712 0
28 -2713 0
-615 -2713 0
-28 615 2713 0
691 -2714 0
-974 -2714 0
-691 974 2714 0
526 -2715 0
-671 -2715 0
-526 671 2715 0
-456 -2716 0
826 -2716 0
456 -826 2716 0
-49 -2717 0
494 -2717 0
49 -494 2717 0
983 -2718 0
-842 -2718 0
-983 842 2718 0
94 -2719 0
610 -2719 0
-94 -610 2719 0
-737 -2720 0
308 -2720 0
737 -308 2720 0
405 -2721 0
556 -2721 0
-405 -556 2721 0
-122 -2722 0
709 -2722 0
122 -709 2722 0
136 -2723 0
887 -2723 0
-136 -887 2723 0
263 -2724 0
877 -2724 0
-263 -877 2724 0
663 -2725 0
-970 -2725 0
-663 970 2725 0
518 -2726 0
-583 -2726 0
-518 583 2726 0
144 -2727 0
-751 -2727 0
-144 751 2727 0
130 -2728 0
-551 -2728 0
-130 551 2728 0
10 -2729 0
530 -2729 0
-10 -530 2729 0
162 -2730 0
202 -2730 0
-162 -202 2730 0
727 -2731 0
-948 -2731 0
-727 948 2731 0
199 -2732 0
737 -2732 0
-199 -737 2732 0
-561 -2733 0
931 -2733 0
561 -931 2733 0
264 -2734 0
377 -2734 0
-264 -377 2734 0
88 -2735 0
194 -2735 0
-88 -194 2735 0
-921 -2736 0
754 -2736 0
921 -754 2736 0
898 -2737 0
-334 -2737 0
-898 334 2737 0
-865 -2738 0
379 -2738 0
865 -379 2738 0
680 -2739 0
-688 -2739 0
-680 688 2739 0
-530 -2740 0
429 -2740 0
530 -429 2740 0
768 -2741 0
889 -2741 0
-768 -889 2741 0
602 -2742 0
-558 -2742 0
-602 558 2742 0
630 -2743 0
986 -2743 0
-630 -986 2743 0
581 -2744 0
-764 -2744 0
-581 764 2744 0
-48 -2745 0
855 -2745 0
48 -855 2745 0
767 -2746 0
435 -2746 0
-767 -435 2746 0
278 -2747 0
-143 -2747 0
-278 143 2747 0
542 -2748 0
763 -2748 0
-542 -763 2748 0
-890 -2749 0
113 -2749 0
890 -113 2749 0
-713 -2750 0
517 -2750 0
713 -517 2750 0
174 -2751 0
-717 -2751 0
-174 717 2751 0
-707 -2752 0
851 -2752 0
707 -851 2752 0
-294 -2753 0
561 -2753 0
294 -561 2753 0
255 -2754 0
-786 -2754 0
-255 786 2754 0
-568 -2755 0
437 -2755 0
568 -437 2755 0
119 -2756 0
467 -2756 0
-119 -467 2756 0
102 -2757 0
-783 -2757 0
-102 783 2757 0
28 -2758 0
-13 -2758 0
-28 13 2758 0
-706 -2759 0
590 -2759 0
706 -590 2759 0
77 -2760 0
707 -2760 0
-77 -707 2760 0
-424 -2761 0
621 -2761 0
424 -621 2761 0
232 -2762 0
-403 -2762 0
-232 403 2762 0
-454 -2763 0
514 -2763 0
454 -514 2763 0
-286 -2764 0
585 -2764 0
286 -585 2764 0
357 -2765 0
-243 -2765 0
-357 243 2765 0
-589 -2766 0
121 -2766 0
589 -121 2766 0
908 -2767 0
361 -2767 0
-908 -361 2767 0
437 -2768 0
442 -2768 0
-437 -442 2768 0
288 -2769 0
-68 -2769 0
-288 68 2769 0
766 -2770 0
-845 -2770 0
-766 845 2770 0
639 -2771 0
445 -2771 0
-639 -445 2771 0
-178 -2772 0
254 -2772 0
178 -254 2772 0
637 -2773 0
-14 -2773 0
-637 14 2773 0
759 -2774 0
231 -2774 0
-759 -231 2774 0
-961 -2775 0
563 -2775 0
961 -563 2775 0
502 -2776 0
-598 -2776 0
-502 598 2776 0
653 -2777 0
476 -2777 0
-653 -476 2777 0
-273 -2778 0
67 -2778 0
273 -67 2778 0
952 -2779 0
-756 -2779 0
-952 756 2779 0
-73 -2780 0
915 -2780 0
73 -915 2780 0
-499 -2781 0
675 -2781 0
499 -675 2781 0
-505 -2782 0
2 -2782 0
505 -2 2782 0
256 -2783 0
-91 -2783 0
-256 91 2783 0
-612 -2784 0
834 -2784 0
612 -834 2784 0
157 -2785 0
938 -2785 0
-157 -938 2785 0
646 -2786 0
476 -2786 0
-646 -476 2786 0
-305 -2787 0
430 -2787 0
305 -430 2787 0
-317 -2788 0
17 -2788 0
317 -17 2788 0
-997 -2789 0
986 -2789 0
997 -986 2789 0
749 -2790 0
-275 -2790 0
-749 275 2790 0
208 -2791 0
-914 -2791 0
-208 914 2791 0
864 -2792 0
953 -2792 0
-864 -953 2792 0
168 -2793 0
-678 -2793 0
-168 678 2793 0
576 -2794 0
-202 -2794 0
-576 202 2794 0
239 -2795 0
-523 -2795 0
-239 523 2795 0
-186 -2796 0
906 -2796 0
186 -906 2796 0
-81 -2797 0
845 -2797 0
81 -845 2797 0
848 -2798 0
334 -2798 0
-848 -334 2798 0
-749 -2799 0
593 -2799 0
749 -593 2799 0
382 -2800 0
-903 -2800 0
-382 903 2800 0
719 -2801 0
546 -2801 0
-719 -546 2801 0
-657 -2802 0
500 -2802 0
657 -500 2802 0
537 -2803 0
-439 -2803 0
-537 439 2803 0
224 -2804 0
212 -2804 0
-224 -212 2804 0
541 -2805 0
892 -2805 0
-541 -892 2805 0
280 -2806 0
-823 -2806 0
-280 823 2806 0
440 -2807 0
158 -2807 0
-440 -158 2807 0
-905 -2808 0
747 -2808 0
905 -747 2808 0
818 -2809 0
-375 -2809 0
-818 375 2809 0
600 -2810 0
-229 -2810 0
-600 229 2810 0
285 -2811 0
922 -2811 0
-285 -922 2811 0
839 -2812 0
433 -2812 0
-839 -433 2812 0
600 -2813 0
-441 -2813 0
-600 441 2813 0
156 -2814 0
418 -2814 0
-156 -418 2814 0
938 -2815 0
-919 -2815 0
-938 919 2815 0
-204 -2816 0
425 -2816 0
204 -425 2816 0
935 -2817 0
10 -2817 0
-935 -10 2817 0
816 -2818 0
-492 -2818 0
-816 492 2818 0
440 -2819 0
-734 -2819 0
-440 734 2819 0
-904 -2820 0
387 -2820 0
904 -387 2820 0
534 -2821 0
966 -2821 0
-534 -966 2821 0
101 -2822 0
-711 -2822 0
-101 711 2822 0
20 -2823 0
-828 -2823 0
-20 828 2823 0
-645 -2824 0
363 -2824 0
645 -363 2824 0
412 -2825 0
724 -2825 0
-412 -724 2825 0
-746 -2826 0
507 -2826 0
746 -507 2826 0
-190 -2827 0
930 -2827 0
190 -930 2827 0
-992 -2828 0
613 -2828 0
992 -613 2828 0
-250 -2829 0
148 -2829 0
250 -148 2829 0
88 -2830 0
-931 -2830 0
-88 931 2830 0
-657 -2831 0
563 -2831 0
657 -563 2831 0
980 -2832 0
-5 -2832 0
-980 5 2832 0
765 -2833 0
-828 -2833 0
-765 828 2833 0
-315 -2834 0
58 -2834 0
315 -58 2834 0
155 -2835 0
-887 -2835 0
-155 887 2835 0
376 -2836 0
870 -2836 0
-376 -870 2836 0
484 -2837 0
-805 -2837 0
-484 805 2837 0
24 -2838 0
-456 -2838 0
-24 456 2838 0
-850 -2839 0
554 -2839 0
850 -554 2839 0
589 -2840 0
-357 -2840 0
-589 357 2840 0
504 -2841 0
-501 -2841 0
-504 501 2841 0
84 -2842 0
-29 -2842 0
-84 29 2842 0
635 -2843 0
-55 -2843 0
-635 55 2843 0
957 -2844 0
-788 -2844 0
-957 788 2844 0
400 -2845 0
-95 -2845 0
-400 95 2845 0
38 -2846 0
602 -2846 0
-38 -602 2846 0
83 -2847 0
-311 -2847 0
-83 311 2847 0
535 -2848 0
-498 -2848 0
-535 498 2848 0
62 -2849 0
978 -2849 0
-62 -978 2849 0
92 -2850 0
370 -2850 0
-92 -370 2850 0
522 -2851 0
209 -2851 0
-522 -209 2851 0
776 -2852 0
-342 -2852 0
-776 342 2852 0
-400 -2853 0
218 -2853 0
400 -218 2853 0
318 -2854 0
-578 -2854 0
-318 578 2854 0
495 -2855 0
-554 -2855 0
-495 554 2855 0
599 -2856 0
341 -2856 0
-599 -341 2856 0
-459 -2857 0
51 -2857 0
459 -51 2857 0
500 -2858 0
811 -2858 0
-500 -811 2858 0
-878 -2859 0
833 -2859 0
878 -833 2859 0
232 -2860 0
-46 -2860 0
-232 46 2860 0
669 -2861 0
628 -2861 0
-669 -628 2861 0
532 -2862 0
-629 -2862 0
-532 629 2862 0
878 -2863 0
867 -2863 0
-878 -867 2863 0
-872 -2864 0
789 -2864 0
872 -789 2864 0
965 -2865 0
970 -2865 0
-965 -970 2865 0
-437 -2866 0
857 -2866 0
437 -857 2866 0
191 -2867 0
683 -2867 0
-191 -683 2867 0
942 -2868 0
-471 -2868 0
-942 471 2868 0
-982 -2869 0
481 -2869 0
982 -481 2869 0
22 -2870 0
963 -2870 0
-22 -963 2870 0
927 -2871 0
-411 -2871 0
-927 411 2871 0
115 -2872 0
-902 -2872 0
-115 902 2872 0
-184 -2873 0
133 -2873 0
184 -133 2873 0
159 -2874 0
-324 -2874 0
-159 324 2874 0
-409 -2875 0
266 -2875 0
409 -266 2875 0
85 -2876 0
20 -2876 0
-85 -20 2876 0
416 -2877 0
-130 -2877 0
-416 130 2877 0
-40 -2878 0
667 -2878 0
40 -667 2878 0
568 -2879 0
14 -2879 0
-568 -14 2879 0
338 -2880 0
-215 -2880 0
-338 215 2880 0
563 -2881 0
-527 -2881 0
-563 527 2881 0
60 -2882 0
945 -2882 0
-60 -945 2882 0
-185 -2883 0
569 -2883 0
185 -569 2883 0
668 -2884 0
827 -2884 0
-668 -827 2884 0
552 -2885 0
627 -2885 0
-552 -627 2885 0
477 -2886 0
641 -2886 0
-477 -641 2886 0
-186 -2887 0
42 -2887 0
186 -42 2887 0
294 -2888 0
-255 -2888 0
-294 255 2888 0
109 -2889 0
-935 -2889 0
-109 935 2889 0
440 -2890 0
-521 -2890 0
-440 521 2890 0
-976 -2891 0
449 -2891 0
976 -449 2891 0
-596 -2892 0
673 -2892 0
596 -673 2892 0
-401 -2893 0
758 -2893 0
401 -758 2893 0
902 -2894 0
-615 -2894 0
-902 615 2894 0
431 -2895 0
807 -2895 0
-431 -807 2895 0
89 -2896 0
-231 -2896 0
-89 231 2896 0
406 -2897 0
588 -2897 0
-406 -588 2897 0
95 -2898 0
-76 -2898 0
-95 76 2898 0
414 -2899 0
-580 -2899 0
-414 580 2899 0
718 -2900 0
905 -2900 0
-718 -905 2900 0
294 -2901 0
-21 -2901 0
-294 21 2901 0
951 -2902 0
526 -2902 0
-951 -526 2902 0
531 -2903 0
977 -2903 0
-531 -977 2903 0
-347 -2904 0
780 -2904 0
347 -780 2904 0
782 -2905 0
172 -2905 0
-782 -172 2905 0
2 -2906 0
-327 -2906 0
-2 327 2906 0
908 -2907 0
137 -2907 0
-908 -137 2907 0
-524 -2908 0
651 -2908 0
524 -651 2908 0
597 -2909 0
593 -2909 0
-597 -593 2909 0
489 -2910 0
-239 -2910 0
-489 239 2910 0
-867 -2911 0
322 -2911 0
867 -322 2911 0
-89 -2912 0
628 -2912 0
89 -628 2912 0
628 -2913 0
353 -2913 0
-628 -353 2913 0
303 -2914 0
877 -2914 0
-303 -877 2914 0
251 -2915 0
67 -2915 0
-251 -67 2915 0
670 -2916 0
459 -2916 0
-670 -459 2916 0
404 -2917 0
-500 -2917 0
-404 500 2917 0
-307 -2918 0
257 -2918 0
307 -257 2918 0
359 -2919 0
837 -2919 0
-359 -837 2919 0
318 -2920 0
275 -2920 0
-318 -275 2920 0
533 -2921 0
-476 -2921 0
-533 476 2921 0
527 -2922 0
-140 -2922 0
-527 140 2922 0
780 -2923 0
793 -2923 0
-780 -793 2923 0
-422 -2924 0
153 -2924 0
422 -153 2924 0
935 -2925 0
-429 -2925 0
-935 429 2925 0
265 -2926 0
-119 -2926 0
-265 119 2926 0
431 -2927 0
-87 -2927 0
-431 87 2927 0
661 -2928 0
-197 -2928 0
-661 197 2928 0
338 -2929 0
97 -2929 0
-338 -97 2929 0
783 -2930 0
10 -2930 0
-783 -10 2930 0
896 -2931 0
-289 -2931 0
-896 289 2931 0
902 -2932 0
217 -2932 0
-902 -217 2932 0
300 -2933 0
-717 -2933 0
-300 717 2933 0
222 -2934 0
852 -2934 0
-222 -852 2934 0
932 -2935 0
417 -2935 0
-932 -417 2935 0
165 -2936 0
164 -2936 0
-165 -164 2936 0
-122 -2937 0
473 -2937 0
122 -473 2937 0
648 -2938 0
760 -2938 0
-648 -760 2938 0
493 -2939 0
978 -2939 0
-493 -978 2939 0
-53 -2940 0
835 -2940 0
53 -835 2940 0
373 -2941 0
-61 -2941 0
-373 61 2941 0
276 -2942 0
114 -2942 0
-276 -114 2942 0
310 -2943 0
337 -2943 0
-310 -337 2943 0
751 -2944 0
561 -2944 0
-751 -561 2944 0
-217 -2945 0
969 -2945 0
217 -969 2945 0
914 -2946 0
794 -2946 0
-914 -794 2946 0
-520 -2947 0
577 -2947 0
520 -577 2947 0
-899 -2948 0
673 -2948 0
899 -673 2948 0
280 -2949 0
-155 -2949 0
-280 155 2949 0
572 -2950 0
571 -2950 0
-572 -571 2950 0
-837 -2951 0
323 -2951 0
837 -323 2951 0
678 -2952 0
-613 -2952 0
-678 613 2952 0
182 -2953 0
-156 -2953 0
-182 156 2953 0
719 -2954 0
-804 -2954 0
-719 804 2954 0
309 -2955 0
131 -2955 0
-309 -131 2955 0
-946 -2956 0
907 -2956 0
946 -907 2956 0
871 -2957 0
789 -2957 0
-871 -789 2957 0
79 -2958 0
219 -2958 0
-79 -219 2958 0
-44 -2959 0
251 -2959 0
44 -251 2959 0
656 -2960 0
-629 -2960 0
-656 629 2960 0
-506 -2961 0
641 -2961 0
506 -641 2961 0
119 -2962 0
346 -2962 0
-119 -346 2962 0
935 -2963 0
-753 -2963 0
-935 753 2963 0
305 -2964 0
-407 -2964 0
-305 407 2964 0
251 -2965 0
547 -2965 0
-251 -547 2965 0
-429 -2966 0
602 -2966 0
429 -602 2966 0
275 -2967 0
106 -2967 0
-275 -106 2967 0
-80 -2968 0
345 -2968 0
80 -345 2968 0
526 -2969 0
673 -2969 0
-526 -673 2969 0
886 -2970 0
665 -2970 0
-886 -665 2970 0
319 -2971 0
869 -2971 0
-319 -869 2971 0
-600 -2972 0
516 -2972 0
600 -516 2972 0
312 -2973 0
741 -2973 0
-312 -741 2973 0
-177 -2974 0
20 -2974 0
177 -20 2974 0
135 -2975 0
657 -2975 0
-135 -657 2975 0
810 -2976 0
-511 -2976 0
-810 511 2976 0
-748 -2977 0
809 -2977 0
748 -809 2977 0
-290 -2978 0
89 -2978 0
290 -89 2978 0
823 -2979 0
-862 -2979 0
-823 862 2979 0
-781 -2980 0
178 -2980 0
781 -178 2980 0
768 -2981 0
-267 -2981 0
-768 267 2981 0
343 -2982 0
298 -2982 0
-343 -298 2982 0
-932 -2983 0
588 -2983 0
932 -588 2983 0
630 -2984 0
-567 -2984 0
-630 567 2984 0
510 -2985 0
266 -2985 0
-510 -266 2985 0
286 -2986 0
106 -2986 0
-286 -106 2986 0
479 -2987 0
-678 -2987 0
-479 678 2987 0
511 -2988 0
129 -2988 0
-511 -129 2988 0
685 -2989 0
156 -2989 0
-685 -156 2989 0
852 -2990 0
2 -2990 0
-852 -2 2990 0
-488 -2991 0
436 -2991 0
488 -436 2991 0
116 -2992 0
433 -2992 0
-116 -433 2992 0
833 -2993 0
-383 -2993 0
-833 383 2993 0
869 -2994 0
-92 -2994 0
-869 92 2994 0
-274 -2995 0
643 -2995 0
274 -643 2995 0
847 -2996 0
-191 -2996 0
-847 191 2996 0
867 -2997 0
410 -2997 0
-867 -410 2997 0
224 -2998 0
865 -2998 0
-224 -865 2998 0
167 -2999 0
-925 -2999 0
-167 925 2999 0
784 -3000 0
458 -3000 0
-784 -458 3000 0
942 -3001 0
156 -3001 0
-942 -156 3001 0
443 -3002 0
-566 -3002 0
-443 566 3002 0
235 -3003 0
219 -3003 0
-235 -219 3003 0
215 -3004 0
-588 -3004 0
-215 588 3004 0
3 -3005 0
-701 -3005 0
-3 701 3005 0
599 -3006 0
746 -3006 0
-599 -746 3006 0
756 -3007 0
-695 -3007 0
-756 695 3007 0
959 -3008 0
481 -3008 0
-959 -481 3008 0
-602 -3009 0
580 -3009 0
602 -580 3009 0
602 -3010 0
874 -3010 0
-602 -874 3010 0
926 -3011 0
-148 -3011 0
-926 148 3011 0
-937 -3012 0
509 -3012 0
937 -509 3012 0
847 -3013 0
-36 -3013 0
-847 36 3013 0
324 -3014 0
-76 -3014 0
-324 76 3014 0
-384 -3015 0
388 -3015 0
384 -388 3015 0
-529 -3016 0
307 -3016 0
529 -307 3016 0
318 -3017 0
986 -3017 0
-318 -986 3017 0
925 -3018 0
18 -3018 0
-925 -18 3018 0
855 -3019 0
858 -3019 0
-855 -858 3019 0
407 -3020 0
197 -3020 0
-407 -197 3020 0
-594 -3021 0
173 -3021 0
594 -173 3021 0
642 -3022 0
-71 -3022 0
-642 71 3022 0
-715 -3023 0
269 -3023 0
715 -269 3023 0
319 -3024 0
-215 -3024 0
-319 215 3024 0
595 -3025 0
-886 -3025 0
-595 886 3025 0
744 -3026 0
13 -3026 0
-744 -13 3026 0
5 -3027 0
-828 -3027 0
-5 828 3027 0
-181 -3028 0
962 -3028 0
181 -962 3028 0
999 -3029 0
340 -3029 0
-999 -340 3029 0
103 -3030 0
541 -3030 0
-103 -541 3030 0
310 -3031 0
275 -3031 0
-310 -275 3031 0
418 -3032 0
89 -3032 0
-418 -89 3032 0
278 -3033 0
-134 -3033 0
-278 134 3033 0
-333 -3034 0
490 -3034 0
333 -490 3034 0
7 -3035 0
-926 -3035 0
-7 926 3035 0
647 -3036 0
285 -3036 0
-647 -285 3036 0
166 -3037 0
-917 -3037 0
-166 917 3037 0
678 -3038 0
578 -3038 0
-678 -578 3038 0
936 -3039 0
473 -3039 0
-936 -473 3039 0
231 -3040 0
-228 -3040 0
-231 228 3040 0
829 -3041 0
-333 -3041 0
-829 333 3041 0
540 -3042 0
242 -3042 0
-540 -242 3042 0
342 -3043 0
980 -3043 0
-342 -980 3043 0
715 -3044 0
-974 -3044 0
-715 974 3044 0
792 -3045 0
498 -3045 0
-792 -498 3045 0
-67 -3046 0
51 -3046 0
67 -51 3046 0
485 -3047 0
-231 -3047 0
-485 231 3047 0
560 -3048 0
-760 -3048 0
-560 760 3048 0
961 -3049 0
985 -3049 0
-961 -985 3049 0
751 -3050 0
881 -3050 0
-751 -881 3050 0
119 -3051 0
-941 -3051 0
-119 941 3051 0
-152 -3052 0
66 -3052 0
152 -66 3052 0
-232 -3053 0
663 -3053 0
232 -663 3053 0
943 -3054 0
-86 -3054 0
-943 86 3054 0
160 -3055 0
-939 -3055 0
-160 939 3055 0
787 -3056 0
-183 -3056 0
-787 183 3056 0
802 -3057 0
737 -3057 0
-802 -737 3057 0
-194 -3058 0
70 -3058 0
194 -70 3058 0
360 -3059 0
609 -3059 0
-360 -609 3059 0
-444 -3060 0
475 -3060 0
444 -475 3060 0
366 -3061 0
-979 -3061 0
-366 979 3061 0
519 -3062 0
-602 -3062 0
-519 602 3062 0
727 -3063 0
902 -3063 0
-727 -902 3063 0
-816 -3064 0
353 -3064 0
816 -353 3064 0
43 -3065 0
-543 -3065 0
-43 543 3065 0
628 -3066 0
-61 -3066 0
-628 61 3066 0
-569 -3067 0
428 -3067 0
569 -428 3067 0
354 -3068 0
-583 -3068 0
-354 583 3068 0
388 -3069 0
-270 -3069 0
-388 270 3069 0
24 -3070 0
-819 -3070 0
-24 819 3070 0
701 -3071 0
-76 -3071 0
-701 76 3071 0
-585 -3072 0
885 -3072 0
585 -885 3072 0
-322 -3073 0
309 -3073 0
322 -309 3073 0
-17 -3074 0
457 -3074 0
17 -457 3074 0
414 -3075 0
-762 -3075 0
-414 762 3075 0
88 -3076 0
165 -3076 0
-88 -165 3076 0
917 -3077 0
-254 -3077 0
-917 254 3077 0
446 -3078 0
707 -3078 0
-446 -707 3078 0
-408 -3079 0
769 -3079 0
408 -769 3079 0
-98 -3080 0
827 -3080 0
98 -827 3080 0
539 -3081 0
-381 -3081 0
-539 381 3081 0
870 -3082 0
-877 -3082 0
-870 877 3082 0
-921 -3083 0
290 -3083 0
921 -290 3083 0
-816 -3084 0
623 -3084 0
816 -623 3084 0
37 -3085 0
-655 -3085 0
-37 655 3085 0
968 -3086 0
-21 -3086 0
-968 21 3086 0
263 -3087 0
185 -3087 0
-263 -185 3087 0
101 -3088 0
859 -3088 0
-101 -859 3088 0
792 -3089 0
171 -3090 0
313 -3090 0
-171 -313 3090 0
368 -3091 0
366 -3091 0
-368 -366 3091 0
984 -3092 0
-844 -3092 0
-984 844 3092 0
663 -3093 0
972 -3093 0
-663 -972 3093 0
15 -3094 0
-569 -3094 0
-15 569 3094 0
-808 -3095 0
262 -3095 0
808 -262 3095 0
350 -3096 0
-175 -3096 0
-350 175 3096 0
266 -3097 0
817 -3097 0
-266 -817 3097 0
165 -3098 0
-364 -3098 0
-165 364 3098 0
984 -3099 0
317 -3099 0
-984 -317 3099 0
-459 -3100 0
130 -3100 0
459 -130 3100 0
256 -3101 0
-585 -3101 0
-256 585 3101 0
-13 -3102 0
386 -3102 0
13 -386 3102 0
157 -3103 0
585 -3103 0
-157 -585 3103 0
-990 -3104 0
753 -3104 0
990 -753 3104 0
232 -3105 0
316 -3105 0
-232 -316 3105 0
120 -3106 0
237 -3106 0
-120 -237 3106 0
495 -3107 0
-190 -3107 0
-495 190 3107 0
794 -3108 0
257 -3108 0
-794 -257 3108 0
80 -3109 0
-423 -3109 0
-80 423 3109 0
229 -3110 0
657 -3110 0
-229 -657 3110 0
-99 -3111 0
93 -3111 0
99 -93 3111 0
-570 -3112 0
74 -3112 0
570 -74 3112 0
116 -3113 0
82 -3113 0
-116 -82 3113 0
821 -3114 0
108 -3114 0
-821 -108 3114 0
997 -3115 0
-141 -3115 0
-997 141 3115 0
915 -3116 0
290 -3116 0
-915 -290 3116 0
2 -3117 0
329 -3117 0
-2 -329 3117 0
326 -3118 0
-694 -3118 0
-326 694 3118 0
336 -3119 0
-143 -3119 0
-336 143 3119 0
1000 -3120 0
-639 -3120 0
-1000 639 3120 0
-96 -3121 0
543 -3121 0
96 -543 3121 0
-829 -3122 0
418 -3122 0
829 -418 3122 0
736 -3123 0
-399 -3123 0
-736 399 3123 0
671 -3124 0
956 -3124 0
-671 -956 3124 0
45 -3125 0
-956 -3125 0
-45 956 3125 0
-482 -3126 0
501 -3126 0
482 -501 3126 0
878 -3127 0
-477 -3127 0
-878 477 3127 0
562 -3128 0
-798 -3128 0
-562 798 3128 0
-554 -3129 0
698 -3129 0
554 -698 3129 0
-755 -3130 0
162 -3130 0
755 -162 3130 0
975 -3131 0
-834 -3131 0
-975 834 3131 0
424 -3132 0
665 -3132 0
-424 -665 3132 0
619 -3133 0
89 -3133 0
-619 -89 3133 0
-632 -3134 0
801 -3134 0
632 -801 3134 0
193 -3135 0
-791 -3135 0
-193 791 3135 0
517 -3136 0
-548 -3136 0
-517 548 3136 0
637 -3137 0
-702 -3137 0
-637 702 3137 0
-307 -3138 0
779 -3138 0
307 -779 3138 0
-706 -3139 0
678 -3139 0
706 -678 3139 0
486 -3140 0
93 -3140 0
-486 -93 3140 0
-666 -3141 0
964 -3141 0
666 -964 3141 0
759 -3142 0
-66 -3142 0
-759 66 3142 0
-540 -3143 0
196 -3143 0
540 -196 3143 0
703 -3144 0
717 -3144 0
-703 -717 3144 0
-771 -3145 0
42 -3145 0
771 -42 3145 0
592 -3146 0
843 -3146 0
-592 -843 3146 0
-544 -3147 0
942 -3147 0
544 -942 3147 0
752 -3148 0
909 -3148 0
-752 -909 3148 0
-328 -3149 0
37 -3149 0
328 -37 3149 0
399 -3150 0
-861 -3150 0
-399 861 3150 0
-1000 -3151 0
620 -3151 0
1000 -620 3151 0
-704 -3152 0
404 -3152 0
704 -404 3152 0
-584 -3153 0
819 -3153 0
584 -819 3153 0
454 -3154 0
-68 -3154 0
-454 68 3154 0
776 -3155 0
282 -3155 0
-776 -282 3155 0
629 -3156 0
-597 -3156 0
-629 597 3156 0
-385 -3157 0
891 -3157 0
385 -891 3157 0
-616 -3158 0
30 -3158 0
616 -30 3158 0
646 -3159 0
-503 -3159 0
-646 503 3159 0
576 -3160 0
-263 -3160 0
-576 263 3160 0
559 -3161 0
-722 -3161 0
-559 722 3161 0
589 -3162 0
187 -3162 0
-589 -187 3162 0
-248 -3163 0
318 -3163 0
248 -318 3163 0
-941 -3164 0
674 -3164 0
941 -674 3164 0
-192 -3165 0
101 -3165 0
192 -101 3165 0
110 -3166 0
-331 -3166 0
-110 331 3166 0
191 -3167 0
-175 -3167 0
-191 175 3167 0
-490 -3168 0
662 -3168 0
490 -662 3168 0
80 -3169 0
-829 -3170 0
321 -3170 0
829 -321 3170 0
828 -3171 0
802 -3171 0
-828 -802 3171 0
139 -3172 0
954 -3172 0
-139 -954 3172 0
912 -3173 0
-844 -3173 0
-912 844 3173 0
94 -3174 0
652 -3174 0
-94 -652 3174 0
-252 -3175 0
817 -3175 0
252 -817 3175 0
-51 -3176 0
705 -3176 0
51 -705 3176 0
-248 -3177 0
928 -3177 0
248 -928 3177 0
-170 -3178 0
385 -3178 0
170 -385 3178 0
-424 -3179 0
998 -3179 0
424 -998 3179 0
380 -3180 0
-605 -3180 0
-380 605 3180 0
-632 -3181 0
401 -3181 0
632 -401 3181 0
327 -3182 0
858 -3182 0
-327 -858 3182 0
580 -3183 0
-981 -3183 0
-580 981 3183 0
560 -3184 0
-601 -3184 0
-560 601 3184 0
932 -3185 0
547 -3185 0
-932 -547 3185 0
-8 -3186 0
135 -3186 0
8 -135 3186 0
822 -3187 0
21 -3187 0
-822 -21 3187 0
413 -3188 0
211 -3188 0
-413 -211 3188 0
880 -3189 0
-87 -3189 0
-880 87 3189 0
-1 -3190 0
996 -3190 0
1 -996 3190 0
687 -3191 0
75 -3191 0
-687 -75 3191 0
246 -3192 0
-109 -3192 0
-246 109 3192 0
-976 -3193 0
692 -3193 0
976 -692 3193 0
492 -3194 0
443 -3194 0
-492 -443 3194 0
-986 -3195 0
180 -3195 0
986 -180 3195 0
511 -3196 0
54 -3196 0
-511 -54 3196 0
-229 -3197 0
401 -3197 0
229 -401 3197 0
-522 -3198 0
617 -3198 0
522 -617 3198 0
-170 -3199 0
710 -3199 0
170 -710 3199 0
343 -3200 0
-493 -3200 0
-343 493 3200 0
462 -3201 0
243 -3201 0
-462 -243 3201 0
77 -3202 0
-708 -3202 0
-77 708 3202 0
-982 -3203 0
713 -3203 0
982 -713 3203 0
-860 -3204 0
337 -3204 0
860 -337 3204 0
-575 -3205 0
953 -3205 0
575 -953 3205 0
222 -3206 0
-887 -3206 0
-222 887 3206 0
102 -3207 0
-981 -3207 0
-102 981 3207 0
253 -3208 0
-741 -3208 0
-253 741 3208 0
23 -3209 0
271 -3209 0
-23 -271 3209 0
93 -3210 0
444 -3210 0
-93 -444 3210 0
239 -3211 0
900 -3211 0
-239 -900 3211 0
319 -3212 0
-789 -3212 0
-319 789 3212 0
-560 -3213 0
178 -3213 0
560 -178 3213 0
503 -3214 0
10 -3214 0
-503 -10 3214 0
455 -3215 0
-266 -3215 0
-455 266 3215 0
895 -3216 0
537 -3216 0
-895 -537 3216 0
968 -3217 0
273 -3217 0
-968 -273 3217 0
-252 -3218 0
731 -3218 0
252 -731 3218 0
170 -3219 0
-471 -3219 0
-170 471 3219 0
-480 -3220 0
787 -3220 0
480 -787 3220 0
592 -3221 0
71 -3221 0
-592 -71 3221 0
-706 -3222 0
204 -3222 0
706 -204 3222 0
448 -3223 0
964 -3223 0
-448 -964 3223 0
-234 -3224 0
562 -3224 0
234 -562 3224 0
227 -3225 0
817 -3225 0
-227 -817 3225 0
992 -3226 0
-198 -3226 0
-992 198 3226 0
-347 -3227 0
625 -3227 0
347 -625 3227 0
16 -3228 0
-18 -3228 0
-16 18 3228 0
623 -3229 0
-322 -3229 0
-623 322 3229 0
184 -3230 0
598 -3230 0
-184 -598 3230 0
39 -3231 0
-340 -3231 0
-39 340 3231 0
-192 -3232 0
277 -3232 0
192 -277 3232 0
-321 -3233 0
578 -3233 0
321 -578 3233 0
742 -3234 0
788 -3234 0
-742 -788 3234 0
655 -3235 0
-287 -3235 0
-655 287 3235 0
540 -3236 0
218 -3236 0
-540 -218 3236 0
-462 -3237 0
194 -3237 0
462 -194 3237 0
294 -3238 0
290 -3238 0
-294 -290 3238 0
551 -3239 0
58 -3239 0
-551 -58 3239 0
798 -3240 0
874 -3240 0
-798 -874 3240 0
48 -3241 0
359 -3241 0
-48 -359 3241 0
-633 -3242 0
769 -3242 0
633 -769 3242 0
963 -3243 0
-703 -3243 0
-963 703 3243 0
-744 -3244 0
247 -3244 0
744 -247 3244 0
888 -3245 0
724 -3245 0
-888 -724 3245 0
240 -3246 0
-408 -3246 0
-240 408 3246 0
-435 -3247 0
523 -3247 0
435 -523 3247 0
774 -3248 0
43 -3248 0
-774 -43 3248 0
846 -3249 0
475 -3249 0
-846 -475 3249 0
-306 -3250 0
433 -3250 0
306 -433 3250 0
301 -3251 0
-743 -3251 0
-301 743 3251 0
526 -3252 0
-594 -3252 0
-526 594 3252 0
-556 -3253 0
177 -3253 0
556 -177 3253 0
63 -3254 0
273 -3254 0
-63 -273 3254 0
576 -3255 0
661 -3255 0
-576 -661 3255 0
248 -3256 0
-995 -3256 0
-248 995 3256 0
157 -3257 0
-406 -3257 0
-157 406 3257 0
310 -3258 0
-174 -3258 0
-310 174 3258 0
46 -3259 0
182 -3259 0
-46 -182 3259 0
757 -3260 0
332 -3260 0
-757 -332 3260 0
-219 -3261 0
729 -3261 0
219 -729 3261 0
221 -3262 0
-271 -3262 0
-221 271 3262 0
757 -3263 0
-614 -3263 0
-757 614 3263 0
916 -3264 0
-406 -3264 0
-916 406 3264 0
680 -3265 0
-107 -3265 0
-680 107 3265 0
615 -3266 0
-310 -3266 0
-615 310 3266 0
-713 -3267 0
965 -3267 0
713 -965 3267 0
-785 -3268 0
810 -3268 0
785 -810 3268 0
591 -3269 0
161 -3269 0
-591 -161 3269 0
56 -3270 0
-2 -3270 0
-56 2 3270 0
-556 -3271 0
121 -3271 0
556 -121 3271 0
-8 -3272 0
575 -3272 0
8 -575 3272 0
60 -3273 0
723 -3273 0
-60 -723 3273 0
-554 -3274 0
5 -3274 0
554 -5 3274 0
-521 -3275 0
502 -3275 0
521 -502 3275 0
152 -3276 0
-569 -3276 0
-152 569 3276 0
29 -3277 0
-820 -3277 0
-29 820 3277 0
288 -3278 0
270 -3278 0
-288 -270 3278 0
318 -3279 0
-410 -3279 0
-318 410 3279 0
-652 -3280 0
26 -3280 0
652 -26 3280 0
-864 -3281 0
758 -3281 0
864 -758 3281 0
703 -3282 0
234 -3282 0
-703 -234 3282 0
795 -3283 0
-470 -3283 0
-795 470 3283 0
997 -3284 0
265 -3284 0
-997 -265 3284 0
426 -3285 0
-270 -3285 0
-426 270 3285 0
125 -3286 0
-487 -3286 0
-125 487 3286 0
405 -3287 0
-580 -3287 0
-405 580 3287 0
15 -3288 0
587 -3288 0
-15 -587 3288 0
-506 -3289 0
653 -3289 0
506 -653 3289 0
59 -3290 0
-703 -3290 0
-59 703 3290 0
526 -3291 0
225 -3291 0
-526 -225 3291 0
766 -3292 0
860 -3292 0
-766 -860 3292 0
-187 -3293 0
83 -3293 0
187 -83 3293 0
990 -3294 0
-684 -3294 0
-990 684 3294 0
-156 -3295 0
172 -3295 0
156 -172 3295 0
653 -3296 0
-213 -3296 0
-653 213 3296 0
-752 -3297 0
720 -3297 0
752 -720 3297 0
283 -3298 0
250 -3298 0
-283 -250 3298 0
-257 -3299 0
437 -3299 0
257 -437 3299 0
-962 -3300 0
121 -3300 0
962 -121 3300 0
-714 -3301 0
292 -3301 0
714 -292 3301 0
-361 -3302 0
948 -3302 0
361 -948 3302 0
890 -3303 0
-454 -3303 0
-890 454 3303 0
-257 -3304 0
531 -3304 0
257 -531 3304 0
690 -3305 0
433 -3305 0
-690 -433 3305 0
-451 -3306 0
554 -3306 0
451 -554 3306 0
-996 -3307 0
915 -3307 0
996 -915 3307 0
-273 -3308 0
763 -3308 0
273 -763 3308 0
549 -3309 0
-460 -3309 0
-549 460 3309 0
735 -3310 0
-236 -3310 0
-735 236 3310 0
-160 -3311 0
818 -3311 0
160 -818 3311 0
-394 -3312 0
301 -3312 0
394 -301 3312 0
988 -3313 0
866 -3313 0
-988 -866 3313 0
-643 -3314 0
778 -3314 0
643 -778 3314 0
-205 -3315 0
106 -3315 0
205 -106 3315 0
780 -3316 0
-917 -3316 0
-780 917 3316 0
350 -3317 0
-132 -3317 0
-350 132 3317 0
-705 -3318 0
34 -3318 0
705 -34 3318 0
319 -3319 0
-14 -3319 0
-319 14 3319 0
924 -3320 0
682 -3320 0
-924 -682 3320 0
-257 -3321 0
620 -3321 0
257 -620 3321 0
647 -3322 0
-82 -3322 0
-647 82 3322 0
-700 -3323 0
882 -3323 0
700 -882 3323 0
168 -3324 0
-49 -3324 0
-168 49 3324 0
266 -3325 0
-967 -3325 0
-266 967 3325 0
-816 -3326 0
256 -3326 0
816 -256 3326 0
-200 -3327 0
688 -3327 0
200 -688 3327 0
460 -3328 0
-702 -3328 0
-460 702 3328 0
679 -3329 0
13 -3329 0
-679 -13 3329 0
-400 -3330 0
994 -3330 0
400 -994 3330 0
-451 -3331 0
281 -3331 0
451 -281 3331 0
-473 -3332 0
259 -3332 0
473 -259 3332 0
-722 -3333 0
193 -3333 0
722 -193 3333 0
597 -3334 0
-806 -3334 0
-597 806 3334 0
220 -3335 0
-342 -3335 0
-220 342 3335 0
390 -3336 0
11 -3336 0
-390 -11 3336 0
-316 -3337 0
66 -3337 0
316 -66 3337 0
270 -3338 0
-78 -3338 0
-270 78 3338 0
211 -3339 0
-614 -3339 0
-211 614 3339 0
-112 -3340 0
837 -3340 0
112 -837 3340 0
861 -3341 0
553 -3341 0
-861 -553 3341 0
910 -3342 0
917 -3342 0
-910 -917 3342 0
-169 -3343 0
174 -3343 0
169 -174 3343 0
871 -3344 0
-991 -3344 0
-871 991 3344 0
-124 -3345 0
427 -3345 0
124 -427 3345 0
-383 -3346 0
321 -3346 0
383 -321 3346 0
-424 -3347 0
33 -3347 0
424 -33 3347 0
410 -3348 0
-326 -3348 0
-410 326 3348 0
772 -3349 0
-815 -3349 0
-772 815 3349 0
-573 -3350 0
673 -3350 0
573 -673 3350 0
740 -3351 0
-5 -3351 0
-740 5 3351 0
824 -3352 0
-325 -3352 0
-824 325 3352 0
367 -3353 0
-508 -3353 0
-367 508 3353 0
69 -3354 0
491 -3354 0
-69 -491 3354 0
-517 -3355 0
113 -3355 0
517 -113 3355 0
647 -3356 0
630 -3356 0
-647 -630 3356 0
-969 -3357 0
89 -3357 0
969 -89 3357 0
303 -3358 0
-438 -3358 0
-303 438 3358 0
95 -3359 0
193 -3359 0
-95 -193 3359 0
212 -3360 0
985 -3360 0
-212 -985 3360 0
471 -3361 0
308 -3361 0
-471 -308 3361 0
485 -3362 0
-750 -3362 0
-485 750 3362 0
-139 -3363 0
386 -3363 0
139 -386 3363 0
526 -3364 0
-142 -3364 0
-526 142 3364 0
695 -3365 0
22 -3365 0
-695 -22 3365 0
488 -3366 0
810 -3366 0
-488 -810 3366 0
198 -3367 0
-838 -3367 0
-198 838 3367 0
717 -3368 0
-470 -3368 0
-717 470 3368 0
-932 -3369 0
858 -3369 0
932 -858 3369 0
149 -3370 0
-79 -3370 0
-149 79 3370 0
-688 -3371 0
472 -3371 0
688 -472 3371 0
448 -3372 0
-824 -3372 0
-448 824 3372 0
812 -3373 0
-975 -3373 0
-812 975 3373 0
447 -3374 0
754 -3374 0
-447 -754 3374 0
975 -3375 0
788 -3375 0
-975 -788 3375 0
887 -3376 0
317 -3376 0
-887 -317 3376 0
809 -3377 0
-383 -3377 0
-809 383 3377 0
200 -3378 0
-788 -3378 0
-200 788 3378 0
96 -3379 0
316 -3379 0
-96 -316 3379 0
248 -3380 0
591 -3380 0
-248 -591 3380 0
326 -3381 0
-50 -3381 0
-326 50 3381 0
5 -3382 0
324 -3382 0
-5 -324 3382 0
286 -3383 0
227 -3383 0
-286 -227 3383 0
-632 -3384 0
281 -3384 0
632 -281 3384 0
964 -3385 0
642 -3385 0
-964 -642 3385 0
-540 -3386 0
35 -3386 0
540 -35 3386 0
216 -3387 0
636 -3387 0
-216 -636 3387 0
-592 -3388 0
610 -3388 0
592 -610 3388 0
430 -3389 0
-131 -3389 0
-430 131 3389 0
252 -3390 0
386 -3390 0
-252 -386 3390 0
367 -3391 0
324 -3391 0
-367 -324 3391 0
-60 -3392 0
947 -3392 0
60 -947 3392 0
-37 -3393 0
514 -3393 0
37 -514 3393 0
711 -3394 0
-154 -3394 0
-711 154 3394 0
-438 -3395 0
809 -3395 0
438 -809 3395 0
789 -3396 0
818 -3396 0
-789 -818 3396 0
286 -3397 0
-163 -3397 0
-286 163 3397 0
706 -3398 0
45 -3399 0
394 -3399 0
-45 -394 3399 0
-181 -3400 0
266 -3400 0
181 -266 3400 0
44 -3401 0
-695 -3401 0
-44 695 3401 0
432 -3402 0
468 -3402 0
-432 -468 3402 0
-315 -3403 0
777 -3403 0
315 -777 3403 0
-979 -3404 0
45 -3404 0
979 -45 3404 0
9 -3405 0
921 -3405 0
-9 -921 3405 0
855 -3406 0
854 -3406 0
-855 -854 3406 0
-643 -3407 0
125 -3407 0
643 -125 3407 0
231 -3408 0
-142 -3408 0
-231 142 3408 0
463 -3409 0
-941 -3409 0
-463 941 3409 0
-346 -3410 0
162 -3410 0
346 -162 3410 0
-394 -3411 0
387 -3411 0
394 -387 3411 0
-916 -3412 0
41 -3412 0
916 -41 3412 0
183 -3413 0
860 -3413 0
-183 -860 3413 0
246 -3414 0
-226 -3414 0
-246 226 3414 0
-92 -3415 0
987 -3415 0
92 -987 3415 0
510 -3416 0
-132 -3416 0
-510 132 3416 0
-640 -3417 0
613 -3417 0
640 -613 3417 0
996 -3418 0
193 -3418 0
-996 -193 3418 0
-528 -3419 0
438 -3419 0
528 -438 3419 0
19 -3420 0
-343 -3420 0
-19 343 3420 0
376 -3421 0
800 -3421 0
-376 -800 3421 0
-928 -3422 0
836 -3422 0
928 -836 3422 0
816 -3423 0
-482 -3423 0
-816 482 3423 0
391 -3424 0
50 -3424 0
-391 -50 3424 0
768 -3425 0
-960 -3425 0
-768 960 3425 0
56 -3426 0
9 -3426 0
-56 -9 3426 0
606 -3427 0
-143 -3427 0
-606 143 3427 0
-732 -3428 0
857 -3428 0
732 -857 3428 0
168 -3429 0
-931 -3429 0
-168 931 3429 0
269 -3430 0
-469 -3430 0
-269 469 3430 0
-50 -3431 0
557 -3431 0
50 -557 3431 0
8 -3432 0
93 -3432 0
-8 -93 3432 0
747 -3433 0
-695 -3433 0
-747 695 3433 0
871 -3434 0
-895 -3434 0
-871 895 3434 0
615 -3435 0
-242 -3435 0
-615 242 3435 0
916 -3436 0
-999 -3436 0
-916 999 3436 0
614 -3437 0
-645 -3437 0
-614 645 3437 0
-161 -3438 0
486 -3438 0
161 -486 3438 0
84 -3439 0
-591 -3439 0
-84 591 3439 0
108 -3440 0
-287 -3440 0
-108 287 3440 0
-990 -3441 0
993 -3441 0
990 -993 3441 0
998 -3442 0
698 -3442 0
-998 -698 3442 0
565 -3443 0
76 -3443 0
-565 -76 3443 0
-584 -3444 0
842 -3444 0
584 -842 3444 0
509 -3445 0
-883 -3445 0
-509 883 3445 0
807 -3446 0
-423 -3446 0
-807 423 3446 0
-424 -3447 0
615 -3447 0
424 -615 3447 0
-347 -3448 0
274 -3448 0
347 -274 3448 0
235 -3449 0
369 -3449 0
-235 -369 3449 0
-551 -3450 0
161 -3450 0
551 -161 3450 0
-771 -3451 0
868 -3451 0
771 -868 3451 0
238 -3452 0
-399 -3452 0
-238 399 3452 0
302 -3453 0
-298 -3453 0
-302 298 3453 0
616 -3454 0
-290 -3454 0
-616 290 3454 0
126 -3455 0
387 -3455 0
-126 -387 3455 0
-865 -3456 0
908 -3456 0
865 -908 3456 0
528 -3457 0
-793 -3457 0
-528 793 3457 0
540 -3458 0
811 -3458 0
-540 -811 3458 0
-738 -3459 0
469 -3459 0
738 -469 3459 0
821 -3460 0
-492 -3460 0
-821 492 3460 0
-541 -3461 0
361 -3461 0
541 -361 3461 0
74 -3462 0
-94 -3462 0
-74 94 3462 0
-868 -3463 0
884 -3463 0
868 -884 3463 0
-406 -3464 0
977 -3464 0
406 -977 3464 0
696 -3465 0
971 -3465 0
-696 -971 3465 0
142 -3466 0
-629 -3466 0
-142 629 3466 0
-955 -3467 0
522 -3467 0
955 -522 3467 0
-940 -3468 0
522 -3468 0
940 -522 3468 0
463 -3469 0
749 -3469 0
-463 -749 3469 0
559 -3470 0
764 -3470 0
-559 -764 3470 0
315 -3471 0
-798 -3471 0
-315 798 3471 0
-99 -3472 0
241 -3472 0
99 -241 3472 0
-376 -3473 0
79 -3473 0
376 -79 3473 0
134 -3474 0
-546 -3474 0
-134 546 3474 0
696 -3475 0
-768 -3475 0
-696 768 3475 0
868 -3476 0
-527 -3476 0
-868 527 3476 0
446 -3477 0
-430 -3477 0
-446 430 3477 0
-40 -3478 0
614 -3478 0
40 -614 3478 0
142 -3479 0
817 -3479 0
-142 -817 3479 0
171 -3480 0
603 -3480 0
-171 -603 3480 0
800 -3481 0
805 -3481 0
-800 -805 3481 0
927 -3482 0
-901 -3482 0
-927 901 3482 0
364 -3483 0
290 -3483 0
-364 -290 3483 0
550 -3484 0
-850 -3484 0
-550 850 3484 0
801 -3485 0
273 -3485 0
-801 -273 3485 0
600 -3486 0
-205 -3486 0
-600 205 3486 0
650 -3487 0
-678 -3487 0
-650 678 3487 0
38 -3488 0
-389 -3488 0
-38 389 3488 0
-897 -3489 0
668 -3489 0
897 -668 3489 0
776 -3490 0
-280 -3490 0
-776 280 3490 0
8 -3491 0
-713 -3491 0
-8 713 3491 0
580 -3492 0
779 -3492 0
-580 -779 3492 0
15 -3493 0
955 -3493 0
-15 -955 3493 0
523 -3494 0
827 -3494 0
-523 -827 3494 0
-51 -3495 0
748 -3495 0
51 -748 3495 0
-960 -3496 0
938 -3496 0
960 -938 3496 0
700 -3497 0
-751 -3497 0
-700 751 3497 0
-533 -3498 0
305 -3498 0
533 -305 3498 0
-370 -3499 0
339 -3499 0
370 -339 3499 0
416 -3500 0
-183 -3500 0
-416 183 3500 0
519 -3501 0
-802 -3501 0
-519 802 3501 0
-706 -3502 0
805 -3502 0
706 -805 3502 0
550 -3503 0
516 -3503 0
-550 -516 3503 0
-483 -3504 0
745 -3504 0
483 -745 3504 0
-757 -3505 0
674 -3505 0
757 -674 3505 0
-236 -3506 0
635 -3506 0
236 -635 3506 0
627 -3507 0
537 -3507 0
-627 -537 3507 0
-840 -3508 0
772 -3508 0
840 -772 3508 0
551 -3509 0
812 -3509 0
-551 -812 3509 0
-577 -3510 0
955 -3510 0
577 -955 3510 0
836 -3511 0
-740 -3511 0
-836 740 3511 0
768 -3512 0
943 -3512 0
-768 -943 3512 0
504 -3513 0
737 -3513 0
-504 -737 3513 0
584 -3514 0
-991 -3514 0
-584 991 3514 0
128 -3515 0
-176 -3515 0
-128 176 3515 0
-617 -3516 0
764 -3516 0
617 -764 3516 0
14 -3517 0
431 -3518 0
605 -3518 0
-431 -605 3518 0
-200 -3519 0
942 -3519 0
200 -942 3519 0
783 -3520 0
-890 -3520 0
-783 890 3520 0
247 -3521 0
-365 -3521 0
-247 365 3521 0
-569 -3522 0
674 -3522 0
569 -674 3522 0
-578 -3523 0
5 -3523 0
578 -5 3523 0
-320 -3524 0
63 -3524 0
320 -63 3524 0
12 -3525 0
450 -3525 0
-12 -450 3525 0
-89 -3526 0
818 -3526 0
89 -818 3526 0
831 -3527 0
-527 -3527 0
-831 527 3527 0
191 -3528 0
253 -3528 0
-191 -253 3528 0
-216 -3529 0
69 -3529 0
216 -69 3529 0
943 -3530 0
895 -3530 0
-943 -895 3530 0
-369 -3531 0
190 -3531 0
369 -190 3531 0
926 -3532 0
737 -3532 0
-926 -737 3532 0
720 -3533 0
-299 -3533 0
-720 299 3533 0
-713 -3534 0
750 -3534 0
713 -750 3534 0
-550 -3535 0
921 -3535 0
550 -921 3535 0
-40 -3536 0
290 -3536 0
40 -290 3536 0
-849 -3537 0
33 -3537 0
849 -33 3537 0
-314 -3538 0
193 -3538 0
314 -193 3538 0
859 -3539 0
202 -3539 0
-859 -202 3539 0
-152 -3540 0
357 -3540 0
152 -357 3540 0
966 -3541 0
171 -3541 0
-966 -171 3541 0
768 -3542 0
-181 -3542 0
-768 181 3542 0
360 -3543 0
441 -3543 0
-360 -441 3543 0
-832 -3544 0
900 -3544 0
832 -900 3544 0
880 -3545 0
-613 -3545 0
-880 613 3545 0
958 -3546 0
-317 -3546 0
-958 317 3546 0
-337 -3547 0
638 -3547 0
337 -638 3547 0
336 -3548 0
-139 -3548 0
-336 139 3548 0
-568 -3549 0
565 -3549 0
568 -565 3549 0
55 -3550 0
219 -3550 0
-55 -219 3550 0
-172 -3551 0
796 -3551 0
172 -796 3551 0
100 -3552 0
-175 -3552 0
-100 175 3552 0
453 -3553 0
490 -3553 0
-453 -490 3553 0
97 -3554 0
-559 -3554 0
-97 559 3554 0
699 -3555 0
-318 -3555 0
-699 318 3555 0
348 -3556 0
-327 -3556 0
-348 327 3556 0
-792 -3557 0
764 -3557 0
792 -764 3557 0
487 -3558 0
189 -3558 0
-487 -189 3558 0
616 -3559 0
383 -3559 0
-616 -383 3559 0
-636 -3560 0
761 -3560 0
636 -761 3560 0
943 -3561 0
997 -3561 0
-943 -997 3561 0
958 -3562 0
140 -3562 0
-958 -140 3562 0
-261 -3563 0
345 -3563 0
261 -345 3563 0
55 -3564 0
833 -3564 0
-55 -833 3564 0
328 -3565 0
-306 -3565 0
-328 306 3565 0
-717 -3566 0
786 -3566 0
717 -786 3566 0
485 -3567 0
-758 -3567 0
-485 758 3567 0
866 -3568 0
473 -3568 0
-866 -473 3568 0
286 -3569 0
489 -3569 0
-286 -489 3569 0
84 -3570 0
516 -3570 0
-84 -516 3570 0
348 -3571 0
-972 -3571 0
-348 972 3571 0
-601 -3572 0
340 -3572 0
601 -340 3572 0
96 -3573 0
531 -3573 0
-96 -531 3573 0
824 -3574 0
297 -3574 0
-824 -297 3574 0
-849 -3575 0
481 -3575 0
849 -481 3575 0
6 -3576 0
-717 -3576 0
-6 717 3576 0
327 -3577 0
819 -3577 0
-327 -819 3577 0
-834 -3578 0
534 -3578 0
834 -534 3578 0
-673 -3579 0
78 -3579 0
673 -78 3579 0
909 -3580 0
-931 -3580 0
-909 931 3580 0
847 -3581 0
809 -3581 0
-847 -809 3581 0
805 -3582 0
-743 -3582 0
-805 743 3582 0
30 -3583 0
977 -3583 0
-30 -977 3583 0
743 -3584 0
881 -3584 0
-743 -881 3584 0
277 -3585 0
-438 -3585 0
-277 438 3585 0
511 -3586 0
-718 -3586 0
-511 718 3586 0
114 -3587 0
953 -3587 0
-114 -953 3587 0
248 -3588 0
-193 -3588 0
-248 193 3588 0
22 -3589 0
860 -3589 0
-22 -860 3589 0
159 -3590 0
499 -3590 0
-159 -499 3590 0
194 -3591 0
145 -3591 0
-194 -145 3591 0
-77 -3592 0
419 -3592 0
77 -419 3592 0
728 -3593 0
321 -3593 0
-728 -321 3593 0
-1000 -3594 0
251 -3594 0
1000 -251 3594 0
-920 -3595 0
245 -3595 0
920 -245 3595 0
749 -3596 0
826 -3596 0
-749 -826 3596 0
695 -3597 0
669 -3597 0
-695 -669 3597 0
608 -3598 0
-620 -3598 0
-608 620 3598 0
655 -3599 0
714 -3599 0
-655 -714 3599 0
837 -3600 0
-907 -3600 0
-837 907 3600 0
85 -3601 0
-279 -3601 0
-85 279 3601 0
32 -3602 0
484 -3602 0
-32 -484 3602 0
430 -3603 0
-867 -3603 0
-430 867 3603 0
486 -3604 0
-333 -3604 0
-486 333 3604 0
195 -3605 0
-431 -3605 0
-195 431 3605 0
-394 -3606 0
683 -3606 0
394 -683 3606 0
307 -3607 0
-757 -3607 0
-307 757 3607 0
539 -3608 0
994 -3608 0
-539 -994 3608 0
-812 -3609 0
257 -3609 0
812 -257 3609 0
-930 -3610 0
533 -3610 0
930 -533 3610 0
-34 -3611 0
709 -3611 0
34 -709 3611 0
-161 -3612 0
90 -3612 0
161 -90 3612 0
-501 -3613 0
83 -3613 0
501 -83 3613 0
104 -3614 0
-103 -3614 0
-104 103 3614 0
847 -3615 0
647 -3615 0
-847 -647 3615 0
-963 -3616 0
761 -3616 0
963 -761 3616 0
342 -3617 0
237 -3617 0
-342 -237 3617 0
245 -3618 0
659 -3618 0
-245 -659 3618 0
-885 -3619 0
371 -3619 0
885 -371 3619 0
587 -3620 0
75 -3620 0
-587 -75 3620 0
965 -3621 0
163 -3621 0
-965 -163 3621 0
852 -3622 0
747 -3622 0
-852 -747 3622 0
-898 -3623 0
333 -3623 0
898 -333 3623 0
342 -3624 0
493 -3624 0
-342 -493 3624 0
-211 -3625 0
996 -3625 0
211 -996 3625 0
-779 -3626 0
451 -3626 0
779 -451 3626 0
1000 -3627 0
559 -3627 0
-1000 -559 3627 0
973 -3628 0
-687 -3628 0
-973 687 3628 0
744 -3629 0
-940 -3629 0
-744 940 3629 0
135 -3630 0
53 -3630 0
-135 -53 3630 0
383 -3631 0
706 -3631 0
-383 -706 3631 0
184 -3632 0
-239 -3632 0
-184 239 3632 0
893 -3633 0
-187 -3633 0
-893 187 3633 0
486 -3634 0
-700 -3634 0
-486 700 3634 0
187 -3635 0
-661 -3635 0
-187 661 3635 0
-664 -3636 0
317 -3636 0
664 -317 3636 0
104 -3637 0
-260 -3637 0
-104 260 3637 0
8 -3638 0
804 -3638 0
-8 -804 3638 0
-881 -3639 0
435 -3639 0
881 -435 3639 0
486 -3640 0
12 -3640 0
-486 -12 3640 0
976 -3641 0
177 -3641 0
-976 -177 3641 0
420 -3642 0
-429 -3642 0
-420 429 3642 0
-78 -3643 0
441 -3643 0
78 -441 3643 0
-125 -3644 0
627 -3644 0
125 -627 3644 0
711 -3645 0
-964 -3645 0
-711 964 3645 0
354 -3646 0
-263 -3646 0
-354 263 3646 0
655 -3647 0
-886 -3647 0
-655 886 3647 0
-609 -3648 0
309 -3648 0
609 -309 3648 0
652 -3649 0
930 -3649 0
-652 -930 3649 0
303 -3650 0
-612 -3650 0
-303 612 3650 0
15 -3651 0
-351 -3651 0
-15 351 3651 0
-333 -3652 0
930 -3652 0
333 -930 3652 0
-317 -3653 0
425 -3653 0
317 -425 3653 0
956 -3654 0
147 -3654 0
-956 -147 3654 0
808 -3655 0
405 -3655 0
-808 -405 3655 0
714 -3656 0
250 -3656 0
-714 -250 3656 0
123 -3657 0
314 -3657 0
-123 -314 3657 0
-385 -3658 0
862 -3658 0
385 -862 3658 0
-364 -3659 0
363 -3659 0
364 -363 3659 0
-249 -3660 0
310 -3660 0
249 -310 3660 0
-88 -3661 0
613 -3661 0
88 -613 3661 0
230 -3662 0
813 -3662 0
-230 -813 3662 0
342 -3663 0
-615 -3663 0
-342 615 3663 0
310 -3664 0
-628 -3664 0
-310 628 3664 0
863 -3665 0
626 -3665 0
-863 -626 3665 0
535 -3666 0
-541 -3666 0
-535 541 3666 0
-875 -3667 0
676 -3667 0
875 -676 3667 0
-296 -3668 0
63 -3668 0
296 -63 3668 0
-688 -3669 0
977 -3669 0
688 -977 3669 0
-578 -3670 0
931 -3670 0
578 -931 3670 0
363 -3671 0
282 -3671 0
-363 -282 3671 0
923 -3672 0
-71 -3672 0
-923 71 3672 0
882 -3673 0
329 -3673 0
-882 -329 3673 0
118 -3674 0
885 -3674 0
-118 -885 3674 0
526 -3675 0
788 -3675 0
-526 -788 3675 0
546 -3676 0
-591 -3676 0
-546 591 3676 0
374 -3677 0
731 -3677 0
-374 -731 3677 0
-638 -3678 0
130 -3678 0
638 -130 3678 0
211 -3679 0
-53 -3679 0
-211 53 3679 0
-912 -3680 0
628 -3680 0
912 -628 3680 0
862 -3681 0
-3 -3681 0
-862 3 3681 0
950 -3682 0
860 -3682 0
-950 -860 3682 0
-27 -3683 0
850 -3683 0
27 -850 3683 0
546 -3684 0
577 -3684 0
-546 -577 3684 0
288 -3685 0
-494 -3685 0
-288 494 3685 0
175 -3686 0
-211 -3686 0
-175 211 3686 0
740 -3687 0
722 -3687 0
-740 -722 3687 0
574 -3688 0
-307 -3688 0
-574 307 3688 0
285 -3689 0
387 -3689 0
-285 -387 3689 0
-313 -3690 0
45 -3690 0
313 -45 3690 0
904 -3691 0
828 -3691 0
-904 -828 3691 0
-736 -3692 0
565 -3692 0
736 -565 3692 0
-368 -3693 0
76 -3693 0
368 -76 3693 0
322 -3694 0
-487 -3694 0
-322 487 3694 0
252 -3695 0
-471 -3695 0
-252 471 3695 0
356 -3696 0
-502 -3696 0
-356 502 3696 0
-313 -3697 0
361 -3697 0
313 -361 3697 0
-102 -3698 0
193 -3698 0
102 -193 3698 0
-416 -3699 0
582 -3699 0
416 -582 3699 0
187 -3700 0
-759 -3700 0
-187 759 3700 0
899 -3701 0
-95 -3701 0
-899 95 3701 0
195 -3702 0
-406 -3702 0
-195 406 3702 0
143 -3703 0
-983 -3703 0
-143 983 3703 0
895 -3704 0
-733 -3704 0
-895 733 3704 0
-953 -3705 0
823 -3705 0
953 -823 3705 0
-75 -3706 0
789 -3706 0
75 -789 3706 0
-96 -3707 0
706 -3707 0
96 -706 3707 0
288 -3708 0
-868 -3708 0
-288 868 3708 0
581 -3709 0
-317 -3709 0
-581 317 3709 0
-576 -3710 0
695 -3710 0
576 -695 3710 0
328 -3711 0
-623 -3711 0
-328 623 3711 0
68 -3712 0
-566 -3712 0
-68 566 3712 0
107 -3713 0
177 -3713 0
-107 -177 3713 0
-672 -3714 0
22 -3714 0
672 -22 3714 0
-438 -3715 0
610 -3715 0
438 -610 3715 0
-701 -3716 0
713 -3716 0
701 -713 3716 0
84 -3717 0
-941 -3717 0
-84 941 3717 0
-89 -3718 0
979 -3718 0
89 -979 3718 0
-112 -3719 0
803 -3719 0
112 -803 3719 0
224 -3720 0
-774 -3720 0
-224 774 3720 0
-890 -3721 0
761 -3721 0
890 -761 3721 0
-315 -3722 0
153 -3722 0
315 -153 3722 0
818 -3723 0
26 -3723 0
-818 -26 3723 0
485 -3724 0
715 -3724 0
-485 -715 3724 0
917 -3725 0
277 -3725 0
-917 -277 3725 0
407 -3726 0
445 -3726 0
-407 -445 3726 0
-912 -3727 0
444 -3727 0
912 -444 3727 0
261 -3728 0
316 -3728 0
-261 -316 3728 0
317 -3729 0
420 -3729 0
-317 -420 3729 0
-564 -3730 0
123 -3730 0
564 -123 3730 0
-978 -3731 0
778 -3731 0
978 -778 3731 0
245 -3732 0
-540 -3732 0
-245 540 3732 0
182 -3733 0
-710 -3733 0
-182 710 3733 0
-75 -3734 0
529 -3734 0
75 -529 3734 0
799 -3735 0
565 -3735 0
-799 -565 3735 0
596 -3736 0
-965 -3736 0
-596 965 3736 0
614 -3737 0
18 -3737 0
-614 -18 3737 0
-707 -3738 0
250 -3738 0
707 -250 3738 0
-147 -3739 0
275 -3739 0
147 -275 3739 0
995 -3740 0
953 -3740 0
-995 -953 3740 0
906 -3741 0
-391 -3741 0
-906 391 3741 0
-488 -3742 0
128 -3742 0
488 -128 3742 0
-466 -3743 0
798 -3743 0
466 -798 3743 0
-737 -3744 0
994 -3744 0
737 -994 3744 0
320 -3745 0
937 -3745 0
-320 -937 3745 0
535 -3746 0
727 -3746 0
-535 -727 3746 0
-599 -3747 0
57 -3747 0
599 -57 3747 0
459 -3748 0
560 -3749 0
-275 -3749 0
-560 275 3749 0
256 -3750 0
-707 -3750 0
-256 707 3750 0
95 -3751 0
201 -3751 0
-95 -201 3751 0
757 -3752 0
-868 -3752 0
-757 868 3752 0
-160 -3753 0
61 -3753 0
160 -61 3753 0
158 -3754 0
-405 -3754 0
-158 405 3754 0
551 -3755 0
-347 -3755 0
-551 347 3755 0
918 -3756 0
-967 -3756 0
-918 967 3756 0
309 -3757 0
-963 -3757 0
-309 963 3757 0
-264 -3758 0
436 -3758 0
264 -436 3758 0
-67 -3759 0
893 -3759 0
67 -893 3759 0
626 -3760 0
969 -3760 0
-626 -969 3760 0
158 -3761 0
265 -3761 0
-158 -265 3761 0
-756 -3762 0
41 -3762 0
756 -41 3762 0
-397 -3763 0
513 -3763 0
397 -513 3763 0
128 -3764 0
646 -3764 0
-128 -646 3764 0
309 -3765 0
-134 -3765 0
-309 134 3765 0
-328 -3766 0
294 -3766 0
328 -294 3766 0
-548 -3767 0
938 -3767 0
548 -938 3767 0
-644 -3768 0
523 -3768 0
644 -523 3768 0
534 -3769 0
73 -3769 0
-534 -73 3769 0
-1 -3770 0
495 -3770 0
1 -495 3770 0
808 -3771 0
146 -3771 0
-808 -146 3771 0
886 -3772 0
-302 -3772 0
-886 302 3772 0
-938 -3773 0
260 -3773 0
938 -260 3773 0
-242 -3774 0
189 -3774 0
242 -189 3774 0
291 -3775 0
-983 -3775 0
-291 983 3775 0
460 -3776 0
-271 -3776 0
-460 271 3776 0
-937 -3777 0
257 -3777 0
937 -257 3777 0
-846 -3778 0
257 -3778 0
846 -257 3778 0
-905 -3779 0
803 -3779 0
905 -803 3779 0
983 -3780 0
-138 -3780 0
-983 138 3780 0
784 -3781 0
-711 -3781 0
-784 711 3781 0
328 -3782 0
-202 -3782 0
-328 202 3782 0
-402 -3783 0
356 -3783 0
402 -356 3783 0
-243 -3784 0
420 -3784 0
243 -420 3784 0
498 -3785 0
297 -3785 0
-498 -297 3785 0
461 -3786 0
-227 -3786 0
-461 227 3786 0
39 -3787 0
502 -3787 0
-39 -502 3787 0
541 -3788 0
290 -3788 0
-541 -290 3788 0
542 -3789 0
-725 -3789 0
-542 725 3789 0
126 -3790 0
786 -3790 0
-126 -786 3790 0
40 -3791 0
146 -3791 0
-40 -146 3791 0
-228 -3792 0
756 -3792 0
228 -756 3792 0
364 -3793 0
532 -3793 0
-364 -532 3793 0
992 -3794 0
560 -3794 0
-992 -560 3794 0
-548 -3795 0
145 -3795 0
548 -145 3795 0
-177 -3796 0
14 -3796 0
177 -14 3796 0
974 -3797 0
-62 -3797 0
-974 62 3797 0
768 -3798 0
-967 -3798 0
-768 967 3798 0
686 -3799 0
-711 -3799 0
-686 711 3799 0
-138 -3800 0
278 -3800 0
138 -278 3800 0
896 -3801 0
-666 -3801 0
-896 666 3801 0
140 -3802 0
-565 -3802 0
-140 565 3802 0
-947 -3803 0
652 -3803 0
947 -652 3803 0
-432 -3804 0
977 -3804 0
432 -977 3804 0
878 -3805 0
-795 -3805 0
-878 795 3805 0
-560 -3806 0
884 -3806 0
560 -884 3806 0
253 -3807 0
386 -3807 0
-253 -386 3807 0
-771 -3808 0
826 -3808 0
771 -826 3808 0
-346 -3809 0
197 -3809 0
346 -197 3809 0
996 -3810 0
617 -3810 0
-996 -617 3810 0
126 -3811 0
789 -3811 0
-126 -789 3811 0
684 -3812 0
146 -3812 0
-684 -146 3812 0
-993 -3813 0
630 -3813 0
993 -630 3813 0
-370 -3814 0
169 -3814 0
370 -169 3814 0
-442 -3815 0
260 -3815 0
442 -260 3815 0
320 -3816 0
274 -3816 0
-320 -274 3816 0
600 -3817 0
970 -3817 0
-600 -970 3817 0
699 -3818 0
514 -3818 0
-699 -514 3818 0
518 -3819 0
588 -3819 0
-518 -588 3819 0
30 -3820 0
-380 -3820 0
-30 380 3820 0
-337 -3821 0
202 -3821 0
337 -202 3821 0
-613 -3822 0
226 -3822 0
613 -226 3822 0
271 -3823 0
982 -3823 0
-271 -982 3823 0
446 -3824 0
-122 -3824 0
-446 122 3824 0
-866 -3825 0
179 -3825 0
866 -179 3825 0
466 -3826 0
241 -3826 0
-466 -241 3826 0
435 -3827 0
274 -3827 0
-435 -274 3827 0
-257 -3828 0
275 -3828 0
257 -275 3828 0
23 -3829 0
772 -3829 0
-23 -772 3829 0
-864 -3830 0
370 -3830 0
864 -370 3830 0
740 -3831 0
267 -3831 0
-740 -267 3831 0
245 -3832 0
-855 -3832 0
-245 855 3832 0
-837 -3833 0
218 -3833 0
837 -218 3833 0
569 -3834 0
-119 -3834 0
-569 119 3834 0
352 -3835 0
261 -3835 0
-352 -261 3835 0
-992 -3836 0
390 -3836 0
992 -390 3836 0
134 -3837 0
-294 -3837 0
-134 294 3837 0
928 -3838 0
-130 -3838 0
-928 130 3838 0
943 -3839 0
-427 -3839 0
-943 427 3839 0
556 -3840 0
-23 -3840 0
-556 23 3840 0
575 -3841 0
129 -3841 0
-575 -129 3841 0
-896 -3842 0
395 -3842 0
896 -395 3842 0
112 -3843 0
64 -3843 0
-112 -64 3843 0
-953 -3844 0
4 -3844 0
953 -4 3844 0
381 -3845 0
466 -3845 0
-381 -466 3845 0
375 -3846 0
629 -3846 0
-375 -629 3846 0
862 -3847 0
348 -3847 0
-862 -348 3847 0
80 -3848 0
-293 -3848 0
-80 293 3848 0
728 -3849 0
-938 -3849 0
-728 938 3849 0
840 -3850 0
-63 -3850 0
-840 63 3850 0
56 -3851 0
475 -3851 0
-56 -475 3851 0
-56 -3852 0
625 -3852 0
56 -625 3852 0
261 -3853 0
-517 -3853 0
-261 517 3853 0
830 -3854 0
-754 -3854 0
-830 754 3854 0
360 -3855 0
66 -3855 0
-360 -66 3855 0
-865 -3856 0
44 -3856 0
865 -44 3856 0
404 -3857 0
561 -3857 0
-404 -561 3857 0
13 -3858 0
-893 -3858 0
-13 893 3858 0
-514 -3859 0
701 -3859 0
514 -701 3859 0
743 -3860 0
155 -3860 0
-743 -155 3860 0
988 -3861 0
153 -3861 0
-988 -153 3861 0
-406 -3862 0
762 -3862 0
406 -762 3862 0
476 -3863 0
594 -3863 0
-476 -594 3863 0
-302 -3864 0
306 -3864 0
302 -306 3864 0
-238 -3865 0
489 -3865 0
238 -489 3865 0
832 -3866 0
-737 -3866 0
-832 737 3866 0
-193 -3867 0
606 -3867 0
193 -606 3867 0
-294 -3868 0
233 -3868 0
294 -233 3868 0
-920 -3869 0
909 -3869 0
920 -909 3869 0
314 -3870 0
25 -3870 0
-314 -25 3870 0
387 -3871 0
-959 -3871 0
-387 959 3871 0
664 -3872 0
-755 -3872 0
-664 755 3872 0
504 -3873 0
-99 -3873 0
-504 99 3873 0
573 -3874 0
893 -3874 0
-573 -893 3874 0
348 -3875 0
769 -3875 0
-348 -769 3875 0
479 -3876 0
682 -3876 0
-479 -682 3876 0
-846 -3877 0
145 -3877 0
846 -145 3877 0
520 -3878 0
-909 -3878 0
-520 909 3878 0
334 -3879 0
-283 -3879 0
-334 283 3879 0
-934 -3880 0
162 -3880 0
934 -162 3880 0
800 -3881 0
12 -3881 0
-800 -12 3881 0
631 -3882 0
937 -3882 0
-631 -937 3882 0
439 -3883 0
-361 -3883 0
-439 361 3883 0
895 -3884 0
-771 -3884 0
-895 771 3884 0
895 -3885 0
676 -3885 0
-895 -676 3885 0
864 -3886 0
11 -3886 0
-864 -11 3886 0
55 -3887 0
-906 -3887 0
-55 906 3887 0
639 -3888 0
122 -3888 0
-639 -122 3888 0
-57 -3889 0
238 -3889 0
57 -238 3889 0
943 -3890 0
532 -3890 0
-943 -532 3890 0
47 -3891 0
-212 -3891 0
-47 212 3891 0
111 -3892 0
-366 -3892 0
-111 366 3892 0
87 -3893 0
-106 -3893 0
-87 106 3893 0
447 -3894 0
699 -3894 0
-447 -699 3894 0
707 -3895 0
529 -3895 0
-707 -529 3895 0
-401 -3896 0
857 -3896 0
401 -857 3896 0
127 -3897 0
-135 -3897 0
-127 135 3897 0
160 -3898 0
-860 -3898 0
-160 860 3898 0
48 -3899 0
-474 -3899 0
-48 474 3899 0
900 -3900 0
-902 -3900 0
-900 902 3900 0
-738 -3901 0
820 -3901 0
738 -820 3901 0
908 -3902 0
-668 -3902 0
-908 668 3902 0
840 -3903 0
793 -3903 0
-840 -793 3903 0
-576 -3904 0
718 -3904 0
576 -718 3904 0
916 -3905 0
18 -3905 0
-916 -18 3905 0
-658 -3906 0
140 -3906 0
658 -140 3906 0
-746 -3907 0
257 -3907 0
746 -257 3907 0
908 -3908 0
-831 -3908 0
-908 831 3908 0
-376 -3909 0
293 -3909 0
376 -293 3909 0
-520 -3910 0
55 -3910 0
520 -55 3910 0
732 -3911 0
722 -3911 0
-732 -722 3911 0
920 -3912 0
-781 -3912 0
-920 781 3912 0
606 -3913 0
-403 -3913 0
-606 403 3913 0
-179 -3914 0
819 -3914 0
179 -819 3914 0
-969 -3915 0
459 -3915 0
969 -459 3915 0
397 -3916 0
-124 -3916 0
-397 124 3916 0
-449 -3917 0
382 -3917 0
449 -382 3917 0
-214 -3918 0
513 -3918 0
214 -513 3918 0
279 -3919 0
7 -3919 0
-279 -7 3919 0
344 -3920 0
-798 -3920 0
-344 798 3920 0
560 -3921 0
-239 -3921 0
-560 239 3921 0
-737 -3922 0
566 -3922 0
737 -566 3922 0
-642 -3923 0
718 -3923 0
642 -718 3923 0
-553 -3924 0
438 -3924 0
553 -438 3924 0
-905 -3925 0
913 -3925 0
905 -913 3925 0
450 -3926 0
-695 -3926 0
-450 695 3926 0
343 -3927 0
-543 -3927 0
-343 543 3927 0
-245 -3928 0
306 -3928 0
245 -306 3928 0
-818 -3929 0
90 -3929 0
818 -90 3929 0
493 -3930 0
108 -3930 0
-493 -108 3930 0
518 -3931 0
953 -3931 0
-518 -953 3931 0
117 -3932 0
-757 -3932 0
-117 757 3932 0
-995 -3933 0
252 -3933 0
995 -252 3933 0
518 -3934 0
-237 -3934 0
-518 237 3934 0
-852 -3935 0
193 -3935 0
852 -193 3935 0
-562 -3936 0
642 -3936 0
562 -642 3936 0
933 -3937 0
706 -3937 0
-933 -706 3937 0
813 -3938 0
525 -3938 0
-813 -525 3938 0
896 -3939 0
308 -3939 0
-896 -308 3939 0
126 -3940 0
-146 -3940 0
-126 146 3940 0
-40 -3941 0
306 -3941 0
40 -306 3941 0
279 -3942 0
-767 -3942 0
-279 767 3942 0
-593 -3943 0
236 -3943 0
593 -236 3943 0
450 -3944 0
-479 -3944 0
-450 479 3944 0
742 -3945 0
-406 -3945 0
-742 406 3945 0
-561 -3946 0
169 -3946 0
561 -169 3946 0
-458 -3947 0
452 -3947 0
458 -452 3947 0
887 -3948 0
779 -3948 0
-887 -779 3948 0
-803 -3949 0
667 -3949 0
803 -667 3949 0
-468 -3950 0
554 -3950 0
468 -554 3950 0
605 -3951 0
795 -3951 0
-605 -795 3951 0
824 -3952 0
58 -3952 0
-824 -58 3952 0
687 -3953 0
630 -3953 0
-687 -630 3953 0
-43 -3954 0
133 -3954 0
43 -133 3954 0
-496 -3955 0
381 -3955 0
496 -381 3955 0
918 -3956 0
-974 -3956 0
-918 974 3956 0
152 -3957 0
665 -3957 0
-152 -665 3957 0
791 -3958 0
-542 -3958 0
-791 542 3958 0
-93 -3959 0
281 -3959 0
93 -281 3959 0
183 -3960 0
-214 -3960 0
-183 214 3960 0
218 -3961 0
-351 -3961 0
-218 351 3961 0
-275 -3962 0
355 -3962 0
275 -355 3962 0
144 -3963 0
-963 -3963 0
-144 963 3963 0
112 -3964 0
-430 -3964 0
-112 430 3964 0
-269 -3965 0
915 -3965 0
269 -915 3965 0
6 -3966 0
412 -3966 0
-6 -412 3966 0
-578 -3967 0
353 -3967 0
578 -353 3967 0
574 -3968 0
-382 -3968 0
-574 382 3968 0
-753 -3969 0
103 -3969 0
753 -103 3969 0
-344 -3970 0
123 -3970 0
344 -123 3970 0
-899 -3971 0
937 -3971 0
899 -937 3971 0
-737 -3972 0
604 -3972 0
737 -604 3972 0
400 -3973 0
797 -3973 0
-400 -797 3973 0
-8 -3974 0
643 -3974 0
8 -643 3974 0
574 -3975 0
-74 -3975 0
-574 74 3975 0
-984 -3976 0
442 -3976 0
984 -442 3976 0
870 -3977 0
613 -3977 0
-870 -613 3977 0
-813 -3978 0
761 -3978 0
813 -761 3978 0
-963 -3979 0
833 -3979 0
963 -833 3979 0
-110 -3980 0
625 -3980 0
110 -625 3980 0
887 -3981 0
561 -3981 0
-887 -561 3981 0
150 -3982 0
-756 -3982 0
-150 756 3982 0
589 -3983 0
651 -3983 0
-589 -651 3983 0
22 -3984 0
419 -3984 0
-22 -419 3984 0
707 -3985 0
-143 -3985 0
-707 143 3985 0
-81 -3986 0
910 -3986 0
81 -910 3986 0
-697 -3987 0
482 -3987 0
697 -482 3987 0
-32 -3988 0
905 -3988 0
32 -905 3988 0
-708 -3989 0
578 -3989 0
708 -578 3989 0
932 -3990 0
-207 -3990 0
-932 207 3990 0
-468 -3991 0
889 -3991 0
468 -889 3991 0
-912 -3992 0
574 -3992 0
912 -574 3992 0
-577 -3993 0
647 -3993 0
577 -647 3993 0
-708 -3994 0
842 -3994 0
708 -842 3994 0
640 -3995 0
226 -3995 0
-640 -226 3995 0
792 -3996 0
-154 -3996 0
-792 154 3996 0
694 -3997 0
-874 -3997 0
-694 874 3997 0
55 -3998 0
-717 -3998 0
-55 717 3998 0
-384 -3999 0
568 -3999 0
384 -568 3999 0
301 -4000 0
842 -4000 0
-301 -842 4000 0
376 -4001 0
-459 -4001 0
-376 459 4001 0
-153 -4002 0
252 -4002 0
153 -252 4002 0
594 -4003 0
50 -4003 0
-594 -50 4003 0
240 -4004 0
726 -4004 0
-240 -726 4004 0
92 -4005 0
284 -4005 0
-92 -284 4005 0
182 -4006 0
13 -4006 0
-182 -13 4006 0
-963 -4007 0
227 -4007 0
963 -227 4007 0
744 -4008 0
-254 -4008 0
-744 254 4008 0
686 -4009 0
76 -4009 0
-686 -76 4009 0
-77 -4010 0
826 -4010 0
77 -826 4010 0
564 -4011 0
-87 -4011 0
-564 87 4011 0
-981 -4012 0
818 -4012 0
981 -818 4012 0
608 -4013 0
-755 -4013 0
-608 755 4013 0
235 -4014 0
-695 -4014 0
-235 695 4014 0
876 -4015 0
675 -4015 0
-876 -675 4015 0
-745 -4016 0
209 -4016 0
745 -209 4016 0
440 -4017 0
847 -4017 0
-440 -847 4017 0
573 -4018 0
691 -4018 0
-573 -691 4018 0
32 -4019 0
531 -4019 0
-32 -531 4019 0
830 -4020 0
-66 -4020 0
-830 66 4020 0
48 -4021 0
-407 -4021 0
-48 407 4021 0
753 -4022 0
849 -4022 0
-753 -849 4022 0
6 -4023 0
205 -4023 0
-6 -205 4023 0
551 -4024 0
-628 -4024 0
-551 628 4024 0
-737 -4025 0
108 -4025 0
737 -108 4025 0
950 -4026 0
42 -4026 0
-950 -42 4026 0
-354 -4027 0
491 -4027 0
354 -491 4027 0
-840 -4028 0
398 -4028 0
840 -398 4028 0
-13 -4029 0
217 -4029 0
13 -217 4029 0
899 -4030 0
-461 -4030 0
-899 461 4030 0
-544 -4031 0
123 -4031 0
544 -123 4031 0
862 -4032 0
-3 -4032 0
-862 3 4032 0
583 -4033 0
-476 -4033 0
-583 476 4033 0
574 -4034 0
398 -4034 0
-574 -398 4034 0
357 -4035 0
995 -4035 0
-357 -995 4035 0
232 -4036 0
-447 -4036 0
-232 447 4036 0
-556 -4037 0
33 -4037 0
556 -33 4037 0
416 -4038 0
125 -4038 0
-416 -125 4038 0
-928 -4039 0
718 -4039 0
928 -718 4039 0
173 -4040 0
28 -4040 0
-173 -28 4040 0
-441 -4041 0
286 -4041 0
441 -286 4041 0
158 -4042 0
-340 -4042 0
-158 340 4042 0
911 -4043 0
321 -4043 0
-911 -321 4043 0
-558 -4044 0
410 -4044 0
558 -410 4044 0
797 -4045 0
-838 -4045 0
-797 838 4045 0
904 -4046 0
-796 -4046 0
-904 796 4046 0
877 -4047 0
-6 -4047 0
-877 6 4047 0
-924 -4048 0
619 -4048 0
924 -619 4048 0
48 -4049 0
-642 -4049 0
-48 642 4049 0
136 -4050 0
-953 -4050 0
-136 953 4050 0
-345 -4051 0
662 -4051 0
345 -662 4051 0
-834 -4052 0
404 -4052 0
834 -404 4052 0
-993 -4053 0
781 -4053 0
993 -781 4053 0
-261 -4054 0
803 -4054 0
261 -803 4054 0
560 -4055 0
259 -4055 0
-560 -259 4055 0
647 -4056 0
-75 -4056 0
-647 75 4056 0
-777 -4057 0
572 -4057 0
777 -572 4057 0
-981 -4058 0
26 -4058 0
981 -26 4058 0
-155 -4059 0
666 -4059 0
155 -666 4059 0
918 -4060 0
-509 -4060 0
-918 509 4060 0
80 -4061 0
-758 -4061 0
-80 758 4061 0
823 -4062 0
111 -4062 0
-823 -111 4062 0
917 -4063 0
-766 -4063 0
-917 766 4063 0
-754 -4064 0
653 -4064 0
754 -653 4064 0
486 -4065 0
-614 -4065 0
-486 614 4065 0
703 -4066 0
206 -4066 0
-703 -206 4066 0
928 -4067 0
-303 -4067 0
-928 303 4067 0
498 -4068 0
-719 -4068 0
-498 719 4068 0
-680 -4069 0
361 -4069 0
680 -361 4069 0
149 -4070 0
803 -4070 0
-149 -803 4070 0
944 -4071 0
819 -4071 0
-944 -819 4071 0
532 -4072 0
867 -4072 0
-532 -867 4072 0
-292 -4073 0
738 -4073 0
292 -738 4073 0
-616 -4074 0
135 -4074 0
616 -135 4074 0
35 -4075 0
-839 -4075 0
-35 839 4075 0
292 -4076 0
-350 -4076 0
-292 350 4076 0
-671 -4077 0
393 -4077 0
671 -393 4077 0
845 -4078 0
364 -4078 0
-845 -364 4078 0
996 -4079 0
650 -4079 0
-996 -650 4079 0
742 -4080 0
802 -4080 0
-742 -802 4080 0
987 -4081 0
65 -4081 0
-987 -65 4081 0
671 -4082 0
355 -4082 0
-671 -355 4082 0
790 -4083 0
-819 -4083 0
-790 819 4083 0
534 -4084 0
27 -4084 0
-534 -27 4084 0
967 -4085 0
-165 -4085 0
-967 165 4085 0
725 -4086 0
939 -4086 0
-725 -939 4086 0
701 -4087 0
-436 -4087 0
-701 436 4087 0
240 -4088 0
-654 -4088 0
-240 654 4088 0
-250 -4089 0
106 -4089 0
250 -106 4089 0
-544 -4090 0
317 -4090 0
544 -317 4090 0
720 -4091 0
-578 -4091 0
-720 578 4091 0
599 -4092 0
866 -4092 0
-599 -866 4092 0
887 -4093 0
-790 -4093 0
-887 790 4093 0
808 -4094 0
-774 -4094 0
-808 774 4094 0
893 -4095 0
-686 -4095 0
-893 686 4095 0
-76 -4096 0
705 -4096 0
76 -705 4096 0
54 -4097 0
-957 -4097 0
-54 957 4097 0
712 -4098 0
-916 -4098 0
-712 916 4098 0
-952 -4099 0
734 -4099 0
952 -734 4099 0
108 -4100 0
-631 -4100 0
-108 631 4100 0
936 -4101 0
-698 -4101 0
-936 698 4101 0
63 -4102 0
-947 -4102 0
-63 947 4102 0
-956 -4103 0
777 -4103 0
956 -777 4103 0
996 -4104 0
164 -4104 0
-996 -164 4104 0
-825 -4105 0
601 -4105 0
825 -601 4105 0
396 -4106 0
-399 -4106 0
-396 399 4106 0
148 -4107 0
627 -4107 0
-148 -627 4107 0
-225 -4108 0
434 -4108 0
225 -434 4108 0
339 -4109 0
-94 -4109 0
-339 94 4109 0
-856 -4110 0
787 -4110 0
856 -787 4110 0
260 -4111 0
513 -4111 0
-260 -513 4111 0
-97 -4112 0
988 -4112 0
97 -988 4112 0
819 -4113 0
-909 -4113 0
-819 909 4113 0
373 -4114 0
-630 -4114 0
-373 630 4114 0
-356 -4115 0
907 -4115 0
356 -907 4115 0
-258 -4116 0
205 -4116 0
258 -205 4116 0
320 -4117 0
332 -4117 0
-320 -332 4117 0
-917 -4118 0
73 -4118 0
917 -73 4118 0
-234 -4119 0
428 -4119 0
234 -428 4119 0
-976 -4120 0
641 -4120 0
976 -641 4120 0
528 -4121 0
-399 -4121 0
-528 399 4121 0
715 -4122 0
-870 -4122 0
-715 870 4122 0
-648 -4123 0
577 -4123 0
648 -577 4123 0
384 -4124 0
563 -4124 0
-384 -563 4124 0
367 -4125 0
-114 -4125 0
-367 114 4125 0
-242 -4126 0
371 -4126 0
242 -371 4126 0
555 -4127 0
-246 -4127 0
-555 246 4127 0
893 -4128 0
-228 -4128 0
-893 228 4128 0
949 -4129 0
-703 -4129 0
-949 703 4129 0
870 -4130 0
-341 -4130 0
-870 341 4130 0
310 -4131 0
-709 -4131 0
-310 709 4131 0
-418 -4132 0
261 -4132 0
418 -261 4132 0
27 -4133 0
-303 -4133 0
-27 303 4133 0
-931 -4134 0
433 -4134 0
931 -433 4134 0
839 -4135 0
19 -4135 0
-839 -19 4135 0
637 -4136 0
540 -4136 0
-637 -540 4136 0
-124 -4137 0
964 -4137 0
124 -964 4137 0
-9 -4138 0
850 -4138 0
9 -850 4138 0
519 -4139 0
914 -4139 0
-519 -914 4139 0
47 -4140 0
537 -4140 0
-47 -537 4140 0
904 -4141 0
-299 -4141 0
-904 299 4141 0
286 -4142 0
-772 -4142 0
-286 772 4142 0
539 -4143 0
233 -4143 0
-539 -233 4143 0
535 -4144 0
585 -4144 0
-535 -585 4144 0
-814 -4145 0
386 -4145 0
814 -386 4145 0
-562 -4146 0
171 -4146 0
562 -171 4146 0
696 -4147 0
193 -4147 0
-696 -193 4147 0
-993 -4148 0
900 -4148 0
993 -900 4148 0
-634 -4149 0
435 -4149 0
634 -435 4149 0
183 -4150 0
-758 -4150 0
-183 758 4150 0
429 -4151 0
557 -4151 0
-429 -557 4151 0
725 -4152 0
-454 -4152 0
-725 454 4152 0
286 -4153 0
-598 -4153 0
-286 598 4153 0
768 -4154 0
-329 -4154 0
-768 329 4154 0
5 -4155 0
-750 -4155 0
-5 750 4155 0
-523 -4156 0
349 -4156 0
523 -349 4156 0
176 -4157 0
678 -4157 0
-176 -678 4157 0
755 -4158 0
-477 -4158 0
-755 477 4158 0
678 -4159 0
258 -4159 0
-678 -258 4159 0
-16 -4160 0
797 -4160 0
16 -797 4160 0
620 -4161 0
-127 -4161 0
-620 127 4161 0
-538 -4162 0
910 -4162 0
538 -910 4162 0
-64 -4163 0
647 -4163 0
64 -647 4163 0
632 -4164 0
236 -4164 0
-632 -236 4164 0
-482 -4165 0
813 -4165 0
482 -813 4165 0
621 -4166 0
-157 -4166 0
-621 157 4166 0
326 -4167 0
-631 -4167 0
-326 631 4167 0
171 -4168 0
609 -4168 0
-171 -609 4168 0
814 -4169 0
-594 -4169 0
-814 594 4169 0
207 -4170 0
-31 -4170 0
-207 31 4170 0
8 -4171 0
993 -4171 0
-8 -993 4171 0
888 -4172 0
714 -4172 0
-888 -714 4172 0
104 -4173 0
-731 -4173 0
-104 731 4173 0
-307 -4174 0
101 -4174 0
307 -101 4174 0
864 -4175 0
-651 -4175 0
-864 651 4175 0
848 -4176 0
-495 -4176 0
-848 495 4176 0
-786 -4177 0
98 -4177 0
786 -98 4177 0
973 -4178 0
-142 -4178 0
-973 142 4178 0
901 -4179 0
-493 -4179 0
-901 493 4179 0
-504 -4180 0
35 -4180 0
504 -35 4180 0
882 -4181 0
890 -4181 0
-882 -890 4181 0
298 -4182 0
18 -4182 0
-298 -18 4182 0
-288 -4183 0
734 -4183 0
288 -734 4183 0
-853 -4184 0
674 -4184 0
853 -674 4184 0
-419 -4185 0
210 -4185 0
419 -210 4185 0
440 -4186 0
36 -4186 0
-440 -36 4186 0
376 -4187 0
637 -4187 0
-376 -637 4187 0
-905 -4188 0
141 -4188 0
905 -141 4188 0
180 -4189 0
41 -4189 0
-180 -41 4189 0
837 -4190 0
98 -4190 0
-837 -98 4190 0
118 -4191 0
-522 -4191 0
-118 522 4191 0
368 -4192 0
-876 -4192 0
-368 876 4192 0
-459 -4193 0
867 -4193 0
459 -867 4193 0
-419 -4194 0
66 -4194 0
419 -66 4194 0
552 -4195 0
-143 -4195 0
-552 143 4195 0
67 -4196 0
-166 -4196 0
-67 166 4196 0
-18 -4197 0
945 -4197 0
18 -945 4197 0
-645 -4198 0
921 -4198 0
645 -921 4198 0
503 -4199 0
22 -4199 0
-503 -22 4199 0
487 -4200 0
-79 -4200 0
-487 79 4200 0
151 -4201 0
-407 -4201 0
-151 407 4201 0
-322 -4202 0
914 -4202 0
322 -914 4202 0
-460 -4203 0
641 -4203 0
460 -641 4203 0
699 -4204 0
-615 -4204 0
-699 615 4204 0
288 -4205 0
606 -4205 0
-288 -606 4205 0
967 -4206 0
708 -4206 0
-967 -708 4206 0
694 -4207 0
-566 -4207 0
-694 566 4207 0
-54 -4208 0
986 -4208 0
54 -986 4208 0
645 -4209 0
809 -4209 0
-645 -809 4209 0
109 -4210 0
940 -4210 0
-109 -940 4210 0
600 -4211 0
-154 -4211 0
-600 154 4211 0
196 -4212 0
-887 -4212 0
-196 887 4212 0
199 -4213 0
-413 -4213 0
-199 413 4213 0
-586 -4214 0
866 -4214 0
586 -866 4214 0
575 -4215 0
929 -4215 0
-575 -929 4215 0
454 -4216 0
726 -4216 0
-454 -726 4216 0
743 -4217 0
782 -4217 0
-743 -782 4217 0
995 -4218 0
409 -4218 0
-995 -409 4218 0
328 -4219 0
-182 -4219 0
-328 182 4219 0
-373 -4220 0
99 -4220 0
373 -99 4220 0
634 -4221 0
82 -4221 0
-634 -82 4221 0
166 -4222 0
-53 -4222 0
-166 53 4222 0
468 -4223 0
-831 -4223 0
-468 831 4223 0
215 -4224 0
-685 -4224 0
-215 685 4224 0
272 -4225 0
-794 -4225 0
-272 794 4225 0
-592 -4226 0
31 -4226 0
592 -31 4226 0
357 -4227 0
265 -4227 0
-357 -265 4227 0
848 -4228 0
-713 -4228 0
-848 713 4228 0
954 -4229 0
-255 -4229 0
-954 255 4229 0
-449 -4230 0
252 -4230 0
449 -252 4230 0
647 -4231 0
-693 -4231 0
-647 693 4231 0
870 -4232 0
-772 -4232 0
-870 772 4232 0
335 -4233 0
-291 -4233 0
-335 291 4233 0
815 -4234 0
476 -4234 0
-815 -476 4234 0
-616 -4235 0
162 -4235 0
616 -162 4235 0
360 -4236 0
-300 -4236 0
-360 300 4236 0
822 -4237 0
-730 -4237 0
-822 730 4237 0
-226 -4238 0
770 -4238 0
226 -770 4238 0
853 -4239 0
940 -4239 0
-853 -940 4239 0
239 -4240 0
397 -4240 0
-239 -397 4240 0
-25 -4241 0
965 -4241 0
25 -965 4241 0
136 -4242 0
794 -4242 0
-136 -794 4242 0
583 -4243 0
211 -4243 0
-583 -211 4243 0
-849 -4244 0
915 -4244 0
849 -915 4244 0
727 -4245 0
-62 -4245 0
-727 62 4245 0
-537 -4246 0
972 -4246 0
537 -972 4246 0
-113 -4247 0
106 -4247 0
113 -106 4247 0
-744 -4248 0
815 -4248 0
744 -815 4248 0
852 -4249 0
586 -4249 0
-852 -586 4249 0
334 -4250 0
-661 -4250 0
-334 661 4250 0
-491 -4251 0
129 -4251 0
491 -129 4251 0
-866 -4252 0
362 -4252 0
866 -362 4252 0
598 -4253 0
387 -4253 0
-598 -387 4253 0
355 -4254 0
-7 -4254 0
-355 7 4254 0
-912 -4255 0
417 -4255 0
912 -417 4255 0
384 -4256 0
709 -4256 0
-384 -709 4256 0
239 -4257 0
-943 -4257 0
-239 943 4257 0
-240 -4258 0
973 -4258 0
240 -973 4258 0
779 -4259 0
891 -4259 0
-779 -891 4259 0
903 -4260 0
33 -4260 0
-903 -33 4260 0
725 -4261 0
-686 -4261 0
-725 686 4261 0
899 -4262 0
258 -4262 0
-899 -258 4262 0
-172 -4263 0
122 -4263 0
172 -122 4263 0
-259 -4264 0
497 -4264 0
259 -497 4264 0
887 -4265 0
257 -4265 0
-887 -257 4265 0
418 -4266 0
545 -4266 0
-418 -545 4266 0
-449 -4267 0
474 -4267 0
449 -474 4267 0
-594 -4268 0
716 -4268 0
594 -716 4268 0
952 -4269 0
-961 -4269 0
-952 961 4269 0
255 -4270 0
-754 -4270 0
-255 754 4270 0
-353 -4271 0
857 -4271 0
353 -857 4271 0
846 -4272 0
-861 -4272 0
-846 861 4272 0
661 -4273 0
777 -4273 0
-661 -777 4273 0
160 -4274 0
-378 -4274 0
-160 378 4274 0
-112 -4275 0
478 -4275 0
112 -478 4275 0
246 -4276 0
-387 -4276 0
-246 387 4276 0
-970 -4277 0
801 -4277 0
970 -801 4277 0
808 -4278 0
-244 -4278 0
-808 244 4278 0
294 -4279 0
226 -4279 0
-294 -226 4279 0
429 -4280 0
900 -4280 0
-429 -900 4280 0
-691 -4281 0
36 -4281 0
691 -36 4281 0
-808 -4282 0
536 -4282 0
808 -536 4282 0
966 -4283 0
331 -4283 0
-966 -331 4283 0
-832 -4284 0
819 -4284 0
832 -819 4284 0
-112 -4285 0
876 -4285 0
112 -876 4285 0
-616 -4286 0
524 -4286 0
616 -524 4286 0
-898 -4287 0
789 -4287 0
898 -789 4287 0
103 -4288 0
174 -4288 0
-103 -174 4288 0
883 -4289 0
-669 -4289 0
-883 669 4289 0
-290 -4290 0
645 -4290 0
290 -645 4290 0
-921 -4291 0
619 -4291 0
921 -619 4291 0
804 -4292 0
-598 -4292 0
-804 598 4292 0
5 -4293 0
43 -4293 0
-5 -43 4293 0
144 -4294 0
-300 -4294 0
-144 300 4294 0
424 -4295 0
252 -4295 0
-424 -252 4295 0
-801 -4296 0
420 -4296 0
801 -420 4296 0
171 -4297 0
-23 -4297 0
-171 23 4297 0
-432 -4298 0
436 -4298 0
432 -436 4298 0
-403 -4299 0
210 -4299 0
403 -210 4299 0
435 -4300 0
-527 -4300 0
-435 527 4300 0
-827 -4301 0
411 -4301 0
827 -411 4301 0
16 -4302 0
722 -4302 0
-16 -722 4302 0
872 -4303 0
-944 -4303 0
-872 944 4303 0
-98 -4304 0
378 -4304 0
98 -378 4304 0
31 -4305 0
-378 -4305 0
-31 378 4305 0
-898 -4306 0
700 -4306 0
898 -700 4306 0
904 -4307 0
574 -4307 0
-904 -574 4307 0
462 -4308 0
293 -4308 0
-462 -293 4308 0
-841 -4309 0
38 -4309 0
841 -38 4309 0
462 -4310 0
868 -4310 0
-462 -868 4310 0
741 -4311 0
-446 -4311 0
-741 446 4311 0
-128 -4312 0
215 -4312 0
128 -215 4312 0
-688 -4313 0
418 -4313 0
688 -418 4313 0
712 -4314 0
-256 -4314 0
-712 256 4314 0
-11 -4315 0
658 -4315 0
11 -658 4315 0
879 -4316 0
27 -4316 0
-879 -27 4316 0
652 -4317 0
956 -4317 0
-652 -956 4317 0
315 -4318 0
-301 -4318 0
-315 301 4318 0
935 -4319 0
514 -4319 0
-935 -514 4319 0
-898 -4320 0
100 -4320 0
898 -100 4320 0
688 -4321 0
529 -4321 0
-688 -529 4321 0
544 -4322 0
-110 -4322 0
-544 110 4322 0
661 -4323 0
805 -4323 0
-661 -805 4323 0
-509 -4324 0
386 -4324 0
509 -386 4324 0
638 -4325 0
-151 -4325 0
-638 151 4325 0
256 -4326 0
-758 -4326 0
-256 758 4326 0
326 -4327 0
101 -4327 0
-326 -101 4327 0
829 -4328 0
-127 -4328 0
-829 127 4328 0
540 -4329 0
930 -4329 0
-540 -930 4329 0
862 -4330 0
-829 -4330 0
-862 829 4330 0
800 -4331 0
-858 -4331 0
-800 858 4331 0
-46 -4332 0
666 -4332 0
46 -666 4332 0
-111 -4333 0
761 -4333 0
111 -761 4333 0
979 -4334 0
-349 -4334 0
-979 349 4334 0
378 -4335 0
-431 -4335 0
-378 431 4335 0
839 -4336 0
-879 -4336 0
-839 879 4336 0
454 -4337 0
68 -4337 0
-454 -68 4337 0
271 -4338 0
-140 -4338 0
-271 140 4338 0
997 -4339 0
597 -4339 0
-997 -597 4339 0
263 -4340 0
-661 -4340 0
-263 661 4340 0
239 -4341 0
-445 -4341 0
-239 445 4341 0
-117 -4342 0
849 -4342 0
117 -849 4342 0
84 -4343 0
-925 -4343 0
-84 925 4343 0
67 -4344 0
545 -4345 0
-455 -4345 0
-545 455 4345 0
-100 -4346 0
803 -4346 0
100 -803 4346 0
654 -4347 0
748 -4347 0
-654 -748 4347 0
965 -4348 0
914 -4348 0
-965 -914 4348 0
27 -4349 0
-718 -4349 0
-27 718 4349 0
-900 -4350 0
276 -4350 0
900 -276 4350 0
907 -4351 0
-94 -4351 0
-907 94 4351 0
935 -4352 0
-875 -4352 0
-935 875 4352 0
-341 -4353 0
394 -4353 0
341 -394 4353 0
248 -4354 0
-540 -4354 0
-248 540 4354 0
871 -4355 0
-891 -4355 0
-871 891 4355 0
960 -4356 0
-763 -4356 0
-960 763 4356 0
854 -4357 0
259 -4357 0
-854 -259 4357 0
78 -4358 0
-620 -4358 0
-78 620 4358 0
620 -4359 0
-532 -4359 0
-620 532 4359 0
-208 -4360 0
663 -4360 0
208 -663 4360 0
40 -4361 0
-327 -4361 0
-40 327 4361 0
666 -4362 0
-694 -4362 0
-666 694 4362 0
-370 -4363 0
373 -4363 0
370 -373 4363 0
-745 -4364 0
637 -4364 0
745 -637 4364 0
222 -4365 0
-444 -4365 0
-222 444 4365 0
-639 -4366 0
57 -4366 0
639 -57 4366 0
702 -4367 0
10 -4367 0
-702 -10 4367 0
-898 -4368 0
53 -4368 0
898 -53 4368 0
550 -4369 0
142 -4369 0
-550 -142 4369 0
836 -4370 0
-111 -4370 0
-836 111 4370 0
-114 -4371 0
923 -4371 0
114 -923 4371 0
731 -4372 0
-62 -4372 0
-731 62 4372 0
549 -4373 0
-246 -4373 0
-549 246 4373 0
-921 -4374 0
61 -4374 0
921 -61 4374 0
-577 -4375 0
754 -4375 0
577 -754 4375 0
990 -4376 0
-668 -4376 0
-990 668 4376 0
648 -4377 0
-676 -4377 0
-648 676 4377 0
116 -4378 0
508 -4378 0
-116 -508 4378 0
984 -4379 0
891 -4379 0
-984 -891 4379 0
68 -4380 0
243 -4380 0
-68 -243 4380 0
-986 -4381 0
694 -4381 0
986 -694 4381 0
-181 -4382 0
577 -4382 0
181 -577 4382 0
424 -4383 0
-85 -4383 0
-424 85 4383 0
-731 -4384 0
284 -4384 0
731 -284 4384 0
127 -4385 0
-582 -4385 0
-127 582 4385 0
72 -4386 0
-931 -4386 0
-72 931 4386 0
461 -4387 0
-950 -4387 0
-461 950 4387 0
581 -4388 0
-995 -4388 0
-581 995 4388 0
383 -4389 0
-902 -4389 0
-383 902 4389 0
365 -4390 0
11 -4390 0
-365 -11 4390 0
-537 -4391 0
99 -4391 0
537 -99 4391 0
-468 -4392 0
914 -4392 0
468 -914 4392 0
843 -4393 0
594 -4393 0
-843 -594 4393 0
899 -4394 0
530 -4394 0
-899 -530 4394 0
991 -4395 0
-357 -4395 0
-991 357 4395 0
118 -4396 0
755 -4396 0
-118 -755 4396 0
690 -4397 0
442 -4397 0
-690 -442 4397 0
-914 -4398 0
510 -4398 0
914 -510 4398 0
784 -4399 0
-509 -4399 0
-784 509 4399 0
864 -4400 0
375 -4400 0
-864 -375 4400 0
-641 -4401 0
513 -4401 0
641 -513 4401 0
-321 -4402 0
690 -4402 0
321 -690 4402 0
111 -4403 0
229 -4403 0
-111 -229 4403 0
734 -4404 0
-606 -4404 0
-734 606 4404 0
176 -4405 0
-646 -4405 0
-176 646 4405 0
800 -4406 0
-980 -4406 0
-800 980 4406 0
503 -4407 0
909 -4407 0
-503 -909 4407 0
437 -4408 0
-95 -4408 0
-437 95 4408 0
205 -4409 0
-158 -4409 0
-205 158 4409 0
47 -4410 0
927 -4410 0
-47 -927 4410 0
119 -4411 0
-23 -4411 0
-119 23 4411 0
5 -4412 0
-421 -4412 0
-5 421 4412 0
-657 -4413 0
166 -4413 0
657 -166 4413 0
-637 -4414 0
593 -4414 0
637 -593 4414 0
758 -4415 0
188 -4415 0
-758 -188 4415 0
-520 -4416 0
337 -4416 0
520 -337 4416 0
540 -4417 0
939 -4417 0
-540 -939 4417 0
-316 -4418 0
43 -4418 0
316 -43 4418 0
-468 -4419 0
497 -4419 0
468 -497 4419 0
804 -4420 0
298 -4420 0
-804 -298 4420 0
118 -4421 0
-382 -4421 0
-118 382 4421 0
742 -4422 0
885 -4422 0
-742 -885 4422 0
-456 -4423 0
518 -4423 0
456 -518 4423 0
899 -4424 0
841 -4424 0
-899 -841 4424 0
654 -4425 0
-988 -4425 0
-654 988 4425 0
488 -4426 0
-875 -4426 0
-488 875 4426 0
119 -4427 0
-726 -4427 0
-119 726 4427 0
952 -4428 0
-826 -4428 0
-952 826 4428 0
784 -4429 0
218 -4429 0
-784 -218 4429 0
-692 -4430 0
370 -4430 0
692 -370 4430 0
-712 -4431 0
907 -4431 0
712 -907 4431 0
40 -4432 0
-301 -4432 0
-40 301 4432 0
-433 -4433 0
530 -4433 0
433 -530 4433 0
-368 -4434 0
868 -4434 0
368 -868 4434 0
261 -4435 0
1 -4435 0
-261 -1 4435 0
6 -4436 0
564 -4436 0
-6 -564 4436 0
990 -4437 0
-964 -4437 0
-990 964 4437 0
574 -4438 0
-350 -4438 0
-574 350 4438 0
863 -4439 0
181 -4439 0
-863 -181 4439 0
872 -4440 0
-499 -4440 0
-872 499 4440 0
14 -4441 0
130 -4441 0
-14 -130 4441 0
156 -4442 0
260 -4442 0
-156 -260 4442 0
322 -4443 0
106 -4443 0
-322 -106 4443 0
256 -4444 0
163 -4444 0
-256 -163 4444 0
-369 -4445 0
805 -4445 0
369 -805 4445 0
-241 -4446 0
791 -4446 0
241 -791 4446 0
-189 -4447 0
241 -4447 0
189 -241 4447 0
736 -4448 0
-641 -4448 0
-736 641 4448 0
-616 -4449 0
361 -4449 0
616 -361 4449 0
909 -4450 0
-398 -4450 0
-909 398 4450 0
163 -4451 0
-78 -4451 0
-163 78 4451 0
152 -4452 0
-653 -4452 0
-152 653 4452 0
287 -4453 0
-925 -4453 0
-287 925 4453 0
694 -4454 0
-366 -4454 0
-694 366 4454 0
989 -4455 0
-14 -4455 0
-989 14 4455 0
573 -4456 0
-622 -4456 0
-573 622 4456 0
-884 -4457 0
890 -4457 0
884 -890 4457 0
175 -4458 0
708 -4458 0
-175 -708 4458 0
-202 -4459 0
707 -4459 0
202 -707 4459 0
712 -4460 0
291 -4460 0
-712 -291 4460 0
-288 -4461 0
397 -4461 0
288 -397 4461 0
588 -4462 0
-423 -4462 0
-588 423 4462 0
-786 -4463 0
555 -4463 0
786 -555 4463 0
959 -4464 0
681 -4464 0
-959 -681 4464 0
232 -4465 0
-901 -4465 0
-232 901 4465 0
827 -4466 0
107 -4466 0
-827 -107 4466 0
314 -4467 0
-119 -4467 0
-314 119 4467 0
88 -4468 0
-151 -4468 0
-88 151 4468 0
-773 -4469 0
203 -4469 0
773 -203 4469 0
-601 -4470 0
44 -4470 0
601 -44 4470 0
918 -4471 0
747 -4471 0
-918 -747 4471 0
927 -4472 0
979 -4472 0
-927 -979 4472 0
53 -4473 0
-503 -4473 0
-53 503 4473 0
-675 -4474 0
609 -4474 0
675 -609 4474 0
-802 -4475 0
254 -4475 0
802 -254 4475 0
601 -4476 0
777 -4476 0
-601 -777 4476 0
-181 -4477 0
345 -4477 0
181 -345 4477 0
829 -4478 0
-251 -4478 0
-829 251 4478 0
-28 -4479 0
819 -4479 0
28 -819 4479 0
608 -4480 0
320 -4480 0
-608 -320 4480 0
-662 -4481 0
177 -4481 0
662 -177 4481 0
259 -4482 0
1 -4482 0
-259 -1 4482 0
55 -4483 0
731 -4483 0
-55 -731 4483 0
798 -4484 0
-315 -4484 0
-798 315 4484 0
-923 -4485 0
547 -4485 0
923 -547 4485 0
950 -4486 0
-831 -4486 0
-950 831 4486 0
-460 -4487 0
754 -4487 0
460 -754 4487 0
536 -4488 0
-362 -4488 0
-536 362 4488 0
-385 -4489 0
740 -4489 0
385 -740 4489 0
-107 -4490 0
482 -4490 0
107 -482 4490 0
-516 -4491 0
35 -4491 0
516 -35 4491 0
-958 -4492 0
762 -4492 0
958 -762 4492 0
149 -4493 0
620 -4493 0
-149 -620 4493 0
107 -4494 0
-639 -4494 0
-107 639 4494 0
24 -4495 0
-84 -4495 0
-24 84 4495 0
-793 -4496 0
348 -4496 0
793 -348 4496 0
1000 -4497 0
-185 -4497 0
-1000 185 4497 0
107 -4498 0
891 -4498 0
-107 -891 4498 0
228 -4499 0
-151 -4499 0
-228 151 4499 0
645 -4500 0
-643 -4500 0
-645 643 4500 0
133 -4501 0
-413 -4501 0
-133 413 4501 0
672 -4502 0
495 -4502 0
-672 -495 4502 0
516 -4503 0
-21 -4503 0
-516 21 4503 0
-168 -4504 0
341 -4504 0
168 -341 4504 0
-409 -4505 0
298 -4505 0
409 -298 4505 0
168 -4506 0
305 -4506 0
-168 -305 4506 0
279 -4507 0
451 -4507 0
-279 -451 4507 0
-723 -4508 0
75 -4508 0
723 -75 4508 0
197 -4509 0
259 -4509 0
-197 -259 4509 0
564 -4510 0
250 -4510 0
-564 -250 4510 0
-357 -4511 0
946 -4511 0
357 -946 4511 0
752 -4512 0
-468 -4512 0
-752 468 4512 0
-2 -4513 0
885 -4513 0
2 -885 4513 0
-576 -4514 0
762 -4514 0
576 -762 4514 0
-874 -4515 0
514 -4515 0
874 -514 4515 0
304 -4516 0
-700 -4516 0
-304 700 4516 0
997 -4517 0
194 -4517 0
-997 -194 4517 0
-201 -4518 0
882 -4518 0
201 -882 4518 0
198 -4519 0
286 -4519 0
-198 -286 4519 0
536 -4520 0
580 -4520 0
-536 -580 4520 0
-465 -4521 0
185 -4521 0
465 -185 4521 0
351 -4522 0
739 -4522 0
-351 -739 4522 0
934 -4523 0
898 -4523 0
-934 -898 4523 0
609 -4524 0
-31 -4524 0
-609 31 4524 0
-658 -4525 0
718 -4525 0
658 -718 4525 0
252 -4526 0
962 -4526 0
-252 -962 4526 0
928 -4527 0
286 -4527 0
-928 -286 4527 0
-161 -4528 0
626 -4528 0
161 -626 4528 0
-945 -4529 0
538 -4529 0
945 -538 4529 0
636 -4530 0
948 -4530 0
-636 -948 4530 0
380 -4531 0
268 -4531 0
-380 -268 4531 0
420 -4532 0
-935 -4532 0
-420 935 4532 0
-793 -4533 0
742 -4533 0
793 -742 4533 0
511 -4534 0
-118 -4534 0
-511 118 4534 0
767 -4535 0
-583 -4535 0
-767 583 4535 0
-275 -4536 0
490 -4536 0
275 -490 4536 0
511 -4537 0
718 -4537 0
-511 -718 4537 0
844 -4538 0
74 -4538 0
-844 -74 4538 0
742 -4539 0
-771 -4539 0
-742 771 4539 0
431 -4540 0
620 -4540 0
-431 -620 4540 0
270 -4541 0
-619 -4541 0
-270 619 4541 0
-741 -4542 0
179 -4542 0
741 -179 4542 0
152 -4543 0
-835 -4543 0
-152 835 4543 0
250 -4544 0
585 -4544 0
-250 -585 4544 0
187 -4545 0
-743 -4545 0
-187 743 4545 0
380 -4546 0
-717 -4546 0
-380 717 4546 0
304 -4547 0
-20 -4547 0
-304 20 4547 0
983 -4548 0
-478 -4548 0
-983 478 4548 0
348 -4549 0
-222 -4549 0
-348 222 4549 0
-704 -4550 0
787 -4550 0
704 -787 4550 0
-249 -4551 0
694 -4551 0
249 -694 4551 0
940 -4552 0
538 -4552 0
-940 -538 4552 0
-633 -4553 0
921 -4553 0
633 -921 4553 0
-552 -4554 0
958 -4554 0
552 -958 4554 0
-331 -4555 0
611 -4555 0
331 -611 4555 0
-142 -4556 0
833 -4556 0
142 -833 4556 0
136 -4557 0
-439 -4557 0
-136 439 4557 0
-779 -4558 0
283 -4558 0
779 -283 4558 0
-298 -4559 0
66 -4559 0
298 -66 4559 0
-716 -4560 0
963 -4560 0
716 -963 4560 0
901 -4561 0
546 -4561 0
-901 -546 4561 0
350 -4562 0
-582 -4562 0
-350 582 4562 0
775 -4563 0
-506 -4563 0
-775 506 4563 0
-240 -4564 0
307 -4564 0
240 -307 4564 0
-720 -4565 0
518 -4565 0
720 -518 4565 0
280 -4566 0
615 -4566 0
-280 -615 4566 0
903 -4567 0
-500 -4567 0
-903 500 4567 0
190 -4568 0
-156 -4568 0
-190 156 4568 0
-98 -4569 0
794 -4569 0
98 -794 4569 0
-257 -4570 0
364 -4570 0
257 -364 4570 0
102 -4571 0
-556 -4571 0
-102 556 4571 0
712 -4572 0
468 -4572 0
-712 -468 4572 0
154 -4573 0
145 -4573 0
-154 -145 4573 0
644 -4574 0
403 -4574 0
-644 -403 4574 0
631 -4575 0
-271 -4575 0
-631 271 4575 0
939 -4576 0
-222 -4576 0
-939 222 4576 0
-745 -4577 0
829 -4577 0
745 -829 4577 0
-348 -4578 0
107 -4578 0
348 -107 4578 0
920 -4579 0
735 -4579 0
-920 -735 4579 0
-206 -4580 0
778 -4580 0
206 -778 4580 0
343 -4581 0
99 -4581 0
-343 -99 4581 0
958 -4582 0
966 -4582 0
-958 -966 4582 0
725 -4583 0
708 -4583 0
-725 -708 4583 0
-336 -4584 0
914 -4584 0
336 -914 4584 0
-768 -4585 0
790 -4585 0
768 -790 4585 0
981 -4586 0
-863 -4586 0
-981 863 4586 0
247 -4587 0
666 -4587 0
-247 -666 4587 0
253 -4588 0
-901 -4588 0
-253 901 4588 0
277 -4589 0
-501 -4589 0
-277 501 4589 0
-66 -4590 0
205 -4590 0
66 -205 4590 0
911 -4591 0
-269 -4591 0
-911 269 4591 0
-571 -4592 0
483 -4592 0
571 -483 4592 0
-179 -4593 0
627 -4593 0
179 -627 4593 0
560 -4594 0
523 -4594 0
-560 -523 4594 0
24 -4595 0
102 -4595 0
-24 -102 4595 0
360 -4596 0
215 -4596 0
-360 -215 4596 0
952 -4597 0
434 -4597 0
-952 -434 4597 0
952 -4598 0
-424 -4598 0
-952 424 4598 0
-257 -4599 0
245 -4599 0
257 -245 4599 0
181 -4600 0
-143 -4600 0
-181 143 4600 0
16 -4601 0
215 -4601 0
-16 -215 4601 0
252 -4602 0
281 -4602 0
-252 -281 4602 0
430 -4603 0
-253 -4603 0
-430 253 4603 0
-33 -4604 0
420 -4604 0
33 -420 4604 0
336 -4605 0
-313 -4605 0
-336 313 4605 0
-658 -4606 0
699 -4606 0
658 -699 4606 0
911 -4607 0
-269 -4607 0
-911 269 4607 0
-779 -4608 0
10 -4608 0
779 -10 4608 0
-752 -4609 0
238 -4609 0
752 -238 4609 0
231 -4610 0
412 -4610 0
-231 -412 4610 0
783 -4611 0
763 -4611 0
-783 -763 4611 0
35 -4612 0
874 -4612 0
-35 -874 4612 0
-73 -4613 0
547 -4613 0
73 -547 4613 0
439 -4614 0
543 -4614 0
-439 -543 4614 0
288 -4615 0
-50 -4615 0
-288 50 4615 0
-803 -4616 0
10 -4616 0
803 -10 4616 0
564 -4617 0
874 -4617 0
-564 -874 4617 0
735 -4618 0
461 -4618 0
-735 -461 4618 0
326 -4619 0
-524 -4619 0
-326 524 4619 0
-194 -4620 0
526 -4620 0
194 -526 4620 0
399 -4621 0
-478 -4621 0
-399 478 4621 0
887 -4622 0
575 -4622 0
-887 -575 4622 0
431 -4623 0
-847 -4623 0
-431 847 4623 0
678 -4624 0
-10 -4624 0
-678 10 4624 0
119 -4625 0
-730 -4625 0
-119 730 4625 0
362 -4626 0
-590 -4626 0
-362 590 4626 0
304 -4627 0
-274 -4627 0
-304 274 4627 0
677 -4628 0
833 -4628 0
-677 -833 4628 0
792 -4629 0
663 -4629 0
-792 -663 4629 0
118 -4630 0
273 -4630 0
-118 -273 4630 0
-250 -4631 0
270 -4631 0
250 -270 4631 0
-305 -4632 0
28 -4632 0
305 -28 4632 0
-481 -4633 0
189 -4633 0
481 -189 4633 0
662 -4634 0
745 -4634 0
-662 -745 4634 0
504 -4635 0
678 -4635 0
-504 -678 4635 0
869 -4636 0
-973 -4636 0
-869 973 4636 0
-72 -4637 0
832 -4637 0
72 -832 4637 0
-442 -4638 0
347 -4638 0
442 -347 4638 0
695 -4639 0
732 -4639 0
-695 -732 4639 0
723 -4640 0
-118 -4640 0
-723 118 4640 0
850 -4641 0
-935 -4641 0
-850 935 4641 0
949 -4642 0
395 -4642 0
-949 -395 4642 0
332 -4643 0
-542 -4643 0
-332 542 4643 0
119 -4644 0
197 -4644 0
-119 -197 4644 0
880 -4645 0
-604 -4645 0
-880 604 4645 0
746 -4646 0
-7 -4646 0
-746 7 4646 0
-104 -4647 0
682 -4647 0
104 -682 4647 0
736 -4648 0
-995 -4648 0
-736 995 4648 0
-736 -4649 0
172 -4649 0
736 -172 4649 0
56 -4650 0
28 -4650 0
-56 -28 4650 0
-347 -4651 0
467 -4651 0
347 -467 4651 0
-642 -4652 0
867 -4652 0
642 -867 4652 0
204 -4653 0
497 -4653 0
-204 -497 4653 0
-522 -4654 0
905 -4654 0
522 -905 4654 0
478 -4655 0
683 -4655 0
-478 -683 4655 0
-289 -4656 0
673 -4656 0
289 -673 4656 0
-556 -4657 0
779 -4657 0
556 -779 4657 0
907 -4658 0
-486 -4658 0
-907 486 4658 0
7 -4659 0
569 -4659 0
-7 -569 4659 0
-610 -4660 0
67 -4660 0
610 -67 4660 0
888 -4661 0
-755 -4661 0
-888 755 4661 0
512 -4662 0
-271 -4662 0
-512 271 4662 0
238 -4663 0
142 -4663 0
-238 -142 4663 0
688 -4664 0
674 -4664 0
-688 -674 4664 0
771 -4665 0
-631 -4665 0
-771 631 4665 0
-945 -4666 0
333 -4666 0
945 -333 4666 0
-976 -4667 0
86 -4667 0
976 -86 4667 0
-674 -4668 0
603 -4668 0
674 -603 4668 0
589 -4669 0
-996 -4669 0
-589 996 4669 0
-894 -4670 0
857 -4670 0
894 -857 4670 0
109 -4671 0
537 -4671 0
-109 -537 4671 0
869 -4672 0
-543 -4672 0
-869 543 4672 0
11 -4673 0
107 -4673 0
-11 -107 4673 0
727 -4674 0
-611 -4674 0
-727 611 4674 0
504 -4675 0
1000 -4675 0
-504 -1000 4675 0
886 -4676 0
-431 -4676 0
-886 431 4676 0
383 -4677 0
-270 -4677 0
-383 270 4677 0
168 -4678 0
552 -4678 0
-168 -552 4678 0
183 -4679 0
868 -4679 0
-183 -868 4679 0
-489 -4680 0
69 -4680 0
489 -69 4680 0
-965 -4681 0
498 -4681 0
965 -498 4681 0
-43 -4682 0
325 -4682 0
43 -325 4682 0
480 -4683 0
393 -4683 0
-480 -393 4683 0
-388 -4684 0
961 -4684 0
388 -961 4684 0
768 -4685 0
-294 -4685 0
-768 294 4685 0
-584 -4686 0
780 -4686 0
584 -780 4686 0
3 -4687 0
209 -4687 0
-3 -209 4687 0
-281 -4688 0
693 -4688 0
281 -693 4688 0
-219 -4689 0
810 -4689 0
219 -810 4689 0
215 -4690 0
-990 -4690 0
-215 990 4690 0
-899 -4691 0
683 -4691 0
899 -683 4691 0
-697 -4692 0
268 -4692 0
697 -268 4692 0
487 -4693 0
946 -4693 0
-487 -946 4693 0
717 -4694 0
555 -4694 0
-717 -555 4694 0
-620 -4695 0
987 -4695 0
620 -987 4695 0
653 -4696 0
234 -4696 0
-653 -234 4696 0
637 -4697 0
364 -4697 0
-637 -364 4697 0
877 -4698 0
-227 -4698 0
-877 227 4698 0
-176 -4699 0
27 -4699 0
176 -27 4699 0
-777 -4700 0
60 -4700 0
777 -60 4700 0
484 -4701 0
-285 -4701 0
-484 285 4701 0
-361 -4702 0
909 -4702 0
361 -909 4702 0
-1000 -4703 0
976 -4703 0
1000 -976 4703 0
824 -4704 0
667 -4704 0
-824 -667 4704 0
144 -4705 0
-177 -4705 0
-144 177 4705 0
955 -4706 0
467 -4706 0
-955 -467 4706 0
952 -4707 0
887 -4707 0
-952 -887 4707 0
-40 -4708 0
756 -4708 0
40 -756 4708 0
-76 -4709 0
873 -4709 0
76 -873 4709 0
975 -4710 0
677 -4710 0
-975 -677 4710 0
-596 -4711 0
89 -4711 0
596 -89 4711 0
60 -4712 0
-543 -4712 0
-60 543 4712 0
-784 -4713 0
13 -4713 0
784 -13 4713 0
121 -4714 0
273 -4714 0
-121 -273 4714 0
613 -4715 0
-406 -4715 0
-613 406 4715 0
455 -4716 0
-615 -4716 0
-455 615 4716 0
667 -4717 0
-518 -4717 0
-667 518 4717 0
-426 -4718 0
993 -4718 0
426 -993 4718 0
-32 -4719 0
571 -4719 0
32 -571 4719 0
512 -4720 0
762 -4720 0
-512 -762 4720 0
-802 -4721 0
467 -4721 0
802 -467 4721 0
848 -4722 0
-811 -4722 0
-848 811 4722 0
960 -4723 0
508 -4723 0
-960 -508 4723 0
577 -4724 0
265 -4724 0
-577 -265 4724 0
663 -4725 0
401 -4725 0
-663 -401 4725 0
192 -4726 0
-765 -4726 0
-192 765 4726 0
109 -4727 0
370 -4727 0
-109 -370 4727 0
-784 -4728 0
441 -4728 0
784 -441 4728 0
214 -4729 0
-781 -4729 0
-214 781 4729 0
-225 -4730 0
474 -4730 0
225 -474 4730 0
-450 -4731 0
907 -4731 0
450 -907 4731 0
61 -4732 0
-814 -4732 0
-61 814 4732 0
255 -4733 0
-170 -4733 0
-255 170 4733 0
32 -4734 0
266 -4734 0
-32 -266 4734 0
404 -4735 0
-621 -4735 0
-404 621 4735 0
950 -4736 0
636 -4736 0
-950 -636 4736 0
616 -4737 0
-198 -4737 0
-616 198 4737 0
591 -4738 0
-834 -4738 0
-591 834 4738 0
514 -4739 0
473 -4739 0
-514 -473 4739 0
-784 -4740 0
726 -4740 0
784 -726 4740 0
-544 -4741 0
700 -4741 0
544 -700 4741 0
-814 -4742 0
225 -4742 0
814 -225 4742 0
-1 -4743 0
342 -4743 0
1 -342 4743 0
101 -4744 0
556 -4744 0
-101 -556 4744 0
-465 -4745 0
559 -4745 0
465 -559 4745 0
467 -4746 0
586 -4746 0
-467 -586 4746 0
-218 -4747 0
939 -4747 0
218 -939 4747 0
930 -4748 0
465 -4748 0
-930 -465 4748 0
124 -4749 0
569 -4749 0
-124 -569 4749 0
651 -4750 0
-847 -4750 0
-651 847 4750 0
608 -4751 0
-138 -4751 0
-608 138 4751 0
108 -4752 0
996 -4752 0
-108 -996 4752 0
903 -4753 0
898 -4753 0
-903 -898 4753 0
286 -4754 0
554 -4754 0
-286 -554 4754 0
727 -4755 0
-394 -4755 0
-727 394 4755 0
95 -4756 0
-882 -4756 0
-95 882 4756 0
-382 -4757 0
329 -4757 0
382 -329 4757 0
-8 -4758 0
262 -4758 0
8 -262 4758 0
-977 -4759 0
412 -4759 0
977 -412 4759 0
838 -4760 0
-27 -4760 0
-838 27 4760 0
423 -4761 0
999 -4761 0
-423 -999 4761 0
676 -4762 0
378 -4762 0
-676 -378 4762 0
917 -4763 0
-955 -4763 0
-917 955 4763 0
30 -4764 0
-893 -4764 0
-30 893 4764 0
259 -4765 0
323 -4765 0
-259 -323 4765 0
211 -4766 0
754 -4766 0
-211 -754 4766 0
264 -4767 0
-878 -4767 0
-264 878 4767 0
70 -4768 0
-445 -4768 0
-70 445 4768 0
658 -4769 0
841 -4769 0
-658 -841 4769 0
-481 -4770 0
906 -4770 0
481 -906 4770 0
173 -4771 0
458 -4771 0
-173 -458 4771 0
317 -4772 0
724 -4772 0
-317 -724 4772 0
250 -4773 0
-111 -4773 0
-250 111 4773 0
694 -4774 0
-37 -4774 0
-694 37 4774 0
924 -4775 0
-908 -4775 0
-924 908 4775 0
374 -4776 0
315 -4776 0
-374 -315 4776 0
72 -4777 0
-523 -4777 0
-72 523 4777 0
-610 -4778 0
490 -4778 0
610 -490 4778 0
-34 -4779 0
381 -4779 0
34 -381 4779 0
-881 -4780 0
443 -4780 0
881 -443 4780 0
171 -4781 0
154 -4781 0
-171 -154 4781 0
192 -4782 0
-232 -4782 0
-192 232 4782 0
-151 -4783 0
49 -4783 0
151 -49 4783 0
-305 -4784 0
926 -4784 0
305 -926 4784 0
-120 -4785 0
981 -4785 0
120 -981 4785 0
-281 -4786 0
315 -4786 0
281 -315 4786 0
607 -4787 0
-940 -4787 0
-607 940 4787 0
770 -4788 0
625 -4788 0
-770 -625 4788 0
-1 -4789 0
94 -4789 0
1 -94 4789 0
653 -4790 0
177 -4790 0
-653 -177 4790 0
-881 -4791 0
13 -4791 0
881 -13 4791 0
-670 -4792 0
857 -4792 0
670 -857 4792 0
364 -4793 0
-317 -4793 0
-364 317 4793 0
104 -4794 0
96 -4794 0
-104 -96 4794 0
-817 -4795 0
777 -4795 0
817 -777 4795 0
-578 -4796 0
700 -4796 0
578 -700 4796 0
312 -4797 0
311 -4797 0
-312 -311 4797 0
-51 -4798 0
956 -4798 0
51 -956 4798 0
230 -4799 0
341 -4799 0
-230 -341 4799 0
640 -4800 0
-220 -4800 0
-640 220 4800 0
709 -4801 0
532 -4801 0
-709 -532 4801 0
14 -4802 0
-301 -4802 0
-14 301 4802 0
112 -4803 0
-1000 -4803 0
-112 1000 4803 0
886 -4804 0
763 -4804 0
-886 -763 4804 0
971 -4805 0
-782 -4805 0
-971 782 4805 0
192 -4806 0
-20 -4806 0
-192 20 4806 0
176 -4807 0
781 -4807 0
-176 -781 4807 0
456 -4808 0
995 -4808 0
-456 -995 4808 0
-379 -4809 0
857 -4809 0
379 -857 4809 0
294 -4810 0
-411 -4810 0
-294 411 4810 0
390 -4811 0
692 -4811 0
-390 -692 4811 0
676 -4812 0
428 -4812 0
-676 -428 4812 0
608 -4813 0
333 -4813 0
-608 -333 4813 0
860 -4814 0
-5 -4814 0
-860 5 4814 0
899 -4815 0
-463 -4815 0
-899 463 4815 0
-841 -4816 0
63 -4816 0
841 -63 4816 0
877 -4817 0
-479 -4817 0
-877 479 4817 0
278 -4818 0
-122 -4818 0
-278 122 4818 0
708 -4819 0
490 -4819 0
-708 -490 4819 0
-620 -4820 0
794 -4820 0
620 -794 4820 0
402 -4821 0
90 -4821 0
-402 -90 4821 0
176 -4822 0
-270 -4822 0
-176 270 4822 0
334 -4823 0
-452 -4823 0
-334 452 4823 0
317 -4824 0
-964 -4824 0
-317 964 4824 0
437 -4825 0
-503 -4825 0
-437 503 4825 0
29 -4826 0
507 -4826 0
-29 -507 4826 0
878 -4827 0
-172 -4827 0
-878 172 4827 0
696 -4828 0
631 -4828 0
-696 -631 4828 0
-749 -4829 0
802 -4829 0
749 -802 4829 0
-170 -4830 0
227 -4830 0
170 -227 4830 0
88 -4831 0
-29 -4831 0
-88 29 4831 0
8 -4832 0
695 -4832 0
-8 -695 4832 0
788 -4833 0
273 -4833 0
-788 -273 4833 0
807 -4834 0
-399 -4834 0
-807 399 4834 0
404 -4835 0
-14 -4835 0
-404 14 4835 0
80 -4836 0
1 -4836 0
-80 -1 4836 0
852 -4837 0
-844 -4837 0
-852 844 4837 0
-555 -4838 0
627 -4838 0
555 -627 4838 0
392 -4839 0
18 -4839 0
-392 -18 4839 0
735 -4840 0
-210 -4840 0
-735 210 4840 0
847 -4841 0
57 -4841 0
-847 -57 4841 0
343 -4842 0
353 -4842 0
-343 -353 4842 0
582 -4843 0
291 -4843 0
-582 -291 4843 0
501 -4844 0
972 -4844 0
-501 -972 4844 0
717 -4845 0
941 -4845 0
-717 -941 4845 0
795 -4846 0
449 -4846 0
-795 -449 4846 0
-192 -4847 0
230 -4847 0
192 -230 4847 0
456 -4848 0
-172 -4848 0
-456 172 4848 0
327 -4849 0
-75 -4849 0
-327 75 4849 0
248 -4850 0
-623 -4850 0
-248 623 4850 0
956 -4851 0
-646 -4851 0
-956 646 4851 0
590 -4852 0
964 -4852 0
-590 -964 4852 0
397 -4853 0
-845 -4853 0
-397 845 4853 0
-598 -4854 0
825 -4854 0
598 -825 4854 0
388 -4855 0
-157 -4855 0
-388 157 4855 0
-392 -4856 0
717 -4856 0
392 -717 4856 0
-228 -4857 0
785 -4857 0
228 -785 4857 0
-522 -4858 0
129 -4858 0
522 -129 4858 0
103 -4859 0
316 -4859 0
-103 -316 4859 0
416 -4860 0
338 -4860 0
-416 -338 4860 0
232 -4861 0
367 -4861 0
-232 -367 4861 0
583 -4862 0
-170 -4862 0
-583 170 4862 0
651 -4863 0
849 -4863 0
-651 -849 4863 0
-568 -4864 0
229 -4864 0
568 -229 4864 0
-938 -4865 0
812 -4865 0
938 -812 4865 0
744 -4866 0
172 -4866 0
-744 -172 4866 0
323 -4867 0
-934 -4867 0
-323 934 4867 0
496 -4868 0
524 -4868 0
-496 -524 4868 0
-69 -4869 0
265 -4869 0
69 -265 4869 0
-170 -4870 0
745 -4870 0
170 -745 4870 0
648 -4871 0
-666 -4871 0
-648 666 4871 0
180 -4872 0
409 -4872 0
-180 -409 4872 0
-84 -4873 0
643 -4873 0
84 -643 4873 0
-539 -4874 0
261 -4874 0
539 -261 4874 0
-186 -4875 0
348 -4875 0
186 -348 4875 0
-382 -4876 0
794 -4876 0
382 -794 4876 0
857 -4877 0
521 -4877 0
-857 -521 4877 0
463 -4878 0
238 -4878 0
-463 -238 4878 0
-25 -4879 0
930 -4879 0
25 -930 4879 0
501 -4880 0
324 -4880 0
-501 -324 4880 0
760 -4881 0
-614 -4881 0
-760 614 4881 0
983 -4882 0
-53 -4882 0
-983 53 4882 0
270 -4883 0
597 -4883 0
-270 -597 4883 0
-523 -4884 0
2 -4884 0
523 -2 4884 0
-457 -4885 0
396 -4885 0
457 -396 4885 0
118 -4886 0
996 -4886 0
-118 -996 4886 0
688 -4887 0
548 -4887 0
-688 -548 4887 0
938 -4888 0
-719 -4888 0
-938 719 4888 0
106 -4889 0
-327 -4889 0
-106 327 4889 0
743 -4890 0
461 -4890 0
-743 -461 4890 0
30 -4891 0
412 -4891 0
-30 -412 4891 0
-66 -4892 0
51 -4892 0
66 -51 4892 0
176 -4893 0
-978 -4893 0
-176 978 4893 0
496 -4894 0
-585 -4894 0
-496 585 4894 0
628 -4895 0
265 -4895 0
-628 -265 4895 0
270 -4896 0
403 -4896 0
-270 -403 4896 0
-598 -4897 0
218 -4897 0
598 -218 4897 0
72 -4898 0
-125 -4898 0
-72 125 4898 0
-146 -4899 0
637 -4899 0
146 -637 4899 0
548 -4900 0
105 -4900 0
-548 -105 4900 0
46 -4901 0
291 -4901 0
-46 -291 4901 0
741 -4902 0
43 -4902 0
-741 -43 4902 0
830 -4903 0
884 -4903 0
-830 -884 4903 0
864 -4904 0
178 -4904 0
-864 -178 4904 0
869 -4905 0
-427 -4905 0
-869 427 4905 0
-132 -4906 0
401 -4906 0
132 -401 4906 0
758 -4907 0
-700 -4907 0
-758 700 4907 0
860 -4908 0
-693 -4908 0
-860 693 4908 0
888 -4909 0
61 -4909 0
-888 -61 4909 0
456 -4910 0
-818 -4910 0
-456 818 4910 0
224 -4911 0
863 -4911 0
-224 -863 4911 0
930 -4912 0
-887 -4912 0
-930 887 4912 0
915 -4913 0
931 -4913 0
-915 -931 4913 0
-473 -4914 0
379 -4914 0
473 -379 4914 0
-400 -4915 0
183 -4915 0
400 -183 4915 0
740 -4916 0
-815 -4916 0
-740 815 4916 0
792 -4917 0
924 -4917 0
-792 -924 4917 0
949 -4918 0
764 -4918 0
-949 -764 4918 0
135 -4919 0
-173 -4919 0
-135 173 4919 0
-468 -4920 0
979 -4920 0
468 -979 4920 0
-616 -4921 0
445 -4921 0
616 -445 4921 0
592 -4922 0
690 -4922 0
-592 -690 4922 0
670 -4923 0
-207 -4923 0
-670 207 4923 0
-336 -4924 0
686 -4924 0
336 -686 4924 0
-969 -4925 0
516 -4925 0
969 -516 4925 0
21 -4926 0
25 -4926 0
-21 -25 4926 0
63 -4927 0
-858 -4927 0
-63 858 4927 0
925 -4928 0
996 -4928 0
-925 -996 4928 0
719 -4929 0
-262 -4929 0
-719 262 4929 0
400 -4930 0
289 -4930 0
-400 -289 4930 0
-224 -4931 0
638 -4931 0
224 -638 4931 0
424 -4932 0
719 -4932 0
-424 -719 4932 0
-125 -4933 0
578 -4933 0
125 -578 4933 0
340 -4934 0
692 -4934 0
-340 -692 4934 0
-161 -4935 0
961 -4935 0
161 -961 4935 0
191 -4936 0
570 -4936 0
-191 -570 4936 0
-868 -4937 0
243 -4937 0
868 -243 4937 0
-84 -4938 0
347 -4938 0
84 -347 4938 0
-761 -4939 0
578 -4939 0
761 -578 4939 0
337 -4940 0
-247 -4940 0
-337 247 4940 0
-961 -4941 0
805 -4941 0
961 -805 4941 0
1000 -4942 0
-996 -4942 0
-1000 996 4942 0
950 -4943 0
761 -4943 0
-950 -761 4943 0
725 -4944 0
930 -4944 0
-725 -930 4944 0
32 -4945 0
954 -4945 0
-32 -954 4945 0
564 -4946 0
-927 -4946 0
-564 927 4946 0
472 -4947 0
-658 -4947 0
-472 658 4947 0
-186 -4948 0
155 -4948 0
186 -155 4948 0
152 -4949 0
-351 -4949 0
-152 351 4949 0
348 -4950 0
-6 -4950 0
-348 6 4950 0
862 -4951 0
449 -4951 0
-862 -449 4951 0
976 -4952 0
132 -4952 0
-976 -132 4952 0
-108 -4953 0
379 -4953 0
108 -379 4953 0
-426 -4954 0
421 -4954 0
426 -421 4954 0
987 -4955 0
-78 -4955 0
-987 78 4955 0
389 -4956 0
347 -4956 0
-389 -347 4956 0
485 -4957 0
73 -4957 0
-485 -73 4957 0
117 -4958 0
-22 -4958 0
-117 22 4958 0
-689 -4959 0
915 -4959 0
689 -915 4959 0
197 -4960 0
115 -4960 0
-197 -115 4960 0
462 -4961 0
-502 -4961 0
-462 502 4961 0
-937 -4962 0
627 -4962 0
937 -627 4962 0
-794 -4963 0
985 -4963 0
794 -985 4963 0
933 -4964 0
-403 -4964 0
-933 403 4964 0
643 -4965 0
67 -4965 0
-643 -67 4965 0
-3 -4966 0
577 -4966 0
3 -577 4966 0
395 -4967 0
83 -4967 0
-395 -83 4967 0
-538 -4968 0
314 -4968 0
538 -314 4968 0
-794 -4969 0
97 -4969 0
794 -97 4969 0
991 -4970 0
851 -4970 0
-991 -851 4970 0
326 -4971 0
618 -4971 0
-326 -618 4971 0
392 -4972 0
-41 -4972 0
-392 41 4972 0
135 -4973 0
-738 -4973 0
-135 738 4973 0
256 -4974 0
531 -4974 0
-256 -531 4974 0
-720 -4975 0
122 -4975 0
720 -122 4975 0
357 -4976 0
729 -4976 0
-357 -729 4976 0
846 -4977 0
773 -4977 0
-846 -773 4977 0
684 -4978 0
842 -4978 0
-684 -842 4978 0
-145 -4979 0
617 -4979 0
145 -617 4979 0
-730 -4980 0
10 -4980 0
730 -10 4980 0
981 -4981 0
-996 -4981 0
-981 996 4981 0
739 -4982 0
427 -4982 0
-739 -427 4982 0
88 -4983 0
234 -4983 0
-88 -234 4983 0
-130 -4984 0
-257 -4985 0
274 -4985 0
257 -274 4985 0
-738 -4986 0
357 -4986 0
738 -357 4986 0
784 -4987 0
-733 -4987 0
-784 733 4987 0
43 -4988 0
-503 -4988 0
-43 503 4988 0
32 -4989 0
775 -4989 0
-32 -775 4989 0
-366 -4990 0
945 -4990 0
366 -945 4990 0
401 -4991 0
193 -4991 0
-401 -193 4991 0
45 -4992 0
-862 -4992 0
-45 862 4992 0
85 -4993 0
-540 -4993 0
-85 540 4993 0
724 -4994 0
402 -4994 0
-724 -402 4994 0
946 -4995 0
537 -4995 0
-946 -537 4995 0
-506 -4996 0
537 -4996 0
506 -537 4996 0
-242 -4997 0
650 -4997 0
242 -650 4997 0
808 -4998 0
716 -4998 0
-808 -716 4998 0
613 -4999 0
524 -4999 0
-613 -524 4999 0
-128 -5000 0
474 -5000 0
128 -474 5000 0
470 -5001 0
763 -5001 0
-470 -763 5001 0
789 -5002 0
-556 -5002 0
-789 556 5002 0
406 -5003 0
681 -5003 0
-406 -681 5003 0
963 -5004 0
465 -5004 0
-963 -465 5004 0
233 -5005 0
25 -5005 0
-233 -25 5005 0
239 -5006 0
95 -5006 0
-239 -95 5006 0
832 -5007 0
375 -5007 0
-832 -375 5007 0
-528 -5008 0
632 -5008 0
528 -632 5008 0
38 -5009 0
-748 -5009 0
-38 748 5009 0
653 -5010 0
-719 -5010 0
-653 719 5010 0
916 -5011 0
322 -5011 0
-916 -322 5011 0
-595 -5012 0
66 -5012 0
595 -66 5012 0
252 -5013 0
481 -5013 0
-252 -481 5013 0
87 -5014 0
62 -5014 0
-87 -62 5014 0
624 -5015 0
641 -5015 0
-624 -641 5015 0
683 -5016 0
482 -5016 0
-683 -482 5016 0
-790 -5017 0
754 -5017 0
790 -754 5017 0
368 -5018 0
342 -5018 0
-368 -342 5018 0
-1 -5019 0
918 -5019 0
1 -918 5019 0
173 -5020 0
969 -5020 0
-173 -969 5020 0
176 -5021 0
846 -5021 0
-176 -846 5021 0
477 -5022 0
-652 -5022 0
-477 652 5022 0
-400 -5023 0
997 -5023 0
400 -997 5023 0
423 -5024 0
-291 -5024 0
-423 291 5024 0
400 -5025 0
-813 -5025 0
-400 813 5025 0
976 -5026 0
-510 -5026 0
-976 510 5026 0
126 -5027 0
-91 -5027 0
-126 91 5027 0
-841 -5028 0
810 -5028 0
841 -810 5028 0
311 -5029 0
163 -5029 0
-311 -163 5029 0
-113 -5030 0
54 -5030 0
113 -54 5030 0
42 -5031 0
209 -5031 0
-42 -209 5031 0
816 -5032 0
357 -5032 0
-816 -357 5032 0
560 -5033 0
367 -5033 0
-560 -367 5033 0
899 -5034 0
18 -5034 0
-899 -18 5034 0
534 -5035 0
-381 -5035 0
-534 381 5035 0
-208 -5036 0
547 -5036 0
208 -547 5036 0
432 -5037 0
-180 -5037 0
-432 180 5037 0
93 -5038 0
786 -5038 0
-93 -786 5038 0
-544 -5039 0
855 -5039 0
544 -855 5039 0
-918 -5040 0
210 -5040 0
918 -210 5040 0
126 -5041 0
-259 -5041 0
-126 259 5041 0
420 -5042 0
433 -5042 0
-420 -433 5042 0
125 -5043 0
-637 -5043 0
-125 637 5043 0
22 -5044 0
-338 -5044 0
-22 338 5044 0
-152 -5045 0
445 -5045 0
152 -445 5045 0
588 -5046 0
-278 -5046 0
-588 278 5046 0
28 -5047 0
284 -5047 0
-28 -284 5047 0
128 -5048 0
48 -5048 0
-128 -48 5048 0
181 -5049 0
-276 -5049 0
-181 276 5049 0
-273 -5050 0
98 -5050 0
273 -98 5050 0
-754 -5051 0
817 -5051 0
754 -817 5051 0
779 -5052 0
-982 -5052 0
-779 982 5052 0
360 -5053 0
999 -5053 0
-360 -999 5053 0
318 -5054 0
-676 -5054 0
-318 676 5054 0
664 -5055 0
318 -5055 0
-664 -318 5055 0
121 -5056 0
-71 -5056 0
-121 71 5056 0
-301 -5057 0
298 -5057 0
301 -298 5057 0
-886 -5058 0
457 -5058 0
886 -457 5058 0
418 -5059 0
-79 -5059 0
-418 79 5059 0
39 -5060 0
-931 -5060 0
-39 931 5060 0
-312 -5061 0
319 -5061 0
312 -319 5061 0
560 -5062 0
-820 -5062 0
-560 820 5062 0
-773 -5063 0
41 -5063 0
773 -41 5063 0
486 -5064 0
-751 -5064 0
-486 751 5064 0
303 -5065 0
13 -5065 0
-303 -13 5065 0
4 -5066 0
858 -5066 0
-4 -858 5066 0
238 -5067 0
-45 -5067 0
-238 45 5067 0
-128 -5068 0
39 -5068 0
128 -39 5068 0
899 -5069 0
874 -5069 0
-899 -874 5069 0
582 -5070 0
-291 -5070 0
-582 291 5070 0
638 -5071 0
-19 -5071 0
-638 19 5071 0
931 -5072 0
-181 -5072 0
-931 181 5072 0
-740 -5073 0
857 -5073 0
740 -857 5073 0
902 -5074 0
-863 -5074 0
-902 863 5074 0
-169 -5075 0
84 -5075 0
169 -84 5075 0
-553 -5076 0
123 -5076 0
553 -123 5076 0
156 -5077 0
-470 -5077 0
-156 470 5077 0
920 -5078 0
183 -5078 0
-920 -183 5078 0
887 -5079 0
-410 -5079 0
-887 410 5079 0
-880 -5080 0
282 -5080 0
880 -282 5080 0
-498 -5081 0
362 -5081 0
498 -362 5081 0
-924 -5082 0
91 -5082 0
924 -91 5082 0
397 -5083 0
146 -5083 0
-397 -146 5083 0
630 -5084 0
361 -5084 0
-630 -361 5084 0
573 -5085 0
-484 -5085 0
-573 484 5085 0
583 -5086 0
-254 -5086 0
-583 254 5086 0
971 -5087 0
921 -5087 0
-971 -921 5087 0
199 -5088 0
548 -5088 0
-199 -548 5088 0
590 -5089 0
-204 -5089 0
-590 204 5089 0
191 -5090 0
202 -5090 0
-191 -202 5090 0
420 -5091 0
-654 -5091 0
-420 654 5091 0
573 -5092 0
-197 -5092 0
-573 197 5092 0
216 -5093 0
-178 -5093 0
-216 178 5093 0
790 -5094 0
-455 -5094 0
-790 455 5094 0
-986 -5095 0
486 -5095 0
986 -486 5095 0
-384 -5096 0
76 -5096 0
384 -76 5096 0
136 -5097 0
-652 -5097 0
-136 652 5097 0
752 -5098 0
-314 -5098 0
-752 314 5098 0
940 -5099 0
-750 -5099 0
-940 750 5099 0
-338 -5100 0
882 -5100 0
338 -882 5100 0
683 -5101 0
177 -5101 0
-683 -177 5101 0
-880 -5102 0
268 -5102 0
880 -268 5102 0
794 -5103 0
729 -5103 0
-794 -729 5103 0
-968 -5104 0
986 -5104 0
968 -986 5104 0
-345 -5105 0
639 -5105 0
345 -639 5105 0
704 -5106 0
-58 -5106 0
-704 58 5106 0
540 -5107 0
242 -5107 0
-540 -242 5107 0
772 -5108 0
651 -5108 0
-772 -651 5108 0
695 -5109 0
923 -5109 0
-695 -923 5109 0
192 -5110 0
-510 -5110 0
-192 510 5110 0
260 -5111 0
436 -5111 0
-260 -436 5111 0
694 -5112 0
324 -5112 0
-694 -324 5112 0
76 -5113 0
-302 -5113 0
-76 302 5113 0
-449 -5114 0
900 -5114 0
449 -900 5114 0
-1 -5115 0
842 -5115 0
1 -842 5115 0
-28 -5116 0
97 -5116 0
28 -97 5116 0
957 -5117 0
660 -5117 0
-957 -660 5117 0
-656 -5118 0
854 -5118 0
656 -854 5118 0
646 -5119 0
401 -5119 0
-646 -401 5119 0
-897 -5120 0
786 -5120 0
897 -786 5120 0
-531 -5121 0
586 -5121 0
531 -586 5121 0
-864 -5122 0
944 -5122 0
864 -944 5122 0
-412 -5123 0
284 -5123 0
412 -284 5123 0
48 -5124 0
977 -5124 0
-48 -977 5124 0
317 -5125 0
769 -5125 0
-317 -769 5125 0
605 -5126 0
1 -5126 0
-605 -1 5126 0
431 -5127 0
101 -5127 0
-431 -101 5127 0
466 -5128 0
-863 -5128 0
-466 863 5128 0
821 -5129 0
-181 -5129 0
-821 181 5129 0
556 -5130 0
-223 -5130 0
-556 223 5130 0
-684 -5131 0
803 -5131 0
684 -803 5131 0
224 -5132 0
484 -5132 0
-224 -484 5132 0
-56 -5133 0
406 -5133 0
56 -406 5133 0
-540 -5134 0
899 -5134 0
540 -899 5134 0
918 -5135 0
-742 -5135 0
-918 742 5135 0
992 -5136 0
-274 -5136 0
-992 274 5136 0
189 -5137 0
-503 -5137 0
-189 503 5137 0
-462 -5138 0
594 -5138 0
462 -594 5138 0
509 -5139 0
419 -5139 0
-509 -419 5139 0
-571 -5140 0
394 -5140 0
571 -394 5140 0
446 -5141 0
597 -5141 0
-446 -597 5141 0
352 -5142 0
549 -5142 0
-352 -549 5142 0
944 -5143 0
-123 -5143 0
-944 123 5143 0
834 -5144 0
-214 -5144 0
-834 214 5144 0
312 -5145 0
-69 -5145 0
-312 69 5145 0
605 -5146 0
-975 -5146 0
-605 975 5146 0
415 -5147 0
-237 -5147 0
-415 237 5147 0
167 -5148 0
631 -5148 0
-167 -631 5148 0
862 -5149 0
738 -5149 0
-862 -738 5149 0
546 -5150 0
-463 -5150 0
-546 463 5150 0
902 -5151 0
531 -5151 0
-902 -531 5151 0
731 -5152 0
745 -5152 0
-731 -745 5152 0
-776 -5153 0
259 -5153 0
776 -259 5153 0
-794 -5154 0
83 -5154 0
794 -83 5154 0
192 -5155 0
167 -5155 0
-192 -167 5155 0
589 -5156 0
500 -5156 0
-589 -500 5156 0
966 -5157 0
-814 -5157 0
-966 814 5157 0
338 -5158 0
578 -5158 0
-338 -578 5158 0
464 -5159 0
224 -5159 0
-464 -224 5159 0
927 -5160 0
-532 -5160 0
-927 532 5160 0
678 -5161 0
850 -5161 0
-678 -850 5161 0
-210 -5162 0
794 -5162 0
210 -794 5162 0
-962 -5163 0
886 -5163 0
962 -886 5163 0
60 -5164 0
-669 -5164 0
-60 669 5164 0
782 -5165 0
-716 -5165 0
-782 716 5165 0
793 -5166 0
545 -5166 0
-793 -545 5166 0
928 -5167 0
-15 -5167 0
-928 15 5167 0
-262 -5168 0
753 -5168 0
262 -753 5168 0
512 -5169 0
-626 -5169 0
-512 626 5169 0
408 -5170 0
-260 -5170 0
-408 260 5170 0
136 -5171 0
679 -5171 0
-136 -679 5171 0
503 -5172 0
91 -5172 0
-503 -91 5172 0
851 -5173 0
169 -5173 0
-851 -169 5173 0
843 -5174 0
-71 -5174 0
-843 71 5174 0
550 -5175 0
-356 -5175 0
-550 356 5175 0
-273 -5176 0
166 -5176 0
273 -166 5176 0
535 -5177 0
146 -5177 0
-535 -146 5177 0
766 -5178 0
-645 -5178 0
-766 645 5178 0
371 -5179 0
82 -5179 0
-371 -82 5179 0
739 -5180 0
379 -5180 0
-739 -379 5180 0
548 -5181 0
-782 -5181 0
-548 782 5181 0
902 -5182 0
869 -5182 0
-902 -869 5182 0
-688 -5183 0
771 -5183 0
688 -771 5183 0
1000 -5184 0
488 -5184 0
-1000 -488 5184 0
-738 -5185 0
789 -5185 0
738 -789 5185 0
655 -5186 0
-244 -5186 0
-655 244 5186 0
861 -5187 0
923 -5187 0
-861 -923 5187 0
-794 -5188 0
754 -5188 0
794 -754 5188 0
104 -5189 0
318 -5189 0
-104 -318 5189 0
286 -5190 0
821 -5190 0
-286 -821 5190 0
472 -5191 0
-347 -5191 0
-472 347 5191 0
971 -5192 0
-455 -5192 0
-971 455 5192 0
-220 -5193 0
411 -5193 0
220 -411 5193 0
278 -5194 0
-107 -5194 0
-278 107 5194 0
727 -5195 0
97 -5195 0
-727 -97 5195 0
112 -5196 0
-809 -5196 0
-112 809 5196 0
503 -5197 0
-340 -5197 0
-503 340 5197 0
927 -5198 0
508 -5198 0
-927 -508 5198 0
-843 -5199 0
596 -5199 0
843 -596 5199 0
78 -5200 0
-412 -5200 0
-78 412 5200 0
48 -5201 0
724 -5201 0
-48 -724 5201 0
-249 -5202 0
682 -5202 0
249 -682 5202 0
255 -5203 0
-785 -5203 0
-255 785 5203 0
221 -5204 0
787 -5204 0
-221 -787 5204 0
840 -5205 0
-442 -5205 0
-840 442 5205 0
448 -5206 0
493 -5206 0
-448 -493 5206 0
192 -5207 0
-31 -5207 0
-192 31 5207 0
575 -5208 0
-780 -5208 0
-575 780 5208 0
628 -5209 0
146 -5209 0
-628 -146 5209 0
-841 -5210 0
818 -5210 0
841 -818 5210 0
503 -5211 0
-937 -5211 0
-503 937 5211 0
-624 -5212 0
206 -5212 0
624 -206 5212 0
603 -5213 0
762 -5213 0
-603 -762 5213 0
277 -5214 0
-116 -5214 0
-277 116 5214 0
983 -5215 0
-662 -5215 0
-983 662 5215 0
704 -5216 0
-741 -5216 0
-704 741 5216 0
203 -5217 0
-789 -5217 0
-203 789 5217 0
-633 -5218 0
380 -5218 0
633 -380 5218 0
24 -5219 0
-322 -5219 0
-24 322 5219 0
939 -5220 0
-270 -5220 0
-939 270 5220 0
459 -5221 0
-407 -5221 0
-459 407 5221 0
100 -5222 0
-677 -5222 0
-100 677 5222 0
51 -5223 0
337 -5223 0
-51 -337 5223 0
238 -5224 0
-494 -5224 0
-238 494 5224 0
654 -5225 0
21 -5225 0
-654 -21 5225 0
-856 -5226 0
209 -5226 0
856 -209 5226 0
496 -5227 0
-997 -5227 0
-496 997 5227 0
567 -5228 0
-302 -5228 0
-567 302 5228 0
904 -5229 0
213 -5229 0
-904 -213 5229 0
886 -5230 0
-46 -5230 0
-886 46 5230 0
815 -5231 0
670 -5231 0
-815 -670 5231 0
118 -5232 0
-661 -5232 0
-118 661 5232 0
966 -5233 0
805 -5233 0
-966 -805 5233 0
280 -5234 0
-247 -5234 0
-280 247 5234 0
943 -5235 0
533 -5235 0
-943 -533 5235 0
-941 -5236 0
777 -5236 0
941 -777 5236 0
784 -5237 0
972 -5237 0
-784 -972 5237 0
-753 -5238 0
933 -5238 0
753 -933 5238 0
103 -5239 0
-500 -5239 0
-103 500 5239 0
87 -5240 0
-958 -5240 0
-87 958 5240 0
808 -5241 0
-518 -5241 0
-808 518 5241 0
582 -5242 0
-302 -5242 0
-582 302 5242 0
-76 -5243 0
452 -5243 0
76 -452 5243 0
-204 -5244 0
545 -5244 0
204 -545 5244 0
174 -5245 0
308 -5245 0
-174 -308 5245 0
189 -5246 0
692 -5246 0
-189 -692 5246 0
-587 -5247 0
738 -5247 0
587 -738 5247 0
-266 -5248 0
401 -5248 0
266 -401 5248 0
436 -5249 0
-302 -5249 0
-436 302 5249 0
816 -5250 0
204 -5250 0
-816 -204 5250 0
-234 -5251 0
382 -5251 0
234 -382 5251 0
11 -5252 0
529 -5252 0
-11 -529 5252 0
-738 -5253 0
609 -5253 0
738 -609 5253 0
-962 -5254 0
726 -5254 0
962 -726 5254 0
844 -5255 0
-799 -5255 0
-844 799 5255 0
-339 -5256 0
882 -5256 0
339 -882 5256 0
351 -5257 0
489 -5257 0
-351 -489 5257 0
255 -5258 0
-916 -5258 0
-255 916 5258 0
-960 -5259 0
951 -5259 0
960 -951 5259 0
-710 -5260 0
889 -5260 0
710 -889 5260 0
-704 -5261 0
723 -5261 0
704 -723 5261 0
502 -5262 0
-3 -5262 0
-502 3 5262 0
-637 -5263 0
83 -5263 0
637 -83 5263 0
469 -5264 0
387 -5264 0
-469 -387 5264 0
287 -5265 0
163 -5265 0
-287 -163 5265 0
190 -5266 0
-798 -5266 0
-190 798 5266 0
-456 -5267 0
390 -5267 0
456 -390 5267 0
707 -5268 0
219 -5268 0
-707 -219 5268 0
559 -5269 0
445 -5269 0
-559 -445 5269 0
807 -5270 0
322 -5270 0
-807 -322 5270 0
592 -5271 0
574 -5271 0
-592 -574 5271 0
557 -5272 0
-380 -5272 0
-557 380 5272 0
760 -5273 0
-712 -5273 0
-760 712 5273 0
579 -5274 0
273 -5274 0
-579 -273 5274 0
869 -5275 0
684 -5275 0
-869 -684 5275 0
-736 -5276 0
861 -5276 0
736 -861 5276 0
328 -5277 0
734 -5277 0
-328 -734 5277 0
21 -5278 0
116 -5278 0
-21 -116 5278 0
7 -5279 0
-727 -5279 0
-7 727 5279 0
-404 -5280 0
43 -5280 0
404 -43 5280 0
864 -5281 0
-471 -5281 0
-864 471 5281 0
-402 -5282 0
366 -5282 0
402 -366 5282 0
416 -5283 0
-927 -5283 0
-416 927 5283 0
116 -5284 0
-423 -5284 0
-116 423 5284 0
-305 -5285 0
174 -5285 0
305 -174 5285 0
295 -5286 0
550 -5286 0
-295 -550 5286 0
869 -5287 0
138 -5287 0
-869 -138 5287 0
904 -5288 0
567 -5288 0
-904 -567 5288 0
486 -5289 0
-886 -5289 0
-486 886 5289 0
643 -5290 0
722 -5290 0
-643 -722 5290 0
-269 -5291 0
459 -5291 0
269 -459 5291 0
48 -5292 0
63 -5292 0
-48 -63 5292 0
247 -5293 0
-874 -5293 0
-247 874 5293 0
626 -5294 0
-894 -5294 0
-626 894 5294 0
-290 -5295 0
732 -5295 0
290 -732 5295 0
109 -5296 0
-405 -5296 0
-109 405 5296 0
242 -5297 0
993 -5297 0
-242 -993 5297 0
278 -5298 0
666 -5298 0
-278 -666 5298 0
455 -5299 0
-436 -5299 0
-455 436 5299 0
744 -5300 0
-903 -5300 0
-744 903 5300 0
893 -5301 0
377 -5301 0
-893 -377 5301 0
-417 -5302 0
858 -5302 0
417 -858 5302 0
204 -5303 0
49 -5303 0
-204 -49 5303 0
-649 -5304 0
958 -5304 0
649 -958 5304 0
-554 -5305 0
595 -5305 0
554 -595 5305 0
350 -5306 0
429 -5306 0
-350 -429 5306 0
-919 -5307 0
625 -5307 0
919 -625 5307 0
532 -5308 0
529 -5308 0
-532 -529 5308 0
-553 -5309 0
915 -5309 0
553 -915 5309 0
499 -5310 0
-582 -5310 0
-499 582 5310 0
-27 -5311 0
196 -5311 0
27 -196 5311 0
-712 -5312 0
502 -5312 0
712 -502 5312 0
152 -5313 0
-995 -5313 0
-152 995 5313 0
493 -5314 0
748 -5314 0
-493 -748 5314 0
6 -5315 0
301 -5315 0
-6 -301 5315 0
-674 -5316 0
486 -5316 0
674 -486 5316 0
248 -5317 0
-910 -5317 0
-248 910 5317 0
-148 -5318 0
778 -5318 0
148 -778 5318 0
934 -5319 0
66 -5319 0
-934 -66 5319 0
-625 -5320 0
630 -5320 0
625 -630 5320 0
951 -5321 0
-826 -5321 0
-951 826 5321 0
-985 -5322 0
812 -5322 0
985 -812 5322 0
879 -5323 0
955 -5323 0
-879 -955 5323 0
935 -5324 0
69 -5324 0
-935 -69 5324 0
-113 -5325 0
882 -5325 0
113 -882 5325 0
-908 -5326 0
548 -5326 0
908 -548 5326 0
339 -5327 0
730 -5327 0
-339 -730 5327 0
847 -5328 0
727 -5328 0
-847 -727 5328 0
252 -5329 0
433 -5329 0
-252 -433 5329 0
852 -5330 0
-805 -5330 0
-852 805 5330 0
564 -5331 0
-261 -5331 0
-564 261 5331 0
104 -5332 0
-178 -5332 0
-104 178 5332 0
-549 -5333 0
683 -5333 0
549 -683 5333 0
10 -5334 0
-230 -5334 0
-10 230 5334 0
638 -5335 0
-34 -5335 0
-638 34 5335 0
111 -5336 0
610 -5336 0
-111 -610 5336 0
415 -5337 0
54 -5337 0
-415 -54 5337 0
-440 -5338 0
885 -5338 0
440 -885 5338 0
792 -5339 0
819 -5339 0
-792 -819 5339 0
-565 -5340 0
537 -5340 0
565 -537 5340 0
248 -5341 0
-759 -5341 0
-248 759 5341 0
587 -5342 0
634 -5342 0
-587 -634 5342 0
-760 -5343 0
782 -5343 0
760 -782 5343 0
260 -5344 0
467 -5344 0
-260 -467 5344 0
664 -5345 0
-638 -5345 0
-664 638 5345 0
-180 -5346 0
354 -5346 0
180 -354 5346 0
296 -5347 0
-302 -5347 0
-296 302 5347 0
587 -5348 0
66 -5348 0
-587 -66 5348 0
-816 -5349 0
874 -5349 0
816 -874 5349 0
468 -5350 0
465 -5350 0
-468 -465 5350 0
229 -5351 0
-542 -5351 0
-229 542 5351 0
-52 -5352 0
323 -5352 0
52 -323 5352 0
301 -5353 0
2 -5353 0
-301 -2 5353 0
398 -5354 0
708 -5354 0
-398 -708 5354 0
714 -5355 0
609 -5355 0
-714 -609 5355 0
-444 -5356 0
626 -5356 0
444 -626 5356 0
103 -5357 0
-921 -5357 0
-103 921 5357 0
420 -5358 0
217 -5358 0
-420 -217 5358 0
894 -5359 0
-643 -5359 0
-894 643 5359 0
-275 -5360 0
843 -5360 0
275 -843 5360 0
581 -5361 0
-582 -5361 0
-581 582 5361 0
-979 -5362 0
884 -5362 0
979 -884 5362 0
40 -5363 0
997 -5363 0
-40 -997 5363 0
644 -5364 0
-503 -5364 0
-644 503 5364 0
716 -5365 0
137 -5365 0
-716 -137 5365 0
85 -5366 0
236 -5366 0
-85 -236 5366 0
214 -5367 0
997 -5367 0
-214 -997 5367 0
-9 -5368 0
106 -5368 0
9 -106 5368 0
920 -5369 0
654 -5369 0
-920 -654 5369 0
972 -5370 0
-878 -5370 0
-972 878 5370 0
380 -5371 0
627 -5371 0
-380 -627 5371 0
893 -5372 0
901 -5372 0
-893 -901 5372 0
712 -5373 0
672 -5373 0
-712 -672 5373 0
-737 -5374 0
108 -5374 0
737 -108 5374 0
887 -5375 0
-631 -5375 0
-887 631 5375 0
-21 -5376 0
785 -5376 0
21 -785 5376 0
787 -5377 0
115 -5377 0
-787 -115 5377 0
616 -5378 0
-84 -5378 0
-616 84 5378 0
-201 -5379 0
938 -5379 0
201 -938 5379 0
936 -5380 0
-945 -5380 0
-936 945 5380 0
-58 -5381 0
286 -5381 0
58 -286 5381 0
701 -5382 0
843 -5382 0
-701 -843 5382 0
421 -5383 0
349 -5383 0
-421 -349 5383 0
764 -5384 0
659 -5384 0
-764 -659 5384 0
86 -5385 0
754 -5385 0
-86 -754 5385 0
400 -5386 0
-318 -5386 0
-400 318 5386 0
-80 -5387 0
526 -5387 0
80 -526 5387 0
504 -5388 0
-580 -5388 0
-504 580 5388 0
758 -5389 0
409 -5389 0
-758 -409 5389 0
-48 -5390 0
939 -5390 0
48 -939 5390 0
135 -5391 0
-21 -5391 0
-135 21 5391 0
38 -5392 0
-498 -5392 0
-38 498 5392 0
-329 -5393 0
558 -5393 0
329 -558 5393 0
-576 -5394 0
368 -5394 0
576 -368 5394 0
38 -5395 0
-748 -5395 0
-38 748 5395 0
848 -5396 0
-799 -5396 0
-848 799 5396 0
653 -5397 0
-110 -5397 0
-653 110 5397 0
518 -5398 0
-942 -5398 0
-518 942 5398 0
932 -5399 0
546 -5399 0
-932 -546 5399 0
-435 -5400 0
925 -5400 0
435 -925 5400 0
38 -5401 0
21 -5401 0
-38 -21 5401 0
766 -5402 0
244 -5402 0
-766 -244 5402 0
984 -5403 0
-964 -5403 0
-984 964 5403 0
915 -5404 0
611 -5404 0
-915 -611 5404 0
-185 -5405 0
819 -5405 0
185 -819 5405 0
230 -5406 0
-303 -5406 0
-230 303 5406 0
340 -5407 0
-580 -5407 0
-340 580 5407 0
323 -5408 0
-399 -5408 0
-323 399 5408 0
-428 -5409 0
500 -5409 0
428 -500 5409 0
203 -5410 0
-334 -5410 0
-203 334 5410 0
-396 -5411 0
187 -5411 0
396 -187 5411 0
268 -5412 0
699 -5412 0
-268 -699 5412 0
400 -5413 0
867 -5413 0
-400 -867 5413 0
148 -5414 0
946 -5414 0
-148 -946 5414 0
663 -5415 0
-574 -5415 0
-663 574 5415 0
970 -5416 0
194 -5416 0
-970 -194 5416 0
190 -5417 0
866 -5417 0
-190 -866 5417 0
662 -5418 0
946 -5418 0
-662 -946 5418 0
695 -5419 0
-509 -5419 0
-695 509 5419 0
-483 -5420 0
683 -5420 0
483 -683 5420 0
509 -5421 0
524 -5421 0
-509 -524 5421 0
934 -5422 0
-907 -5422 0
-934 907 5422 0
188 -5423 0
-527 -5423 0
-188 527 5423 0
-337 -5424 0
854 -5424 0
337 -854 5424 0
421 -5425 0
82 -5425 0
-421 -82 5425 0
-820 -5426 0
20 -5426 0
820 -20 5426 0
877 -5427 0
634 -5427 0
-877 -634 5427 0
655 -5428 0
-729 -5428 0
-655 729 5428 0
190 -5429 0
-772 -5429 0
-190 772 5429 0
310 -5430 0
996 -5430 0
-310 -996 5430 0
139 -5431 0
-214 -5431 0
-139 214 5431 0
647 -5432 0
667 -5432 0
-647 -667 5432 0
754 -5433 0
-479 -5433 0
-754 479 5433 0
838 -5434 0
-475 -5434 0
-838 475 5434 0
433 -5435 0
337 -5435 0
-433 -337 5435 0
685 -5436 0
85 -5436 0
-685 -85 5436 0
-575 -5437 0
177 -5437 0
575 -177 5437 0
824 -5438 0
815 -5438 0
-824 -815 5438 0
352 -5439 0
-151 -5439 0
-352 151 5439 0
-337 -5440 0
738 -5440 0
337 -738 5440 0
366 -5441 0
-172 -5441 0
-366 172 5441 0
-393 -5442 0
771 -5442 0
393 -771 5442 0
55 -5443 0
-205 -5443 0
-55 205 5443 0
-43 -5444 0
28 -5444 0
43 -28 5444 0
-105 -5445 0
204 -5445 0
105 -204 5445 0
87 -5446 0
310 -5446 0
-87 -310 5446 0
-477 -5447 0
650 -5447 0
477 -650 5447 0
808 -5448 0
-882 -5448 0
-808 882 5448 0
-970 -5449 0
979 -5449 0
970 -979 5449 0
952 -5450 0
252 -5450 0
-952 -252 5450 0
-680 -5451 0
43 -5451 0
680 -43 5451 0
816 -5452 0
434 -5452 0
-816 -434 5452 0
464 -5453 0
317 -5453 0
-464 -317 5453 0
8 -5454 0
-197 -5454 0
-8 197 5454 0
335 -5455 0
-708 -5455 0
-335 708 5455 0
-544 -5456 0
660 -5456 0
544 -660 5456 0
-548 -5457 0
643 -5457 0
548 -643 5457 0
464 -5458 0
-979 -5458 0
-464 979 5458 0
360 -5459 0
-337 -5459 0
-360 337 5459 0
964 -5460 0
795 -5460 0
-964 -795 5460 0
440 -5461 0
984 -5461 0
-440 -984 5461 0
376 -5462 0
-427 -5462 0
-376 427 5462 0
548 -5463 0
-125 -5463 0
-548 125 5463 0
248 -5464 0
-430 -5464 0
-248 430 5464 0
464 -5465 0
-767 -5465 0
-464 767 5465 0
762 -5466 0
89 -5466 0
-762 -89 5466 0
31 -5467 0
957 -5467 0
-31 -957 5467 0
814 -5468 0
-764 -5468 0
-814 764 5468 0
411 -5469 0
401 -5469 0
-411 -401 5469 0
757 -5470 0
140 -5470 0
-757 -140 5470 0
-67 -5471 0
241 -5471 0
67 -241 5471 0
421 -5472 0
-351 -5472 0
-421 351 5472 0
-513 -5473 0
740 -5473 0
513 -740 5473 0
534 -5474 0
181 -5474 0
-534 -181 5474 0
990 -5475 0
244 -5475 0
-990 -244 5475 0
547 -5476 0
-638 -5476 0
-547 638 5476 0
789 -5477 0
-903 -5477 0
-789 903 5477 0
343 -5478 0
-579 -5478 0
-343 579 5478 0
909 -5479 0
-14 -5479 0
-909 14 5479 0
598 -5480 0
314 -5480 0
-598 -314 5480 0
394 -5481 0
633 -5481 0
-394 -633 5481 0
312 -5482 0
391 -5482 0
-312 -391 5482 0
-80 -5483 0
737 -5483 0
80 -737 5483 0
-24 -5484 0
385 -5484 0
24 -385 5484 0
-830 -5485 0
409 -5485 0
830 -409 5485 0
-241 -5486 0
305 -5486 0
241 -305 5486 0
188 -5487 0
-382 -5487 0
-188 382 5487 0
534 -5488 0
-845 -5488 0
-534 845 5488 0
960 -5489 0
-50 -5489 0
-960 50 5489 0
263 -5490 0
518 -5490 0
-263 -518 5490 0
494 -5491 0
755 -5491 0
-494 -755 5491 0
-856 -5492 0
679 -5492 0
856 -679 5492 0
523 -5493 0
-430 -5493 0
-523 430 5493 0
807 -5494 0
965 -5494 0
-807 -965 5494 0
-177 -5495 0
378 -5495 0
177 -378 5495 0
-796 -5496 0
724 -5496 0
796 -724 5496 0
-954 -5497 0
116 -5497 0
954 -116 5497 0
280 -5498 0
-516 -5498 0
-280 516 5498 0
237 -5499 0
42 -5499 0
-237 -42 5499 0
-136 -5500 0
600 -5500 0
136 -600 5500 0
-321 -5501 0
46 -5501 0
321 -46 5501 0
-818 -5502 0
859 -5502 0
818 -859 5502 0
-595 -5503 0
397 -5503 0
595 -397 5503 0
536 -5504 0
291 -5504 0
-536 -291 5504 0
888 -5505 0
-876 -5505 0
-888 876 5505 0
368 -5506 0
-381 -5506 0
-368 381 5506 0
620 -5507 0
795 -5507 0
-620 -795 5507 0
84 -5508 0
123 -5508 0
-84 -123 5508 0
710 -5509 0
-627 -5509 0
-710 627 5509 0
-153 -5510 0
189 -5510 0
153 -189 5510 0
167 -5511 0
-373 -5511 0
-167 373 5511 0
-797 -5512 0
859 -5512 0
797 -859 5512 0
-345 -5513 0
502 -5513 0
345 -502 5513 0
103 -5514 0
829 -5514 0
-103 -829 5514 0
-325 -5515 0
122 -5515 0
325 -122 5515 0
461 -5516 0
-463 -5516 0
-461 463 5516 0
975 -5517 0
466 -5517 0
-975 -466 5517 0
430 -5518 0
-646 -5518 0
-430 646 5518 0
499 -5519 0
-29 -5519 0
-499 29 5519 0
-840 -5520 0
408 -5520 0
840 -408 5520 0
628 -5521 0
-55 -5521 0
-628 55 5521 0
45 -5522 0
-955 -5522 0
-45 955 5522 0
978 -5523 0
-895 -5523 0
-978 895 5523 0
800 -5524 0
347 -5524 0
-800 -347 5524 0
-738 -5525 0
450 -5525 0
738 -450 5525 0
-554 -5526 0
245 -5526 0
554 -245 5526 0
360 -5527 0
-519 -5527 0
-360 519 5527 0
156 -5528 0
507 -5528 0
-156 -507 5528 0
160 -5529 0
927 -5529 0
-160 -927 5529 0
712 -5530 0
-243 -5530 0
-712 243 5530 0
46 -5531 0
-943 -5531 0
-46 943 5531 0
69 -5532 0
-765 -5532 0
-69 765 5532 0
-72 -5533 0
47 -5533 0
72 -47 5533 0
636 -5534 0
833 -5534 0
-636 -833 5534 0
616 -5535 0
497 -5535 0
-616 -497 5535 0
504 -5536 0
-550 -5536 0
-504 550 5536 0
280 -5537 0
738 -5537 0
-280 -738 5537 0
-213 -5538 0
338 -5538 0
213 -338 5538 0
125 -5539 0
265 -5539 0
-125 -265 5539 0
976 -5540 0
-559 -5540 0
-976 559 5540 0
-809 -5541 0
46 -5541 0
809 -46 5541 0
742 -5542 0
779 -5542 0
-742 -779 5542 0
-178 -5543 0
162 -5543 0
178 -162 5543 0
552 -5544 0
-85 -5544 0
-552 85 5544 0
212 -5545 0
-701 -5545 0
-212 701 5545 0
992 -5546 0
-557 -5546 0
-992 557 5546 0
895 -5547 0
919 -5547 0
-895 -919 5547 0
980 -5548 0
19 -5548 0
-980 -19 5548 0
-625 -5549 0
489 -5549 0
625 -489 5549 0
871 -5550 0
307 -5550 0
-871 -307 5550 0
-65 -5551 0
308 -5551 0
65 -308 5551 0
339 -5552 0
-238 -5552 0
-339 238 5552 0
556 -5553 0
473 -5553 0
-556 -473 5553 0
918 -5554 0
-143 -5554 0
-918 143 5554 0
631 -5555 0
-590 -5555 0
-631 590 5555 0
302 -5556 0
889 -5556 0
-302 -889 5556 0
-876 -5557 0
923 -5557 0
876 -923 5557 0
-763 -5558 0
858 -5558 0
763 -858 5558 0
584 -5559 0
200 -5559 0
-584 -200 5559 0
243 -5560 0
-661 -5560 0
-243 661 5560 0
608 -5561 0
574 -5561 0
-608 -574 5561 0
227 -5562 0
323 -5562 0
-227 -323 5562 0
735 -5563 0
924 -5563 0
-735 -924 5563 0
-93 -5564 0
819 -5564 0
93 -819 5564 0
662 -5565 0
57 -5565 0
-662 -57 5565 0
-523 -5566 0
28 -5566 0
523 -28 5566 0
-51 -5567 0
385 -5567 0
51 -385 5567 0
688 -5568 0
818 -5568 0
-688 -818 5568 0
-993 -5569 0
885 -5569 0
993 -885 5569 0
821 -5570 0
-140 -5570 0
-821 140 5570 0
383 -5571 0
97 -5571 0
-383 -97 5571 0
533 -5572 0
521 -5572 0
-533 -521 5572 0
752 -5573 0
-876 -5573 0
-752 876 5573 0
527 -5574 0
-359 -5574 0
-527 359 5574 0
-589 -5575 0
394 -5575 0
589 -394 5575 0
143 -5576 0
159 -5576 0
-143 -159 5576 0
1000 -5577 0
-198 -5577 0
-1000 198 5577 0
791 -5578 0
634 -5578 0
-791 -634 5578 0
-460 -5579 0
340 -5579 0
460 -340 5579 0
-661 -5580 0
169 -5580 0
661 -169 5580 0
901 -5581 0
491 -5581 0
-901 -491 5581 0
312 -5582 0
-913 -5582 0
-312 913 5582 0
414 -5583 0
-31 -5583 0
-414 31 5583 0
-2 -5584 0
689 -5584 0
2 -689 5584 0
322 -5585 0
-486 -5585 0
-322 486 5585 0
-610 -5586 0
98 -5586 0
610 -98 5586 0
365 -5587 0
-342 -5587 0
-365 342 5587 0
239 -5588 0
370 -5588 0
-239 -370 5588 0
208 -5589 0
-57 -5589 0
-208 57 5589 0
245 -5590 0
682 -5590 0
-245 -682 5590 0
206 -5591 0
994 -5591 0
-206 -994 5591 0
394 -5592 0
697 -5592 0
-394 -697 5592 0
-971 -5593 0
37 -5593 0
971 -37 5593 0
-379 -5594 0
293 -5594 0
379 -293 5594 0
455 -5595 0
399 -5595 0
-455 -399 5595 0
-800 -5596 0
246 -5596 0
800 -246 5596 0
822 -5597 0
502 -5597 0
-822 -502 5597 0
914 -5598 0
-471 -5598 0
-914 471 5598 0
-736 -5599 0
937 -5599 0
736 -937 5599 0
460 -5600 0
491 -5600 0
-460 -491 5600 0
552 -5601 0
-463 -5601 0
-552 463 5601 0
112 -5602 0
-735 -5602 0
-112 735 5602 0
99 -5603 0
-701 -5603 0
-99 701 5603 0
872 -5604 0
935 -5604 0
-872 -935 5604 0
186 -5605 0
121 -5605 0
-186 -121 5605 0
792 -5606 0
240 -5606 0
-792 -240 5606 0
-652 -5607 0
33 -5607 0
652 -33 5607 0
459 -5608 0
617 -5608 0
-459 -617 5608 0
624 -5609 0
30 -5609 0
-624 -30 5609 0
128 -5610 0
-783 -5610 0
-128 783 5610 0
-938 -5611 0
923 -5611 0
938 -923 5611 0
647 -5612 0
-732 -5612 0
-647 732 5612 0
952 -5613 0
-398 -5613 0
-952 398 5613 0
336 -5614 0
28 -5614 0
-336 -28 5614 0
263 -5615 0
-723 -5615 0
-263 723 5615 0
576 -5616 0
441 -5616 0
-576 -441 5616 0
264 -5617 0
274 -5617 0
-264 -274 5617 0
-617 -5618 0
393 -5618 0
617 -393 5618 0
744 -5619 0
159 -5619 0
-744 -159 5619 0
-81 -5620 0
428 -5620 0
81 -428 5620 0
-853 -5621 0
242 -5621 0
853 -242 5621 0
438 -5622 0
-437 -5622 0
-438 437 5622 0
190 -5623 0
593 -5623 0
-190 -593 5623 0
-728 -5624 0
484 -5624 0
728 -484 5624 0
437 -5625 0
897 -5625 0
-437 -897 5625 0
557 -5626 0
-957 -5626 0
-557 957 5626 0
950 -5627 0
613 -5627 0
-950 -613 5627 0
75 -5628 0
362 -5628 0
-75 -362 5628 0
959 -5629 0
469 -5629 0
-959 -469 5629 0
-607 -5630 0
49 -5630 0
607 -49 5630 0
-778 -5631 0
305 -5631 0
778 -305 5631 0
792 -5632 0
608 -5632 0
-792 -608 5632 0
-149 -5633 0
657 -5633 0
149 -657 5633 0
-864 -5634 0
450 -5634 0
864 -450 5634 0
812 -5635 0
131 -5635 0
-812 -131 5635 0
-881 -5636 0
782 -5636 0
881 -782 5636 0
983 -5637 0
-564 -5637 0
-983 564 5637 0
136 -5638 0
-598 -5638 0
-136 598 5638 0
-234 -5639 0
637 -5639 0
234 -637 5639 0
-889 -5640 0
691 -5640 0
889 -691 5640 0
-90 -5641 0
93 -5641 0
90 -93 5641 0
180 -5642 0
-231 -5642 0
-180 231 5642 0
293 -5643 0
-436 -5643 0
-293 436 5643 0
336 -5644 0
-588 -5644 0
-336 588 5644 0
-373 -5645 0
867 -5645 0
373 -867 5645 0
324 -5646 0
756 -5646 0
-324 -756 5646 0
-992 -5647 0
854 -5647 0
992 -854 5647 0
80 -5648 0
833 -5648 0
-80 -833 5648 0
294 -5649 0
460 -5649 0
-294 -460 5649 0
430 -5650 0
-438 -5650 0
-430 438 5650 0
288 -5651 0
963 -5651 0
-288 -963 5651 0
126 -5652 0
-205 -5652 0
-126 205 5652 0
730 -5653 0
-911 -5653 0
-730 911 5653 0
680 -5654 0
-273 -5654 0
-680 273 5654 0
102 -5655 0
508 -5655 0
-102 -508 5655 0
324 -5656 0
226 -5656 0
-324 -226 5656 0
482 -5657 0
33 -5657 0
-482 -33 5657 0
-1000 -5658 0
873 -5658 0
1000 -873 5658 0
44 -5659 0
451 -5659 0
-44 -451 5659 0
-163 -5660 0
626 -5660 0
163 -626 5660 0
-576 -5661 0
338 -5661 0
576 -338 5661 0
453 -5662 0
348 -5662 0
-453 -348 5662 0
54 -5663 0
970 -5663 0
-54 -970 5663 0
-51 -5664 0
397 -5664 0
51 -397 5664 0
-991 -5665 0
353 -5665 0
991 -353 5665 0
871 -5666 0
497 -5666 0
-871 -497 5666 0
207 -5667 0
675 -5667 0
-207 -675 5667 0
-555 -5668 0
625 -5668 0
555 -625 5668 0
180 -5669 0
835 -5669 0
-180 -835 5669 0
382 -5670 0
-221 -5670 0
-382 221 5670 0
-619 -5671 0
779 -5671 0
619 -779 5671 0
628 -5672 0
762 -5672 0
-628 -762 5672 0
797 -5673 0
843 -5673 0
-797 -843 5673 0
-291 -5674 0
924 -5674 0
291 -924 5674 0
338 -5675 0
41 -5675 0
-338 -41 5675 0
312 -5676 0
-428 -5676 0
-312 428 5676 0
744 -5677 0
866 -5677 0
-744 -866 5677 0
507 -5678 0
745 -5678 0
-507 -745 5678 0
298 -5679 0
561 -5679 0
-298 -561 5679 0
407 -5680 0
698 -5680 0
-407 -698 5680 0
619 -5681 0
625 -5681 0
-619 -625 5681 0
839 -5682 0
141 -5682 0
-839 -141 5682 0
-512 -5683 0
557 -5683 0
512 -557 5683 0
-784 -5684 0
685 -5684 0
784 -685 5684 0
286 -5685 0
1 -5685 0
-286 -1 5685 0
-144 -5686 0
307 -5686 0
144 -307 5686 0
42 -5687 0
737 -5687 0
-42 -737 5687 0
-187 -5688 0
138 -5688 0
187 -138 5688 0
840 -5689 0
876 -5689 0
-840 -876 5689 0
-642 -5690 0
475 -5690 0
642 -475 5690 0
-127 -5691 0
761 -5691 0
127 -761 5691 0
-44 -5692 0
761 -5692 0
44 -761 5692 0
16 -5693 0
-33 -5693 0
-16 33 5693 0
-832 -5694 0
227 -5694 0
832 -227 5694 0
-264 -5695 0
712 -5695 0
264 -712 5695 0
575 -5696 0
-412 -5696 0
-575 412 5696 0
-812 -5697 0
75 -5697 0
812 -75 5697 0
492 -5698 0
-367 -5698 0
-492 367 5698 0
295 -5699 0
413 -5699 0
-295 -413 5699 0
840 -5700 0
658 -5700 0
-840 -658 5700 0
-952 -5701 0
250 -5701 0
952 -250 5701 0
706 -5702 0
-310 -5702 0
-706 310 5702 0
428 -5703 0
171 -5703 0
-428 -171 5703 0
832 -5704 0
203 -5704 0
-832 -203 5704 0
-224 -5705 0
581 -5705 0
224 -581 5705 0
-707 -5706 0
553 -5706 0
707 -553 5706 0
232 -5707 0
-39 -5707 0
-232 39 5707 0
138 -5708 0
-119 -5708 0
-138 119 5708 0
696 -5709 0
435 -5709 0
-696 -435 5709 0
-388 -5710 0
825 -5710 0
388 -825 5710 0
14 -5711 0
-95 -5711 0
-14 95 5711 0
984 -5712 0
-850 -5712 0
-984 850 5712 0
-860 -5713 0
305 -5713 0
860 -305 5713 0
262 -5714 0
-749 -5714 0
-262 749 5714 0
-434 -5715 0
702 -5715 0
434 -702 5715 0
198 -5716 0
509 -5716 0
-198 -509 5716 0
381 -5717 0
-534 -5717 0
-381 534 5717 0
-637 -5718 0
306 -5718 0
637 -306 5718 0
607 -5719 0
-428 -5719 0
-607 428 5719 0
541 -5720 0
-253 -5720 0
-541 253 5720 0
798 -5721 0
-755 -5721 0
-798 755 5721 0
112 -5722 0
-358 -5722 0
-112 358 5722 0
-408 -5723 0
591 -5723 0
408 -591 5723 0
-406 -5724 0
914 -5724 0
406 -914 5724 0
979 -5725 0
-103 -5725 0
-979 103 5725 0
192 -5726 0
265 -5726 0
-192 -265 5726 0
127 -5727 0
-711 -5727 0
-127 711 5727 0
520 -5728 0
-905 -5728 0
-520 905 5728 0
-72 -5729 0
1 -5729 0
72 -1 5729 0
216 -5730 0
-931 -5730 0
-216 931 5730 0
141 -5731 0
852 -5731 0
-141 -852 5731 0
269 -5732 0
-77 -5732 0
-269 77 5732 0
-659 -5733 0
3 -5733 0
659 -3 5733 0
909 -5734 0
745 -5734 0
-909 -745 5734 0
-610 -5735 0
673 -5735 0
610 -673 5735 0
-464 -5736 0
497 -5736 0
464 -497 5736 0
23 -5737 0
202 -5737 0
-23 -202 5737 0
-305 -5738 0
922 -5738 0
305 -922 5738 0
-646 -5739 0
410 -5739 0
646 -410 5739 0
574 -5740 0
725 -5740 0
-574 -725 5740 0
758 -5741 0
-887 -5741 0
-758 887 5741 0
827 -5742 0
-685 -5742 0
-827 685 5742 0
988 -5743 0
-927 -5743 0
-988 927 5743 0
-978 -5744 0
859 -5744 0
978 -859 5744 0
-992 -5745 0
642 -5745 0
992 -642 5745 0
325 -5746 0
-551 -5746 0
-325 551 5746 0
645 -5747 0
825 -5747 0
-645 -825 5747 0
168 -5748 0
-847 -5748 0
-168 847 5748 0
-67 -5749 0
541 -5749 0
67 -541 5749 0
-595 -5750 0
369 -5750 0
595 -369 5750 0
-379 -5751 0
363 -5751 0
379 -363 5751 0
423 -5752 0
-729 -5752 0
-423 729 5752 0
-422 -5753 0
506 -5753 0
422 -506 5753 0
811 -5754 0
411 -5754 0
-811 -411 5754 0
-249 -5755 0
629 -5755 0
249 -629 5755 0
743 -5756 0
838 -5756 0
-743 -838 5756 0
591 -5757 0
-973 -5757 0
-591 973 5757 0
71 -5758 0
847 -5758 0
-71 -847 5758 0
741 -5759 0
306 -5759 0
-741 -306 5759 0
-746 -5760 0
150 -5760 0
746 -150 5760 0
-729 -5761 0
523 -5761 0
729 -523 5761 0
23 -5762 0
638 -5762 0
-23 -638 5762 0
166 -5763 0
-182 -5763 0
-166 182 5763 0
253 -5764 0
483 -5764 0
-253 -483 5764 0
-137 -5765 0
622 -5765 0
137 -622 5765 0
358 -5766 0
-659 -5766 0
-358 659 5766 0
-508 -5767 0
793 -5767 0
508 -793 5767 0
-210 -5768 0
555 -5768 0
210 -555 5768 0
-233 -5769 0
174 -5769 0
233 -174 5769 0
202 -5770 0
249 -5770 0
-202 -249 5770 0
61 -5771 0
996 -5771 0
-61 -996 5771 0
-865 -5772 0
421 -5772 0
865 -421 5772 0
-194 -5773 0
449 -5773 0
194 -449 5773 0
175 -5774 0
702 -5774 0
-175 -702 5774 0
895 -5775 0
-660 -5775 0
-895 660 5775 0
-12 -5776 0
747 -5776 0
12 -747 5776 0
223 -5777 0
254 -5777 0
-223 -254 5777 0
587 -5778 0
306 -5778 0
-587 -306 5778 0
142 -5779 0
-18 -5779 0
-142 18 5779 0
-519 -5780 0
241 -5780 0
519 -241 5780 0
-541 -5781 0
306 -5781 0
541 -306 5781 0
-817 -5782 0
353 -5782 0
817 -353 5782 0
-52 -5783 0
171 -5783 0
52 -171 5783 0
79 -5784 0
581 -5784 0
-79 -581 5784 0
151 -5785 0
-174 -5785 0
-151 174 5785 0
-792 -5786 0
597 -5786 0
792 -597 5786 0
915 -5787 0
641 -5787 0
-915 -641 5787 0
861 -5788 0
-679 -5788 0
-861 679 5788 0
735 -5789 0
-452 -5789 0
-735 452 5789 0
164 -5790 0
947 -5790 0
-164 -947 5790 0
672 -5791 0
206 -5791 0
-672 -206 5791 0
31 -5792 0
861 -5792 0
-31 -861 5792 0
575 -5793 0
698 -5793 0
-575 -698 5793 0
592 -5794 0
-47 -5794 0
-592 47 5794 0
988 -5795 0
-278 -5795 0
-988 278 5795 0
-78 -5796 0
265 -5796 0
78 -265 5796 0
431 -5797 0
-99 -5797 0
-431 99 5797 0
477 -5798 0
-389 -5798 0
-477 389 5798 0
-457 -5799 0
734 -5799 0
457 -734 5799 0
152 -5800 0
591 -5800 0
-152 -591 5800 0
731 -5801 0
-127 -5801 0
-731 127 5801 0
-265 -5802 0
436 -5802 0
265 -436 5802 0
133 -5803 0
427 -5803 0
-133 -427 5803 0
632 -5804 0
999 -5804 0
-632 -999 5804 0
-572 -5805 0
994 -5805 0
572 -994 5805 0
823 -5806 0
28 -5806 0
-823 -28 5806 0
349 -5807 0
346 -5807 0
-349 -346 5807 0
-606 -5808 0
330 -5808 0
606 -330 5808 0
-129 -5809 0
989 -5809 0
129 -989 5809 0
365 -5810 0
938 -5810 0
-365 -938 5810 0
848 -5811 0
-102 -5811 0
-848 102 5811 0
688 -5812 0
218 -5812 0
-688 -218 5812 0
-731 -5813 0
345 -5813 0
731 -345 5813 0
269 -5814 0
972 -5814 0
-269 -972 5814 0
-747 -5815 0
507 -5815 0
747 -507 5815 0
598 -5816 0
717 -5816 0
-598 -717 5816 0
610 -5817 0
-30 -5817 0
-610 30 5817 0
309 -5818 0
-630 -5818 0
-309 630 5818 0
257 -5819 0
-991 -5819 0
-257 991 5819 0
-299 -5820 0
426 -5820 0
299 -426 5820 0
-984 -5821 0
696 -5821 0
984 -696 5821 0
926 -5822 0
-270 -5822 0
-926 270 5822 0
-513 -5823 0
849 -5823 0
513 -849 5823 0
232 -5824 0
49 -5824 0
-232 -49 5824 0
-637 -5825 0
770 -5825 0
637 -770 5825 0
-217 -5826 0
937 -5826 0
217 -937 5826 0
723 -5827 0
-326 -5827 0
-723 326 5827 0
367 -5828 0
86 -5828 0
-367 -86 5828 0
-402 -5829 0
933 -5829 0
402 -933 5829 0
85 -5830 0
2 -5830 0
-85 -2 5830 0
-224 -5831 0
30 -5831 0
224 -30 5831 0
-222 -5832 0
153 -5832 0
222 -153 5832 0
-764 -5833 0
777 -5833 0
764 -777 5833 0
496 -5834 0
-841 -5834 0
-496 841 5834 0
-223 -5835 0
121 -5835 0
223 -121 5835 0
-648 -5836 0
289 -5836 0
648 -289 5836 0
772 -5837 0
-21 -5837 0
-772 21 5837 0
104 -5838 0
-201 -5838 0
-104 201 5838 0
867 -5839 0
-54 -5839 0
-867 54 5839 0
707 -5840 0
874 -5840 0
-707 -874 5840 0
615 -5841 0
-275 -5841 0
-615 275 5841 0
420 -5842 0
835 -5842 0
-420 -835 5842 0
-241 -5843 0
826 -5843 0
241 -826 5843 0
46 -5844 0
877 -5844 0
-46 -877 5844 0
-49 -5845 0
15 -5845 0
49 -15 5845 0
781 -5846 0
-693 -5846 0
-781 693 5846 0
416 -5847 0
-430 -5847 0
-416 430 5847 0
846 -5848 0
-679 -5848 0
-846 679 5848 0
864 -5849 0
-896 -5849 0
-864 896 5849 0
180 -5850 0
-502 -5850 0
-180 502 5850 0
808 -5851 0
735 -5851 0
-808 -735 5851 0
516 -5852 0
-367 -5852 0
-516 367 5852 0
502 -5853 0
67 -5853 0
-502 -67 5853 0
-760 -5854 0
37 -5854 0
760 -37 5854 0
727 -5855 0
-115 -5855 0
-727 115 5855 0
296 -5856 0
-852 -5856 0
-296 852 5856 0
-115 -5857 0
218 -5857 0
115 -218 5857 0
670 -5858 0
916 -5858 0
-670 -916 5858 0
766 -5859 0
-691 -5859 0
-766 691 5859 0
-934 -5860 0
241 -5860 0
934 -241 5860 0
-273 -5861 0
811 -5861 0
273 -811 5861 0
239 -5862 0
21 -5862 0
-239 -21 5862 0
483 -5863 0
-871 -5863 0
-483 871 5863 0
-66 -5864 0
901 -5864 0
66 -901 5864 0
944 -5865 0
-415 -5865 0
-944 415 5865 0
446 -5866 0
613 -5866 0
-446 -613 5866 0
496 -5867 0
-272 -5867 0
-496 272 5867 0
896 -5868 0
330 -5868 0
-896 -330 5868 0
346 -5869 0
-894 -5869 0
-346 894 5869 0
-810 -5870 0
237 -5870 0
810 -237 5870 0
885 -5871 0
233 -5871 0
-885 -233 5871 0
736 -5872 0
-321 -5872 0
-736 321 5872 0
557 -5873 0
-997 -5873 0
-557 997 5873 0
-703 -5874 0
793 -5874 0
703 -793 5874 0
-994 -5875 0
219 -5875 0
994 -219 5875 0
560 -5876 0
751 -5876 0
-560 -751 5876 0
463 -5877 0
825 -5877 0
-463 -825 5877 0
893 -5878 0
122 -5878 0
-893 -122 5878 0
448 -5879 0
-777 -5879 0
-448 777 5879 0
-960 -5880 0
989 -5880 0
960 -989 5880 0
-667 -5881 0
410 -5881 0
667 -410 5881 0
-395 -5882 0
364 -5882 0
395 -364 5882 0
608 -5883 0
437 -5883 0
-608 -437 5883 0
-250 -5884 0
265 -5884 0
250 -265 5884 0
23 -5885 0
-231 -5885 0
-23 231 5885 0
461 -5886 0
-661 -5886 0
-461 661 5886 0
136 -5887 0
521 -5887 0
-136 -521 5887 0
574 -5888 0
969 -5888 0
-574 -969 5888 0
174 -5889 0
348 -5889 0
-174 -348 5889 0
376 -5890 0
171 -5890 0
-376 -171 5890 0
528 -5891 0
-843 -5891 0
-528 843 5891 0
-157 -5892 0
321 -5892 0
157 -321 5892 0
613 -5893 0
-943 -5893 0
-613 943 5893 0
348 -5894 0
-588 -5894 0
-348 588 5894 0
504 -5895 0
380 -5895 0
-504 -380 5895 0
836 -5896 0
-62 -5896 0
-836 62 5896 0
52 -5897 0
-14 -5897 0
-52 14 5897 0
405 -5898 0
228 -5898 0
-405 -228 5898 0
942 -5899 0
346 -5899 0
-942 -346 5899 0
580 -5900 0
682 -5900 0
-580 -682 5900 0
150 -5901 0
-751 -5901 0
-150 751 5901 0
469 -5902 0
553 -5902 0
-469 -553 5902 0
-189 -5903 0
465 -5903 0
189 -465 5903 0
647 -5904 0
-514 -5904 0
-647 514 5904 0
208 -5905 0
698 -5905 0
-208 -698 5905 0
638 -5906 0
-851 -5906 0
-638 851 5906 0
222 -5907 0
837 -5907 0
-222 -837 5907 0
253 -5908 0
-5 -5908 0
-253 5 5908 0
-371 -5909 0
300 -5909 0
371 -300 5909 0
247 -5910 0
-482 -5910 0
-247 482 5910 0
380 -5911 0
-14 -5911 0
-380 14 5911 0
-945 -5912 0
508 -5912 0
945 -508 5912 0
336 -5913 0
247 -5913 0
-336 -247 5913 0
-708 -5914 0
532 -5914 0
708 -532 5914 0
-314 -5915 0
329 -5915 0
314 -329 5915 0
-617 -5916 0
162 -5916 0
617 -162 5916 0
-860 -5917 0
43 -5917 0
860 -43 5917 0
-520 -5918 0
3 -5918 0
520 -3 5918 0
78 -5919 0
-10 -5919 0
-78 10 5919 0
-1 -5920 0
862 -5920 0
1 -862 5920 0
957 -5921 0
-987 -5921 0
-957 987 5921 0
38 -5922 0
25 -5922 0
-38 -25 5922 0
756 -5923 0
803 -5923 0
-756 -803 5923 0
-697 -5924 0
28 -5924 0
697 -28 5924 0
434 -5925 0
250 -5925 0
-434 -250 5925 0
766 -5926 0
-333 -5926 0
-766 333 5926 0
-131 -5927 0
340 -5927 0
131 -340 5927 0
-258 -5928 0
409 -5928 0
258 -409 5928 0
90 -5929 0
-166 -5929 0
-90 166 5929 0
175 -5930 0
-158 -5930 0
-175 158 5930 0
-992 -5931 0
587 -5931 0
992 -587 5931 0
188 -5932 0
275 -5932 0
-188 -275 5932 0
-501 -5933 0
851 -5933 0
501 -851 5933 0
130 -5934 0
97 -5934 0
-130 -97 5934 0
-787 -5935 0
378 -5935 0
787 -378 5935 0
954 -5936 0
601 -5936 0
-954 -601 5936 0
-123 -5937 0
641 -5937 0
123 -641 5937 0
446 -5938 0
878 -5938 0
-446 -878 5938 0
479 -5939 0
-406 -5939 0
-479 406 5939 0
313 -5940 0
-695 -5940 0
-313 695 5940 0
884 -5941 0
212 -5941 0
-884 -212 5941 0
584 -5942 0
-966 -5942 0
-584 966 5942 0
7 -5943 0
101 -5943 0
-7 -101 5943 0
990 -5944 0
-236 -5944 0
-990 236 5944 0
823 -5945 0
693 -5945 0
-823 -693 5945 0
458 -5946 0
-647 -5946 0
-458 647 5946 0
571 -5947 0
425 -5947 0
-571 -425 5947 0
838 -5948 0
739 -5948 0
-838 -739 5948 0
-145 -5949 0
743 -5949 0
145 -743 5949 0
355 -5950 0
882 -5950 0
-355 -882 5950 0
-800 -5951 0
828 -5951 0
800 -828 5951 0
-433 -5952 0
452 -5952 0
433 -452 5952 0
944 -5953 0
-856 -5953 0
-944 856 5953 0
-202 -5954 0
666 -5954 0
202 -666 5954 0
338 -5955 0
242 -5955 0
-338 -242 5955 0
900 -5956 0
-20 -5956 0
-900 20 5956 0
812 -5957 0
-972 -5957 0
-812 972 5957 0
683 -5958 0
587 -5958 0
-683 -587 5958 0
-940 -5959 0
2 -5959 0
940 -2 5959 0
291 -5960 0
497 -5960 0
-291 -497 5960 0
485 -5961 0
123 -5961 0
-485 -123 5961 0
629 -5962 0
283 -5962 0
-629 -283 5962 0
-275 -5963 0
305 -5963 0
275 -305 5963 0
929 -5964 0
801 -5964 0
-929 -801 5964 0
470 -5965 0
-618 -5965 0
-470 618 5965 0
72 -5966 0
755 -5966 0
-72 -755 5966 0
839 -5967 0
97 -5967 0
-839 -97 5967 0
744 -5968 0
-580 -5968 0
-744 580 5968 0
-267 -5969 0
332 -5969 0
267 -332 5969 0
307 -5970 0
-901 -5970 0
-307 901 5970 0
870 -5971 0
717 -5971 0
-870 -717 5971 0
907 -5972 0
458 -5972 0
-907 -458 5972 0
-886 -5973 0
785 -5973 0
886 -785 5973 0
565 -5974 0
-631 -5974 0
-565 631 5974 0
-492 -5975 0
802 -5975 0
492 -802 5975 0
215 -5976 0
-637 -5976 0
-215 637 5976 0
141 -5977 0
-518 -5977 0
-141 518 5977 0
815 -5978 0
25 -5978 0
-815 -25 5978 0
309 -5979 0
793 -5979 0
-309 -793 5979 0
-709 -5980 0
706 -5980 0
709 -706 5980 0
280 -5981 0
494 -5981 0
-280 -494 5981 0
711 -5982 0
-236 -5982 0
-711 236 5982 0
846 -5983 0
-498 -5983 0
-846 498 5983 0
319 -5984 0
506 -5984 0
-319 -506 5984 0
792 -5985 0
-155 -5985 0
-792 155 5985 0
816 -5986 0
-911 -5986 0
-816 911 5986 0
278 -5987 0
938 -5987 0
-278 -938 5987 0
728 -5988 0
791 -5988 0
-728 -791 5988 0
925 -5989 0
859 -5989 0
-925 -859 5989 0
-168 -5990 0
569 -5990 0
168 -569 5990 0
-675 -5991 0
57 -5991 0
675 -57 5991 0
903 -5992 0
-773 -5992 0
-903 773 5992 0
567 -5993 0
-554 -5993 0
-567 554 5993 0
468 -5994 0
-86 -5994 0
-468 86 5994 0
130 -5995 0
642 -5995 0
-130 -642 5995 0
-352 -5996 0
395 -5996 0
352 -395 5996 0
161 -5997 0
681 -5997 0
-161 -681 5997 0
-548 -5998 0
777 -5998 0
548 -777 5998 0
306 -5999 0
449 -5999 0
-306 -449 5999 0
-361 -6000 0
565 -6000 0
361 -565 6000 0
955 -6001 0
-262 -6001 0
-955 262 6001 0
624 -6002 0
-289 -6002 0
-624 289 6002 0
-388 -6003 0
884 -6003 0
388 -884 6003 0
792 -6004 0
902 -6004 0
-792 -902 6004 0
294 -6005 0
507 -6005 0
-294 -507 6005 0
414 -6006 0
-535 -6006 0
-414 535 6006 0
436 -6007 0
362 -6007 0
-436 -362 6007 0
490 -6008 0
929 -6008 0
-490 -929 6008 0
213 -6009 0
-246 -6009 0
-213 246 6009 0
80 -6010 0
840 -6010 0
-80 -840 6010 0
-810 -6011 0
435 -6011 0
810 -435 6011 0
-26 -6012 0
805 -6012 0
26 -805 6012 0
-392 -6013 0
505 -6013 0
392 -505 6013 0
20 -6014 0
-21 -6014 0
-20 21 6014 0
66 -6015 0
434 -6015 0
-66 -434 6015 0
594 -6016 0
673 -6016 0
-594 -673 6016 0
790 -6017 0
-469 -6017 0
-790 469 6017 0
503 -6018 0
930 -6018 0
-503 -930 6018 0
408 -6019 0
-928 -6019 0
-408 928 6019 0
-979 -6020 0
337 -6020 0
979 -337 6020 0
-584 -6021 0
864 -6021 0
584 -864 6021 0
470 -6022 0
-659 -6022 0
-470 659 6022 0
-913 -6023 0
818 -6023 0
913 -818 6023 0
855 -6024 0
-393 -6024 0
-855 393 6024 0
599 -6025 0
309 -6025 0
-599 -309 6025 0
704 -6026 0
-562 -6026 0
-704 562 6026 0
128 -6027 0
-742 -6027 0
-128 742 6027 0
632 -6028 0
468 -6028 0
-632 -468 6028 0
509 -6029 0
-343 -6029 0
-509 343 6029 0
-264 -6030 0
109 -6030 0
264 -109 6030 0
-249 -6031 0
748 -6031 0
249 -748 6031 0
-360 -6032 0
774 -6032 0
360 -774 6032 0
-145 -6033 0
843 -6033 0
145 -843 6033 0
-768 -6034 0
862 -6034 0
768 -862 6034 0
181 -6035 0
146 -6035 0
-181 -146 6035 0
-584 -6036 0
299 -6036 0
584 -299 6036 0
940 -6037 0
-159 -6037 0
-940 159 6037 0
596 -6038 0
787 -6038 0
-596 -787 6038 0
-794 -6039 0
161 -6039 0
794 -161 6039 0
-336 -6040 0
418 -6040 0
336 -418 6040 0
672 -6041 0
-25 -6041 0
-672 25 6041 0
335 -6042 0
830 -6042 0
-335 -830 6042 0
-73 -6043 0
118 -6043 0
73 -118 6043 0
909 -6044 0
-614 -6044 0
-909 614 6044 0
-353 -6045 0
531 -6045 0
353 -531 6045 0
-690 -6046 0
393 -6046 0
690 -393 6046 0
-436 -6047 0
514 -6047 0
436 -514 6047 0
-336 -6048 0
721 -6048 0
336 -721 6048 0
111 -6049 0
93 -6049 0
-111 -93 6049 0
141 -6050 0
140 -6050 0
-141 -140 6050 0
605 -6051 0
977 -6051 0
-605 -977 6051 0
-794 -6052 0
14 -6052 0
794 -14 6052 0
632 -6053 0
899 -6053 0
-632 -899 6053 0
116 -6054 0
-271 -6054 0
-116 271 6054 0
-345 -6055 0
827 -6055 0
345 -827 6055 0
-69 -6056 0
851 -6056 0
69 -851 6056 0
250 -6057 0
-767 -6057 0
-250 767 6057 0
207 -6058 0
734 -6058 0
-207 -734 6058 0
-718 -6059 0
482 -6059 0
718 -482 6059 0
855 -6060 0
-36 -6060 0
-855 36 6060 0
-737 -6061 0
993 -6061 0
737 -993 6061 0
-428 -6062 0
172 -6062 0
428 -172 6062 0
447 -6063 0
-53 -6063 0
-447 53 6063 0
-676 -6064 0
249 -6064 0
676 -249 6064 0
208 -6065 0
67 -6065 0
-208 -67 6065 0
419 -6066 0
-246 -6066 0
-419 246 6066 0
840 -6067 0
354 -6067 0
-840 -354 6067 0
-978 -6068 0
294 -6068 0
978 -294 6068 0
629 -6069 0
404 -6069 0
-629 -404 6069 0
732 -6070 0
-687 -6070 0
-732 687 6070 0
568 -6071 0
-346 -6071 0
-568 346 6071 0
-48 -6072 0
64 -6072 0
48 -64 6072 0
204 -6073 0
755 -6073 0
-204 -755 6073 0
-707 -6074 0
85 -6074 0
707 -85 6074 0
-996 -6075 0
794 -6075 0
996 -794 6075 0
62 -6076 0
653 -6076 0
-62 -653 6076 0
528 -6077 0
-303 -6077 0
-528 303 6077 0
933 -6078 0
660 -6078 0
-933 -660 6078 0
468 -6079 0
-519 -6079 0
-468 519 6079 0
669 -6080 0
788 -6080 0
-669 -788 6080 0
517 -6081 0
297 -6081 0
-517 -297 6081 0
658 -6082 0
753 -6082 0
-658 -753 6082 0
383 -6083 0
569 -6083 0
-383 -569 6083 0
-323 -6084 0
588 -6084 0
323 -588 6084 0
484 -6085 0
746 -6085 0
-484 -746 6085 0
991 -6086 0
110 -6086 0
-991 -110 6086 0
-969 -6087 0
514 -6087 0
969 -514 6087 0
254 -6088 0
884 -6088 0
-254 -884 6088 0
-505 -6089 0
543 -6089 0
505 -543 6089 0
696 -6090 0
-556 -6090 0
-696 556 6090 0
-870 -6091 0
962 -6091 0
870 -962 6091 0
-573 -6092 0
65 -6092 0
573 -65 6092 0
303 -6093 0
201 -6093 0
-303 -201 6093 0
-629 -6094 0
370 -6094 0
629 -370 6094 0
367 -6095 0
-754 -6095 0
-367 754 6095 0
491 -6096 0
-54 -6096 0
-491 54 6096 0
247 -6097 0
-679 -6097 0
-247 679 6097 0
-298 -6098 0
699 -6098 0
298 -699 6098 0
-276 -6099 0
835 -6099 0
276 -835 6099 0
-192 -6100 0
412 -6100 0
192 -412 6100 0
92 -6101 0
-879 -6101 0
-92 879 6101 0
416 -6102 0
942 -6102 0
-416 -942 6102 0
576 -6103 0
-842 -6103 0
-576 842 6103 0
311 -6104 0
461 -6104 0
-311 -461 6104 0
22 -6105 0
230 -6105 0
-22 -230 6105 0
885 -6106 0
586 -6106 0
-885 -586 6106 0
-267 -6107 0
130 -6107 0
267 -130 6107 0
136 -6108 0
-94 -6108 0
-136 94 6108 0
-721 -6109 0
467 -6109 0
721 -467 6109 0
403 -6110 0
226 -6110 0
-403 -226 6110 0
777 -6111 0
441 -6111 0
-777 -441 6111 0
687 -6112 0
-321 -6112 0
-687 321 6112 0
479 -6113 0
452 -6113 0
-479 -452 6113 0
927 -6114 0
-281 -6114 0
-927 281 6114 0
502 -6115 0
82 -6115 0
-502 -82 6115 0
-449 -6116 0
11 -6116 0
449 -11 6116 0
567 -6117 0
-316 -6117 0
-567 316 6117 0
399 -6118 0
181 -6118 0
-399 -181 6118 0
646 -6119 0
-882 -6119 0
-646 882 6119 0
67 -6120 0
-734 -6120 0
-67 734 6120 0
933 -6121 0
-766 -6121 0
-933 766 6121 0
-216 -6122 0
668 -6122 0
216 -668 6122 0
494 -6123 0
-654 -6123 0
-494 654 6123 0
-673 -6124 0
563 -6124 0
673 -563 6124 0
238 -6125 0
-119 -6125 0
-238 119 6125 0
-827 -6126 0
603 -6126 0
827 -603 6126 0
399 -6127 0
726 -6127 0
-399 -726 6127 0
352 -6128 0
-988 -6128 0
-352 988 6128 0
-177 -6129 0
819 -6129 0
177 -819 6129 0
11 -6130 0
-215 -6130 0
-11 215 6130 0
694 -6131 0
-255 -6131 0
-694 255 6131 0
-636 -6132 0
219 -6132 0
636 -219 6132 0
256 -6133 0
-132 -6133 0
-256 132 6133 0
-699 -6134 0
460 -6134 0
699 -460 6134 0
79 -6135 0
-60 -6135 0
-79 60 6135 0
-866 -6136 0
345 -6136 0
866 -345 6136 0
608 -6137 0
-166 -6137 0
-608 166 6137 0
-985 -6138 0
834 -6138 0
985 -834 6138 0
614 -6139 0
-119 -6139 0
-614 119 6139 0
726 -6140 0
-242 -6140 0
-726 242 6140 0
-136 -6141 0
502 -6141 0
136 -502 6141 0
663 -6142 0
-941 -6142 0
-663 941 6142 0
351 -6143 0
-913 -6143 0
-351 913 6143 0
973 -6144 0
-655 -6144 0
-973 655 6144 0
-667 -6145 0
371 -6145 0
667 -371 6145 0
222 -6146 0
-468 -6146 0
-222 468 6146 0
604 -6147 0
-871 -6147 0
-604 871 6147 0
760 -6148 0
-392 -6148 0
-760 392 6148 0
184 -6149 0
-204 -6149 0
-184 204 6149 0
974 -6150 0
403 -6150 0
-974 -403 6150 0
983 -6151 0
541 -6151 0
-983 -541 6151 0
-522 -6152 0
516 -6152 0
522 -516 6152 0
117 -6153 0
-399 -6153 0
-117 399 6153 0
-889 -6154 0
166 -6154 0
889 -166 6154 0
56 -6155 0
-966 -6155 0
-56 966 6155 0
862 -6156 0
-762 -6156 0
-862 762 6156 0
960 -6157 0
346 -6157 0
-960 -346 6157 0
684 -6158 0
682 -6158 0
-684 -682 6158 0
164 -6159 0
787 -6159 0
-164 -787 6159 0
-530 -6160 0
980 -6160 0
530 -980 6160 0
-75 -6161 0
154 -6161 0
75 -154 6161 0
792 -6162 0
-252 -6162 0
-792 252 6162 0
-968 -6163 0
755 -6163 0
968 -755 6163 0
898 -6164 0
-95 -6164 0
-898 95 6164 0
218 -6165 0
-591 -6165 0
-218 591 6165 0
-930 -6166 0
299 -6166 0
930 -299 6166 0
391 -6167 0
-316 -6167 0
-391 316 6167 0
248 -6168 0
-63 -6168 0
-248 63 6168 0
40 -6169 0
-48 -6169 0
-40 48 6169 0
-412 -6170 0
172 -6170 0
412 -172 6170 0
247 -6171 0
-47 -6171 0
-247 47 6171 0
510 -6172 0
331 -6172 0
-510 -331 6172 0
117 -6173 0
-591 -6173 0
-117 591 6173 0
-833 -6174 0
45 -6174 0
833 -45 6174 0
-121 -6175 0
289 -6175 0
121 -289 6175 0
725 -6176 0
60 -6176 0
-725 -60 6176 0
880 -6177 0
-260 -6177 0
-880 260 6177 0
510 -6178 0
469 -6178 0
-510 -469 6178 0
508 -6179 0
275 -6179 0
-508 -275 6179 0
-20 -6180 0
602 -6180 0
20 -602 6180 0
-608 -6181 0
305 -6181 0
608 -305 6181 0
848 -6182 0
-868 -6182 0
-848 868 6182 0
-268 -6183 0
722 -6183 0
268 -722 6183 0
400 -6184 0
501 -6184 0
-400 -501 6184 0
-884 -6185 0
467 -6185 0
884 -467 6185 0
603 -6186 0
-182 -6186 0
-603 182 6186 0
-360 -6187 0
358 -6187 0
360 -358 6187 0
253 -6188 0
-940 -6188 0
-253 940 6188 0
757 -6189 0
283 -6189 0
-757 -283 6189 0
-550 -6190 0
1 -6190 0
550 -1 6190 0
86 -6191 0
-990 -6191 0
-86 990 6191 0
-764 -6192 0
409 -6192 0
764 -409 6192 0
5 -6193 0
-387 -6193 0
-5 387 6193 0
-120 -6194 0
578 -6194 0
120 -578 6194 0
118 -6195 0
-189 -6195 0
-118 189 6195 0
-416 -6196 0
269 -6196 0
416 -269 6196 0
29 -6197 0
-14 -6197 0
-29 14 6197 0
-265 -6198 0
18 -6198 0
265 -18 6198 0
974 -6199 0
196 -6199 0
-974 -196 6199 0
447 -6200 0
877 -6200 0
-447 -877 6200 0
-642 -6201 0
89 -6201 0
642 -89 6201 0
192 -6202 0
-299 -6202 0
-192 299 6202 0
-411 -6203 0
739 -6203 0
411 -739 6203 0
-476 -6204 0
161 -6204 0
476 -161 6204 0
374 -6205 0
417 -6205 0
-374 -417 6205 0
308 -6206 0
67 -6206 0
-308 -67 6206 0
480 -6207 0
85 -6207 0
-480 -85 6207 0
383 -6208 0
-870 -6208 0
-383 870 6208 0
-558 -6209 0
193 -6209 0
558 -193 6209 0
687 -6210 0
-772 -6210 0
-687 772 6210 0
56 -6211 0
995 -6211 0
-56 -995 6211 0
739 -6212 0
227 -6212 0
-739 -227 6212 0
600 -6213 0
49 -6213 0
-600 -49 6213 0
735 -6214 0
689 -6214 0
-735 -689 6214 0
672 -6215 0
875 -6215 0
-672 -875 6215 0
463 -6216 0
-309 -6216 0
-463 309 6216 0
-461 -6217 0
881 -6217 0
461 -881 6217 0
-979 -6218 0
817 -6218 0
979 -817 6218 0
694 -6219 0
-348 -6219 0
-694 348 6219 0
592 -6220 0
-262 -6220 0
-592 262 6220 0
794 -6221 0
617 -6221 0
-794 -617 6221 0
747 -6222 0
-221 -6222 0
-747 221 6222 0
76 -6223 0
-836 -6223 0
-76 836 6223 0
-659 -6224 0
378 -6224 0
659 -378 6224 0
950 -6225 0
1 -6225 0
-950 -1 6225 0
525 -6226 0
130 -6226 0
-525 -130 6226 0
263 -6227 0
38 -6227 0
-263 -38 6227 0
671 -6228 0
273 -6228 0
-671 -273 6228 0
-441 -6229 0
906 -6229 0
441 -906 6229 0
272 -6230 0
637 -6230 0
-272 -637 6230 0
492 -6231 0
442 -6231 0
-492 -442 6231 0
965 -6232 0
746 -6232 0
-965 -746 6232 0
-881 -6233 0
730 -6233 0
881 -730 6233 0
-176 -6234 0
653 -6234 0
176 -653 6234 0
543 -6235 0
897 -6235 0
-543 -897 6235 0
217 -6236 0
-879 -6236 0
-217 879 6236 0
-614 -6237 0
705 -6237 0
614 -705 6237 0
221 -6238 0
812 -6238 0
-221 -812 6238 0
674 -6239 0
-495 -6239 0
-674 495 6239 0
406 -6240 0
810 -6240 0
-406 -810 6240 0
60 -6241 0
-182 -6241 0
-60 182 6241 0
63 -6242 0
-58 -6242 0
-63 58 6242 0
624 -6243 0
-683 -6243 0
-624 683 6243 0
296 -6244 0
290 -6244 0
-296 -290 6244 0
673 -6245 0
-783 -6245 0
-673 783 6245 0
279 -6246 0
-751 -6246 0
-279 751 6246 0
144 -6247 0
-493 -6247 0
-144 493 6247 0
684 -6248 0
-182 -6248 0
-684 182 6248 0
854 -6249 0
141 -6249 0
-854 -141 6249 0
488 -6250 0
76 -6250 0
-488 -76 6250 0
773 -6251 0
595 -6251 0
-773 -595 6251 0
871 -6252 0
218 -6252 0
-871 -218 6252 0
-773 -6253 0
425 -6253 0
773 -425 6253 0
-915 -6254 0
140 -6254 0
915 -140 6254 0
520 -6255 0
-772 -6255 0
-520 772 6255 0
263 -6256 0
35 -6256 0
-263 -35 6256 0
91 -6257 0
-662 -6257 0
-91 662 6257 0
406 -6258 0
340 -6258 0
-406 -340 6258 0
-170 -6259 0
708 -6259 0
170 -708 6259 0
576 -6260 0
724 -6260 0
-576 -724 6260 0
467 -6261 0
-39 -6261 0
-467 39 6261 0
702 -6262 0
625 -6262 0
-702 -625 6262 0
70 -6263 0
638 -6263 0
-70 -638 6263 0
-953 -6264 0
137 -6264 0
953 -137 6264 0
-825 -6265 0
533 -6265 0
825 -533 6265 0
205 -6266 0
617 -6266 0
-205 -617 6266 0
728 -6267 0
205 -6267 0
-728 -205 6267 0
-722 -6268 0
963 -6268 0
722 -963 6268 0
440 -6269 0
-958 -6269 0
-440 958 6269 0
326 -6270 0
730 -6270 0
-326 -730 6270 0
-161 -6271 0
694 -6271 0
161 -694 6271 0
336 -6272 0
638 -6272 0
-336 -638 6272 0
-411 -6273 0
533 -6273 0
411 -533 6273 0
231 -6274 0
509 -6274 0
-231 -509 6274 0
72 -6275 0
119 -6275 0
-72 -119 6275 0
718 -6276 0
-775 -6276 0
-718 775 6276 0
648 -6277 0
-533 -6277 0
-648 533 6277 0
-779 -6278 0
314 -6278 0
779 -314 6278 0
375 -6279 0
666 -6279 0
-375 -666 6279 0
590 -6280 0
-412 -6280 0
-590 412 6280 0
-109 -6281 0
819 -6281 0
109 -819 6281 0
830 -6282 0
681 -6282 0
-830 -681 6282 0
152 -6283 0
755 -6283 0
-152 -755 6283 0
848 -6284 0
801 -6284 0
-848 -801 6284 0
112 -6285 0
-506 -6285 0
-112 506 6285 0
-960 -6286 0
4 -6286 0
960 -4 6286 0
-936 -6287 0
301 -6287 0
936 -301 6287 0
-123 -6288 0
891 -6288 0
123 -891 6288 0
-72 -6289 0
892 -6289 0
72 -892 6289 0
-145 -6290 0
766 -6290 0
145 -766 6290 0
-541 -6291 0
537 -6291 0
541 -537 6291 0
464 -6292 0
-585 -6292 0
-464 585 6292 0
80 -6293 0
338 -6293 0
-80 -338 6293 0
32 -6294 0
-955 -6294 0
-32 955 6294 0
-392 -6295 0
226 -6295 0
392 -226 6295 0
339 -6296 0
-782 -6296 0
-339 782 6296 0
343 -6297 0
452 -6297 0
-343 -452 6297 0
502 -6298 0
270 -6298 0
-502 -270 6298 0
309 -6299 0
260 -6299 0
-309 -260 6299 0
614 -6300 0
-157 -6300 0
-614 157 6300 0
872 -6301 0
691 -6301 0
-872 -691 6301 0
704 -6302 0
658 -6302 0
-704 -658 6302 0
-301 -6303 0
481 -6303 0
301 -481 6303 0
695 -6304 0
-15 -6304 0
-695 15 6304 0
478 -6305 0
-629 -6305 0
-478 629 6305 0
528 -6306 0
-710 -6306 0
-528 710 6306 0
904 -6307 0
843 -6307 0
-904 -843 6307 0
-488 -6308 0
886 -6308 0
488 -886 6308 0
-52 -6309 0
945 -6309 0
52 -945 6309 0
990 -6310 0
891 -6310 0
-990 -891 6310 0
704 -6311 0
703 -6311 0
-704 -703 6311 0
-769 -6312 0
596 -6312 0
769 -596 6312 0
622 -6313 0
-763 -6313 0
-622 763 6313 0
352 -6314 0
717 -6314 0
-352 -717 6314 0
434 -6315 0
-511 -6315 0
-434 511 6315 0
-32 -6316 0
764 -6316 0
32 -764 6316 0
855 -6317 0
954 -6317 0
-855 -954 6317 0
821 -6318 0
36 -6318 0
-821 -36 6318 0
-456 -6319 0
347 -6319 0
456 -347 6319 0
549 -6320 0
59 -6320 0
-549 -59 6320 0
88 -6321 0
-119 -6321 0
-88 119 6321 0
30 -6322 0
341 -6322 0
-30 -341 6322 0
95 -6323 0
-309 -6323 0
-95 309 6323 0
495 -6324 0
245 -6324 0
-495 -245 6324 0
864 -6325 0
769 -6325 0
-864 -769 6325 0
27 -6326 0
866 -6326 0
-27 -866 6326 0
496 -6327 0
236 -6327 0
-496 -236 6327 0
980 -6328 0
177 -6328 0
-980 -177 6328 0
-801 -6329 0
444 -6329 0
801 -444 6329 0
443 -6330 0
-919 -6330 0
-443 919 6330 0
412 -6331 0
-726 -6331 0
-412 726 6331 0
765 -6332 0
-407 -6332 0
-765 407 6332 0
-538 -6333 0
507 -6333 0
538 -507 6333 0
381 -6334 0
113 -6334 0
-381 -113 6334 0
-860 -6335 0
97 -6335 0
860 -97 6335 0
751 -6336 0
389 -6336 0
-751 -389 6336 0
239 -6337 0
-907 -6337 0
-239 907 6337 0
-985 -6338 0
844 -6338 0
985 -844 6338 0
66 -6339 0
-103 -6339 0
-66 103 6339 0
280 -6340 0
-801 -6340 0
-280 801 6340 0
526 -6341 0
-987 -6341 0
-526 987 6341 0
432 -6342 0
-16 -6342 0
-432 16 6342 0
-43 -6343 0
956 -6343 0
43 -956 6343 0
469 -6344 0
-550 -6344 0
-469 550 6344 0
-569 -6345 0
478 -6345 0
569 -478 6345 0
423 -6346 0
-951 -6346 0
-423 951 6346 0
264 -6347 0
-594 -6347 0
-264 594 6347 0
396 -6348 0
931 -6348 0
-396 -931 6348 0
415 -6349 0
798 -6349 0
-415 -798 6349 0
458 -6350 0
-671 -6350 0
-458 671 6350 0
231 -6351 0
289 -6351 0
-231 -289 6351 0
-688 -6352 0
626 -6352 0
688 -626 6352 0
-489 -6353 0
851 -6353 0
489 -851 6353 0
-313 -6354 0
223 -6354 0
313 -223 6354 0
807 -6355 0
-581 -6355 0
-807 581 6355 0
512 -6356 0
-957 -6356 0
-512 957 6356 0
-705 -6357 0
52 -6357 0
705 -52 6357 0
23 -6358 0
14 -6358 0
-23 -14 6358 0
733 -6359 0
105 -6359 0
-733 -105 6359 0
-369 -6360 0
203 -6360 0
369 -203 6360 0
-273 -6361 0
681 -6361 0
273 -681 6361 0
-707 -6362 0
157 -6362 0
707 -157 6362 0
-862 -6363 0
737 -6363 0
862 -737 6363 0
773 -6364 0
-6 -6364 0
-773 6 6364 0
59 -6365 0
945 -6365 0
-59 -945 6365 0
559 -6366 0
756 -6366 0
-559 -756 6366 0
888 -6367 0
-862 -6367 0
-888 862 6367 0
-21 -6368 0
105 -6368 0
21 -105 6368 0
-426 -6369 0
540 -6369 0
426 -540 6369 0
-121 -6370 0
340 -6370 0
121 -340 6370 0
59 -6371 0
746 -6371 0
-59 -746 6371 0
-907 -6372 0
748 -6372 0
907 -748 6372 0
-660 -6373 0
588 -6373 0
660 -588 6373 0
-993 -6374 0
563 -6374 0
993 -563 6374 0
230 -6375 0
388 -6375 0
-230 -388 6375 0
749 -6376 0
124 -6376 0
-749 -124 6376 0
869 -6377 0
113 -6377 0
-869 -113 6377 0
428 -6378 0
460 -6378 0
-428 -460 6378 0
949 -6379 0
-222 -6379 0
-949 222 6379 0
96 -6380 0
-870 -6380 0
-96 870 6380 0
-163 -6381 0
45 -6381 0
163 -45 6381 0
629 -6382 0
425 -6382 0
-629 -425 6382 0
-536 -6383 0
860 -6383 0
536 -860 6383 0
-123 -6384 0
445 -6384 0
123 -445 6384 0
-189 -6385 0
123 -6385 0
189 -123 6385 0
678 -6386 0
267 -6386 0
-678 -267 6386 0
711 -6387 0
348 -6387 0
-711 -348 6387 0
857 -6388 0
265 -6388 0
-857 -265 6388 0
-690 -6389 0
206 -6389 0
690 -206 6389 0
-2 -6390 0
771 -6390 0
2 -771 6390 0
-763 -6391 0
51 -6391 0
763 -51 6391 0
-907 -6392 0
674 -6392 0
907 -674 6392 0
229 -6393 0
-934 -6393 0
-229 934 6393 0
327 -6394 0
-289 -6394 0
-327 289 6394 0
120 -6395 0
360 -6395 0
-120 -360 6395 0
-665 -6396 0
479 -6396 0
665 -479 6396 0
334 -6397 0
810 -6397 0
-334 -810 6397 0
360 -6398 0
-35 -6398 0
-360 35 6398 0
448 -6399 0
134 -6399 0
-448 -134 6399 0
142 -6400 0
427 -6400 0
-142 -427 6400 0
-268 -6401 0
506 -6401 0
268 -506 6401 0
438 -6402 0
-20 -6402 0
-438 20 6402 0
-98 -6403 0
405 -6403 0
98 -405 6403 0
-963 -6404 0
978 -6404 0
963 -978 6404 0
239 -6405 0
-95 -6405 0
-239 95 6405 0
232 -6406 0
634 -6406 0
-232 -634 6406 0
706 -6407 0
-175 -6407 0
-706 175 6407 0
-628 -6408 0
618 -6408 0
628 -618 6408 0
189 -6409 0
-774 -6409 0
-189 774 6409 0
757 -6410 0
-181 -6410 0
-757 181 6410 0
168 -6411 0
613 -6411 0
-168 -613 6411 0
136 -6412 0
920 -6412 0
-136 -920 6412 0
-74 -6413 0
149 -6413 0
74 -149 6413 0
-707 -6414 0
802 -6414 0
707 -802 6414 0
80 -6415 0
391 -6415 0
-80 -391 6415 0
964 -6416 0
329 -6416 0
-964 -329 6416 0
-680 -6417 0
476 -6417 0
680 -476 6417 0
-632 -6418 0
588 -6418 0
632 -588 6418 0
989 -6419 0
-959 -6419 0
-989 959 6419 0
235 -6420 0
-414 -6420 0
-235 414 6420 0
-540 -6421 0
219 -6421 0
540 -219 6421 0
491 -6422 0
362 -6422 0
-491 -362 6422 0
-953 -6423 0
722 -6423 0
953 -722 6423 0
797 -6424 0
365 -6424 0
-797 -365 6424 0
-705 -6425 0
973 -6425 0
705 -973 6425 0
932 -6426 0
-846 -6426 0
-932 846 6426 0
502 -6427 0
-878 -6427 0
-502 878 6427 0
-465 -6428 0
900 -6428 0
465 -900 6428 0
627 -6429 0
929 -6429 0
-627 -929 6429 0
-344 -6430 0
986 -6430 0
344 -986 6430 0
166 -6431 0
-914 -6431 0
-166 914 6431 0
480 -6432 0
-155 -6432 0
-480 155 6432 0
140 -6433 0
466 -6433 0
-140 -466 6433 0
644 -6434 0
-622 -6434 0
-644 622 6434 0
-723 -6435 0
523 -6435 0
723 -523 6435 0
-508 -6436 0
467 -6436 0
508 -467 6436 0
-67 -6437 0
188 -6437 0
67 -188 6437 0
456 -6438 0
528 -6438 0
-456 -528 6438 0
779 -6439 0
361 -6439 0
-779 -361 6439 0
-378 -6440 0
963 -6440 0
378 -963 6440 0
750 -6441 0
274 -6441 0
-750 -274 6441 0
-572 -6442 0
274 -6442 0
572 -274 6442 0
792 -6443 0
-652 -6443 0
-792 652 6443 0
-587 -6444 0
789 -6444 0
587 -789 6444 0
886 -6445 0
652 -6445 0
-886 -652 6445 0
320 -6446 0
-840 -6446 0
-320 840 6446 0
740 -6447 0
922 -6447 0
-740 -922 6447 0
-816 -6448 0
398 -6448 0
816 -398 6448 0
88 -6449 0
341 -6449 0
-88 -341 6449 0
-73 -6450 0
261 -6450 0
73 -261 6450 0
806 -6451 0
613 -6451 0
-806 -613 6451 0
-460 -6452 0
699 -6452 0
460 -699 6452 0
180 -6453 0
-117 -6453 0
-180 117 6453 0
-540 -6454 0
907 -6454 0
540 -907 6454 0
850 -6455 0
-862 -6455 0
-850 862 6455 0
367 -6456 0
-993 -6456 0
-367 993 6456 0
-714 -6457 0
604 -6457 0
714 -604 6457 0
-36 -6458 0
547 -6458 0
36 -547 6458 0
264 -6459 0
-238 -6459 0
-264 238 6459 0
88 -6460 0
553 -6460 0
-88 -553 6460 0
-243 -6461 0
938 -6461 0
243 -938 6461 0
405 -6462 0
738 -6462 0
-405 -738 6462 0
28 -6463 0
-766 -6463 0
-28 766 6463 0
437 -6464 0
290 -6464 0
-437 -290 6464 0
415 -6465 0
105 -6465 0
-415 -105 6465 0
999 -6466 0
-215 -6466 0
-999 215 6466 0
359 -6467 0
-153 -6467 0
-359 153 6467 0
997 -6468 0
-821 -6468 0
-997 821 6468 0
-80 -6469 0
5 -6469 0
80 -5 6469 0
-217 -6470 0
283 -6470 0
217 -283 6470 0
-473 -6471 0
186 -6471 0
473 -186 6471 0
-461 -6472 0
609 -6472 0
461 -609 6472 0
-133 -6473 0
817 -6473 0
133 -817 6473 0
358 -6474 0
-659 -6474 0
-358 659 6474 0
8 -6475 0
-465 -6475 0
-8 465 6475 0
-412 -6476 0
316 -6476 0
412 -316 6476 0
294 -6477 0
586 -6477 0
-294 -586 6477 0
-154 -6478 0
418 -6478 0
154 -418 6478 0
550 -6479 0
-237 -6479 0
-550 237 6479 0
626 -6480 0
273 -6480 0
-626 -273 6480 0
-1 -6481 0
642 -6481 0
1 -642 6481 0
269 -6482 0
-54 -6482 0
-269 54 6482 0
-408 -6483 0
17 -6483 0
408 -17 6483 0
64 -6484 0
935 -6484 0
-64 -935 6484 0
-571 -6485 0
4 -6485 0
571 -4 6485 0
399 -6486 0
60 -6486 0
-399 -60 6486 0
595 -6487 0
66 -6487 0
-595 -66 6487 0
-380 -6488 0
259 -6488 0
380 -259 6488 0
320 -6489 0
51 -6489 0
-320 -51 6489 0
788 -6490 0
977 -6490 0
-788 -977 6490 0
-480 -6491 0
409 -6491 0
480 -409 6491 0
591 -6492 0
-922 -6492 0
-591 922 6492 0
-370 -6493 0
715 -6493 0
370 -715 6493 0
911 -6494 0
458 -6494 0
-911 -458 6494 0
892 -6495 0
-508 -6495 0
-892 508 6495 0
941 -6496 0
473 -6496 0
-941 -473 6496 0
-37 -6497 0
714 -6497 0
37 -714 6497 0
-907 -6498 0
93 -6498 0
907 -93 6498 0
245 -6499 0
-892 -6499 0
-245 892 6499 0
590 -6500 0
-402 -6500 0
-590 402 6500 0
359 -6501 0
-78 -6501 0
-359 78 6501 0
-987 -6502 0
324 -6502 0
987 -324 6502 0
798 -6503 0
355 -6503 0
-798 -355 6503 0
670 -6504 0
221 -6504 0
-670 -221 6504 0
776 -6505 0
-402 -6505 0
-776 402 6505 0
839 -6506 0
-402 -6506 0
-839 402 6506 0
-112 -6507 0
895 -6507 0
112 -895 6507 0
-50 -6508 0
156 -6508 0
50 -156 6508 0
141 -6509 0
602 -6509 0
-141 -602 6509 0
942 -6510 0
-486 -6510 0
-942 486 6510 0
-592 -6511 0
996 -6511 0
592 -996 6511 0
928 -6512 0
-747 -6512 0
-928 747 6512 0
15 -6513 0
-142 -6513 0
-15 142 6513 0
-666 -6514 0
241 -6514 0
666 -241 6514 0
616 -6515 0
-464 -6515 0
-616 464 6515 0
180 -6516 0
-165 -6516 0
-180 165 6516 0
992 -6517 0
-150 -6517 0
-992 150 6517 0
670 -6518 0
910 -6518 0
-670 -910 6518 0
999 -6519 0
341 -6519 0
-999 -341 6519 0
784 -6520 0
-815 -6520 0
-784 815 6520 0
198 -6521 0
-214 -6521 0
-198 214 6521 0
40 -6522 0
-16 -6522 0
-40 16 6522 0
568 -6523 0
900 -6523 0
-568 -900 6523 0
62 -6524 0
789 -6524 0
-62 -789 6524 0
847 -6525 0
554 -6525 0
-847 -554 6525 0
205 -6526 0
-853 -6526 0
-205 853 6526 0
-945 -6527 0
510 -6527 0
945 -510 6527 0
392 -6528 0
-279 -6528 0
-392 279 6528 0
-35 -6529 0
836 -6529 0
35 -836 6529 0
814 -6530 0
555 -6530 0
-814 -555 6530 0
940 -6531 0
-894 -6531 0
-940 894 6531 0
198 -6532 0
-755 -6532 0
-198 755 6532 0
946 -6533 0
729 -6533 0
-946 -729 6533 0
741 -6534 0
220 -6534 0
-741 -220 6534 0
256 -6535 0
-449 -6535 0
-256 449 6535 0
88 -6536 0
-556 -6536 0
-88 556 6536 0
311 -6537 0
589 -6537 0
-311 -589 6537 0
-775 -6538 0
825 -6538 0
775 -825 6538 0
165 -6539 0
-822 -6539 0
-165 822 6539 0
-448 -6540 0
517 -6540 0
448 -517 6540 0
407 -6541 0
862 -6541 0
-407 -862 6541 0
638 -6542 0
-974 -6542 0
-638 974 6542 0
-840 -6543 0
913 -6543 0
840 -913 6543 0
687 -6544 0
679 -6544 0
-687 -679 6544 0
275 -6545 0
-525 -6545 0
-275 525 6545 0
-818 -6546 0
337 -6546 0
818 -337 6546 0
551 -6547 0
711 -6547 0
-551 -711 6547 0
391 -6548 0
-805 -6548 0
-391 805 6548 0
-273 -6549 0
606 -6549 0
273 -606 6549 0
134 -6550 0
916 -6550 0
-134 -916 6550 0
-187 -6551 0
497 -6551 0
187 -497 6551 0
-745 -6552 0
362 -6552 0
745 -362 6552 0
142 -6553 0
771 -6553 0
-142 -771 6553 0
172 -6554 0
-398 -6554 0
-172 398 6554 0
-706 -6555 0
153 -6555 0
706 -153 6555 0
59 -6556 0
635 -6556 0
-59 -635 6556 0
144 -6557 0
-484 -6557 0
-144 484 6557 0
991 -6558 0
147 -6558 0
-991 -147 6558 0
970 -6559 0
377 -6559 0
-970 -377 6559 0
775 -6560 0
498 -6560 0
-775 -498 6560 0
-455 -6561 0
593 -6561 0
455 -593 6561 0
-938 -6562 0
43 -6562 0
938 -43 6562 0
-425 -6563 0
110 -6563 0
425 -110 6563 0
861 -6564 0
-517 -6564 0
-861 517 6564 0
800 -6565 0
953 -6565 0
-800 -953 6565 0
-461 -6566 0
961 -6566 0
461 -961 6566 0
336 -6567 0
299 -6567 0
-336 -299 6567 0
815 -6568 0
807 -6568 0
-815 -807 6568 0
704 -6569 0
-62 -6569 0
-704 62 6569 0
807 -6570 0
-339 -6570 0
-807 339 6570 0
643 -6571 0
385 -6571 0
-643 -385 6571 0
261 -6572 0
57 -6572 0
-261 -57 6572 0
-426 -6573 0
684 -6573 0
426 -684 6573 0
-605 -6574 0
409 -6574 0
605 -409 6574 0
748 -6575 0
284 -6575 0
-748 -284 6575 0
-60 -6576 0
10 -6576 0
60 -10 6576 0
739 -6577 0
458 -6577 0
-739 -458 6577 0
696 -6578 0
-414 -6578 0
-696 414 6578 0
-772 -6579 0
811 -6579 0
772 -811 6579 0
80 -6580 0
205 -6580 0
-80 -205 6580 0
206 -6581 0
332 -6581 0
-206 -332 6581 0
638 -6582 0
-84 -6582 0
-638 84 6582 0
-979 -6583 0
708 -6583 0
979 -708 6583 0
-761 -6584 0
2 -6584 0
761 -2 6584 0
880 -6585 0
804 -6585 0
-880 -804 6585 0
286 -6586 0
243 -6586 0
-286 -243 6586 0
-301 -6587 0
83 -6587 0
301 -83 6587 0
544 -6588 0
-245 -6588 0
-544 245 6588 0
983 -6589 0
940 -6589 0
-983 -940 6589 0
548 -6590 0
724 -6590 0
-548 -724 6590 0
683 -6591 0
-815 -6591 0
-683 815 6591 0
982 -6592 0
881 -6592 0
-982 -881 6592 0
-29 -6593 0
170 -6593 0
29 -170 6593 0
-13 -6594 0
841 -6594 0
13 -841 6594 0
144 -6595 0
-901 -6595 0
-144 901 6595 0
466 -6596 0
898 -6596 0
-466 -898 6596 0
-597 -6597 0
842 -6597 0
597 -842 6597 0
38 -6598 0
-302 -6598 0
-38 302 6598 0
-849 -6599 0
763 -6599 0
849 -763 6599 0
710 -6600 0
-732 -6600 0
-710 732 6600 0
717 -6601 0
-179 -6601 0
-717 179 6601 0
230 -6602 0
-711 -6602 0
-230 711 6602 0
-72 -6603 0
227 -6603 0
72 -227 6603 0
294 -6604 0
-163 -6604 0
-294 163 6604 0
375 -6605 0
-535 -6605 0
-375 535 6605 0
536 -6606 0
-89 -6606 0
-536 89 6606 0
389 -6607 0
-724 -6607 0
-389 724 6607 0
325 -6608 0
820 -6608 0
-325 -820 6608 0
-224 -6609 0
246 -6609 0
224 -246 6609 0
142 -6610 0
154 -6610 0
-142 -154 6610 0
735 -6611 0
916 -6611 0
-735 -916 6611 0
390 -6612 0
-29 -6612 0
-390 29 6612 0
886 -6613 0
-276 -6613 0
-886 276 6613 0
790 -6614 0
363 -6614 0
-790 -363 6614 0
-667 -6615 0
242 -6615 0
667 -242 6615 0
173 -6616 0
-237 -6616 0
-173 237 6616 0
366 -6617 0
115 -6617 0
-366 -115 6617 0
424 -6618 0
-996 -6618 0
-424 996 6618 0
508 -6619 0
-540 -6619 0
-508 540 6619 0
252 -6620 0
-534 -6620 0
-252 534 6620 0
-614 -6621 0
721 -6621 0
614 -721 6621 0
855 -6622 0
-307 -6622 0
-855 307 6622 0
100 -6623 0
-381 -6623 0
-100 381 6623 0
-151 -6624 0
265 -6624 0
151 -265 6624 0
623 -6625 0
198 -6625 0
-623 -198 6625 0
-208 -6626 0
51 -6626 0
208 -51 6626 0
64 -6627 0
-125 -6627 0
-64 125 6627 0
940 -6628 0
-133 -6628 0
-940 133 6628 0
359 -6629 0
761 -6629 0
-359 -761 6629 0
-736 -6630 0
570 -6630 0
736 -570 6630 0
824 -6631 0
222 -6631 0
-824 -222 6631 0
-691 -6632 0
805 -6632 0
691 -805 6632 0
37 -6633 0
707 -6633 0
-37 -707 6633 0
84 -6634 0
-597 -6634 0
-84 597 6634 0
663 -6635 0
-645 -6635 0
-663 645 6635 0
-888 -6636 0
547 -6636 0
888 -547 6636 0
-608 -6637 0
6 -6637 0
608 -6 6637 0
211 -6638 0
539 -6638 0
-211 -539 6638 0
463 -6639 0
684 -6639 0
-463 -684 6639 0
-596 -6640 0
587 -6640 0
596 -587 6640 0
-320 -6641 0
946 -6641 0
320 -946 6641 0
952 -6642 0
-549 -6642 0
-952 549 6642 0
752 -6643 0
-864 -6643 0
-752 864 6643 0
851 -6644 0
-942 -6644 0
-851 942 6644 0
640 -6645 0
814 -6645 0
-640 -814 6645 0
-792 -6646 0
931 -6646 0
792 -931 6646 0
295 -6647 0
-651 -6647 0
-295 651 6647 0
716 -6648 0
257 -6648 0
-716 -257 6648 0
-210 -6649 0
906 -6649 0
210 -906 6649 0
-924 -6650 0
289 -6650 0
924 -289 6650 0
879 -6651 0
154 -6651 0
-879 -154 6651 0
-906 -6652 0
353 -6652 0
906 -353 6652 0
664 -6653 0
-910 -6653 0
-664 910 6653 0
944 -6654 0
481 -6654 0
-944 -481 6654 0
-497 -6655 0
609 -6655 0
497 -609 6655 0
-144 -6656 0
1 -6656 0
144 -1 6656 0
-465 -6657 0
405 -6657 0
465 -405 6657 0
-353 -6658 0
412 -6658 0
353 -412 6658 0
-82 -6659 0
685 -6659 0
82 -685 6659 0
-412 -6660 0
977 -6660 0
412 -977 6660 0
71 -6661 0
-5 -6661 0
-71 5 6661 0
967 -6662 0
398 -6662 0
-967 -398 6662 0
712 -6663 0
-921 -6663 0
-712 921 6663 0
-360 -6664 0
461 -6664 0
360 -461 6664 0
896 -6665 0
-114 -6665 0
-896 114 6665 0
77 -6666 0
76 -6666 0
-77 -76 6666 0
213 -6667 0
-741 -6667 0
-213 741 6667 0
167 -6668 0
-670 -6668 0
-167 670 6668 0
-843 -6669 0
587 -6669 0
843 -587 6669 0
779 -6670 0
-615 -6670 0
-779 615 6670 0
-208 -6671 0
11 -6671 0
208 -11 6671 0
621 -6672 0
737 -6672 0
-621 -737 6672 0
-464 -6673 0
298 -6673 0
464 -298 6673 0
179 -6674 0
569 -6674 0
-179 -569 6674 0
392 -6675 0
-563 -6675 0
-392 563 6675 0
-66 -6676 0
637 -6676 0
66 -637 6676 0
647 -6677 0
770 -6677 0
-647 -770 6677 0
897 -6678 0
753 -6678 0
-897 -753 6678 0
680 -6679 0
-147 -6679 0
-680 147 6679 0
279 -6680 0
-692 -6680 0
-279 692 6680 0
93 -6681 0
-989 -6681 0
-93 989 6681 0
451 -6682 0
-910 -6682 0
-451 910 6682 0
-569 -6683 0
806 -6683 0
569 -806 6683 0
71 -6684 0
68 -6684 0
-71 -68 6684 0
-922 -6685 0
790 -6685 0
922 -790 6685 0
-666 -6686 0
148 -6686 0
666 -148 6686 0
147 -6687 0
513 -6687 0
-147 -513 6687 0
342 -6688 0
-682 -6688 0
-342 682 6688 0
-650 -6689 0
52 -6689 0
650 -52 6689 0
56 -6690 0
727 -6690 0
-56 -727 6690 0
730 -6691 0
-711 -6691 0
-730 711 6691 0
852 -6692 0
340 -6692 0
-852 -340 6692 0
880 -6693 0
-579 -6693 0
-880 579 6693 0
820 -6694 0
330 -6694 0
-820 -330 6694 0
-331 -6695 0
275 -6695 0
331 -275 6695 0
54 -6696 0
-333 -6696 0
-54 333 6696 0
779 -6697 0
242 -6697 0
-779 -242 6697 0
-425 -6698 0
657 -6698 0
425 -657 6698 0
952 -6699 0
633 -6699 0
-952 -633 6699 0
220 -6700 0
-279 -6700 0
-220 279 6700 0
183 -6701 0
-74 -6701 0
-183 74 6701 0
402 -6702 0
193 -6702 0
-402 -193 6702 0
-93 -6703 0
586 -6703 0
93 -586 6703 0
664 -6704 0
-229 -6704 0
-664 229 6704 0
821 -6705 0
108 -6705 0
-821 -108 6705 0
45 -6706 0
117 -6706 0
-45 -117 6706 0
392 -6707 0
790 -6707 0
-392 -790 6707 0
-705 -6708 0
731 -6708 0
705 -731 6708 0
855 -6709 0
-349 -6709 0
-855 349 6709 0
-730 -6710 0
484 -6710 0
730 -484 6710 0
-179 -6711 0
170 -6711 0
179 -170 6711 0
-208 -6712 0
413 -6712 0
208 -413 6712 0
-608 -6713 0
585 -6713 0
608 -585 6713 0
21 -6714 0
123 -6714 0
-21 -123 6714 0
117 -6715 0
11 -6715 0
-117 -11 6715 0
-50 -6716 0
955 -6716 0
50 -955 6716 0
390 -6717 0
92 -6717 0
-390 -92 6717 0
-360 -6718 0
733 -6718 0
360 -733 6718 0
-522 -6719 0
706 -6719 0
522 -706 6719 0
966 -6720 0
-349 -6720 0
-966 349 6720 0
752 -6721 0
-346 -6721 0
-752 346 6721 0
124 -6722 0
-518 -6722 0
-124 518 6722 0
429 -6723 0
546 -6723 0
-429 -546 6723 0
246 -6724 0
-375 -6724 0
-246 375 6724 0
382 -6725 0
-319 -6725 0
-382 319 6725 0
-885 -6726 0
145 -6726 0
885 -145 6726 0
668 -6727 0
-804 -6727 0
-668 804 6727 0
-821 -6728 0
706 -6728 0
821 -706 6728 0
-810 -6729 0
827 -6729 0
810 -827 6729 0
-772 -6730 0
193 -6730 0
772 -193 6730 0
606 -6731 0
-540 -6731 0
-606 540 6731 0
-488 -6732 0
175 -6732 0
488 -175 6732 0
949 -6733 0
66 -6733 0
-949 -66 6733 0
-869 -6734 0
770 -6734 0
869 -770 6734 0
-760 -6735 0
647 -6735 0
760 -647 6735 0
178 -6736 0
793 -6736 0
-178 -793 6736 0
-370 -6737 0
961 -6737 0
370 -961 6737 0
765 -6738 0
881 -6738 0
-765 -881 6738 0
706 -6739 0
265 -6739 0
-706 -265 6739 0
-858 -6740 0
601 -6740 0
858 -601 6740 0
311 -6741 0
-780 -6741 0
-311 780 6741 0
-235 -6742 0
419 -6742 0
235 -419 6742 0
38 -6743 0
349 -6743 0
-38 -349 6743 0
1000 -6744 0
894 -6744 0
-1000 -894 6744 0
-852 -6745 0
249 -6745 0
852 -249 6745 0
112 -6746 0
461 -6746 0
-112 -461 6746 0
-155 -6747 0
323 -6747 0
155 -323 6747 0
391 -6748 0
-937 -6748 0
-391 937 6748 0
640 -6749 0
962 -6749 0
-640 -962 6749 0
408 -6750 0
-143 -6750 0
-408 143 6750 0
662 -6751 0
437 -6751 0
-662 -437 6751 0
704 -6752 0
89 -6752 0
-704 -89 6752 0
207 -6753 0
357 -6753 0
-207 -357 6753 0
-740 -6754 0
571 -6754 0
740 -571 6754 0
112 -6755 0
-49 -6755 0
-112 49 6755 0
831 -6756 0
931 -6756 0
-831 -931 6756 0
39 -6757 0
305 -6757 0
-39 -305 6757 0
-81 -6758 0
30 -6758 0
81 -30 6758 0
-281 -6759 0
259 -6759 0
281 -259 6759 0
413 -6760 0
249 -6760 0
-413 -249 6760 0
-518 -6761 0
561 -6761 0
518 -561 6761 0
525 -6762 0
660 -6762 0
-525 -660 6762 0
669 -6763 0
-836 -6763 0
-669 836 6763 0
688 -6764 0
275 -6764 0
-688 -275 6764 0
-37 -6765 0
265 -6765 0
37 -265 6765 0
-425 -6766 0
700 -6766 0
425 -700 6766 0
975 -6767 0
-293 -6767 0
-975 293 6767 0
13 -6768 0
-732 -6768 0
-13 732 6768 0
-178 -6769 0
630 -6769 0
178 -630 6769 0
472 -6770 0
576 -6770 0
-472 -576 6770 0
667 -6771 0
-46 -6771 0
-667 46 6771 0
991 -6772 0
766 -6772 0
-991 -766 6772 0
928 -6773 0
358 -6773 0
-928 -358 6773 0
868 -6774 0
-285 -6774 0
-868 285 6774 0
-188 -6775 0
521 -6775 0
188 -521 6775 0
-794 -6776 0
946 -6776 0
794 -946 6776 0
-266 -6777 0
690 -6777 0
266 -690 6777 0
773 -6778 0
-284 -6778 0
-773 284 6778 0
-424 -6779 0
254 -6779 0
424 -254 6779 0
772 -6780 0
379 -6780 0
-772 -379 6780 0
-412 -6781 0
106 -6781 0
412 -106 6781 0
-492 -6782 0
11 -6782 0
492 -11 6782 0
-2 -6783 0
765 -6783 0
2 -765 6783 0
483 -6784 0
754 -6784 0
-483 -754 6784 0
-780 -6785 0
761 -6785 0
780 -761 6785 0
-979 -6786 0
588 -6786 0
979 -588 6786 0
279 -6787 0
753 -6787 0
-279 -753 6787 0
550 -6788 0
674 -6788 0
-550 -674 6788 0
944 -6789 0
293 -6789 0
-944 -293 6789 0
-424 -6790 0
95 -6790 0
424 -95 6790 0
-817 -6791 0
554 -6791 0
817 -554 6791 0
268 -6792 0
539 -6792 0
-268 -539 6792 0
6 -6793 0
-973 -6793 0
-6 973 6793 0
-637 -6794 0
451 -6794 0
637 -451 6794 0
432 -6795 0
-253 -6795 0
-432 253 6795 0
738 -6796 0
-270 -6796 0
-738 270 6796 0
822 -6797 0
-221 -6797 0
-822 221 6797 0
829 -6798 0
876 -6798 0
-829 -876 6798 0
-708 -6799 0
393 -6799 0
708 -393 6799 0
-187 -6800 0
401 -6800 0
187 -401 6800 0
276 -6801 0
-439 -6801 0
-276 439 6801 0
74 -6802 0
-870 -6802 0
-74 870 6802 0
772 -6803 0
257 -6803 0
-772 -257 6803 0
864 -6804 0
-176 -6804 0
-864 176 6804 0
-849 -6805 0
331 -6805 0
849 -331 6805 0
928 -6806 0
-864 -6806 0
-928 864 6806 0
981 -6807 0
602 -6807 0
-981 -602 6807 0
77 -6808 0
-92 -6808 0
-77 92 6808 0
-856 -6809 0
332 -6809 0
856 -332 6809 0
-120 -6810 0
32 -6810 0
120 -32 6810 0
55 -6811 0
-778 -6811 0
-55 778 6811 0
-976 -6812 0
617 -6812 0
976 -617 6812 0
570 -6813 0
697 -6813 0
-570 -697 6813 0
-433 -6814 0
970 -6814 0
433 -970 6814 0
911 -6815 0
-415 -6815 0
-911 415 6815 0
534 -6816 0
-14 -6816 0
-534 14 6816 0
437 -6817 0
-107 -6817 0
-437 107 6817 0
782 -6818 0
-660 -6818 0
-782 660 6818 0
413 -6819 0
-964 -6819 0
-413 964 6819 0
675 -6820 0
809 -6820 0
-675 -809 6820 0
-286 -6821 0
482 -6821 0
286 -482 6821 0
688 -6822 0
551 -6822 0
-688 -551 6822 0
-875 -6823 0
889 -6823 0
875 -889 6823 0
-472 -6824 0
316 -6824 0
472 -316 6824 0
581 -6825 0
739 -6825 0
-581 -739 6825 0
-746 -6826 0
612 -6826 0
746 -612 6826 0
502 -6827 0
670 -6827 0
-502 -670 6827 0
-235 -6828 0
393 -6828 0
235 -393 6828 0
987 -6829 0
-534 -6829 0
-987 534 6829 0
-643 -6830 0
578 -6830 0
643 -578 6830 0
208 -6831 0
-244 -6831 0
-208 244 6831 0
768 -6832 0
-68 -6832 0
-768 68 6832 0
-144 -6833 0
207 -6833 0
144 -207 6833 0
592 -6834 0
547 -6834 0
-592 -547 6834 0
55 -6835 0
-743 -6835 0
-55 743 6835 0
342 -6836 0
-285 -6836 0
-342 285 6836 0
-816 -6837 0
318 -6837 0
816 -318 6837 0
648 -6838 0
-453 -6838 0
-648 453 6838 0
734 -6839 0
251 -6839 0
-734 -251 6839 0
91 -6840 0
-286 -6840 0
-91 286 6840 0
87 -6841 0
-158 -6841 0
-87 158 6841 0
319 -6842 0
826 -6842 0
-319 -826 6842 0
551 -6843 0
651 -6843 0
-551 -651 6843 0
797 -6844 0
-359 -6844 0
-797 359 6844 0
-772 -6845 0
233 -6845 0
772 -233 6845 0
877 -6846 0
489 -6846 0
-877 -489 6846 0
-722 -6847 0
524 -6847 0
722 -524 6847 0
167 -6848 0
-268 -6848 0
-167 268 6848 0
779 -6849 0
937 -6849 0
-779 -937 6849 0
738 -6850 0
497 -6850 0
-738 -497 6850 0
180 -6851 0
-278 -6851 0
-180 278 6851 0
111 -6852 0
-473 -6852 0
-111 473 6852 0
64 -6853 0
-959 -6853 0
-64 959 6853 0
470 -6854 0
-831 -6854 0
-470 831 6854 0
436 -6855 0
305 -6855 0
-436 -305 6855 0
916 -6856 0
995 -6856 0
-916 -995 6856 0
984 -6857 0
487 -6857 0
-984 -487 6857 0
219 -6858 0
50 -6858 0
-219 -50 6858 0
-824 -6859 0
849 -6859 0
824 -849 6859 0
39 -6860 0
387 -6860 0
-39 -387 6860 0
-116 -6861 0
465 -6861 0
116 -465 6861 0
840 -6862 0
64 -6862 0
-840 -64 6862 0
-753 -6863 0
811 -6863 0
753 -811 6863 0
-308 -6864 0
98 -6864 0
308 -98 6864 0
-250 -6865 0
418 -6865 0
250 -418 6865 0
549 -6866 0
-781 -6866 0
-549 781 6866 0
-960 -6867 0
538 -6867 0
960 -538 6867 0
742 -6868 0
-454 -6868 0
-742 454 6868 0
958 -6869 0
-492 -6869 0
-958 492 6869 0
-689 -6870 0
804 -6870 0
689 -804 6870 0
86 -6871 0
350 -6871 0
-86 -350 6871 0
-646 -6872 0
362 -6872 0
646 -362 6872 0
484 -6873 0
-775 -6873 0
-484 775 6873 0
638 -6874 0
713 -6874 0
-638 -713 6874 0
247 -6875 0
756 -6875 0
-247 -756 6875 0
96 -6876 0
276 -6876 0
-96 -276 6876 0
246 -6877 0
-300 -6877 0
-246 300 6877 0
71 -6878 0
-571 -6878 0
-71 571 6878 0
63 -6879 0
490 -6879 0
-63 -490 6879 0
807 -6880 0
153 -6880 0
-807 -153 6880 0
-49 -6881 0
628 -6881 0
49 -628 6881 0
503 -6882 0
398 -6882 0
-503 -398 6882 0
667 -6883 0
-141 -6883 0
-667 141 6883 0
64 -6884 0
-501 -6884 0
-64 501 6884 0
451 -6885 0
513 -6885 0
-451 -513 6885 0
940 -6886 0
-726 -6886 0
-940 726 6886 0
461 -6887 0
-94 -6887 0
-461 94 6887 0
630 -6888 0
194 -6888 0
-630 -194 6888 0
-32 -6889 0
933 -6889 0
32 -933 6889 0
195 -6890 0
91 -6890 0
-195 -91 6890 0
495 -6891 0
155 -6891 0
-495 -155 6891 0
725 -6892 0
-53 -6892 0
-725 53 6892 0
-361 -6893 0
906 -6893 0
361 -906 6893 0
-267 -6894 0
899 -6894 0
267 -899 6894 0
-464 -6895 0
969 -6895 0
464 -969 6895 0
852 -6896 0
-996 -6896 0
-852 996 6896 0
389 -6897 0
858 -6897 0
-389 -858 6897 0
416 -6898 0
-686 -6898 0
-416 686 6898 0
759 -6899 0
710 -6899 0
-759 -710 6899 0
-390 -6900 0
786 -6900 0
390 -786 6900 0
999 -6901 0
946 -6901 0
-999 -946 6901 0
-512 -6902 0
338 -6902 0
512 -338 6902 0
200 -6903 0
171 -6903 0
-200 -171 6903 0
-26 -6904 0
963 -6904 0
26 -963 6904 0
975 -6905 0
406 -6905 0
-975 -406 6905 0
-705 -6906 0
513 -6906 0
705 -513 6906 0
923 -6907 0
-662 -6907 0
-923 662 6907 0
-571 -6908 0
529 -6908 0
571 -529 6908 0
662 -6909 0
545 -6909 0
-662 -545 6909 0
94 -6910 0
-995 -6910 0
-94 995 6910 0
-481 -6911 0
212 -6911 0
481 -212 6911 0
192 -6912 0
-202 -6912 0
-192 202 6912 0
670 -6913 0
686 -6913 0
-670 -686 6913 0
504 -6914 0
747 -6914 0
-504 -747 6914 0
198 -6915 0
-844 -6915 0
-198 844 6915 0
-777 -6916 0
22 -6916 0
777 -22 6916 0
-328 -6917 0
314 -6917 0
328 -314 6917 0
572 -6918 0
-886 -6918 0
-572 886 6918 0
488 -6919 0
-713 -6919 0
-488 713 6919 0
407 -6920 0
-594 -6920 0
-407 594 6920 0
880 -6921 0
-303 -6921 0
-880 303 6921 0
360 -6922 0
758 -6922 0
-360 -758 6922 0
789 -6923 0
-516 -6923 0
-789 516 6923 0
-890 -6924 0
579 -6924 0
890 -579 6924 0
-809 -6925 0
583 -6925 0
809 -583 6925 0
-560 -6926 0
803 -6926 0
560 -803 6926 0
24 -6927 0
954 -6927 0
-24 -954 6927 0
-314 -6928 0
613 -6928 0
314 -613 6928 0
493 -6929 0
804 -6929 0
-493 -804 6929 0
-66 -6930 0
698 -6930 0
66 -698 6930 0
-714 -6931 0
915 -6931 0
714 -915 6931 0
959 -6932 0
770 -6932 0
-959 -770 6932 0
38 -6933 0
-373 -6933 0
-38 373 6933 0
695 -6934 0
-667 -6934 0
-695 667 6934 0
189 -6935 0
-397 -6935 0
-189 397 6935 0
-297 -6936 0
405 -6936 0
297 -405 6936 0
-690 -6937 0
579 -6937 0
690 -579 6937 0
718 -6938 0
-709 -6938 0
-718 709 6938 0
428 -6939 0
697 -6939 0
-428 -697 6939 0
74 -6940 0
121 -6940 0
-74 -121 6940 0
342 -6941 0
245 -6941 0
-342 -245 6941 0
229 -6942 0
-183 -6942 0
-229 183 6942 0
927 -6943 0
663 -6943 0
-927 -663 6943 0
-986 -6944 0
700 -6944 0
986 -700 6944 0
59 -6945 0
554 -6945 0
-59 -554 6945 0
614 -6946 0
-173 -6946 0
-614 173 6946 0
-962 -6947 0
530 -6947 0
962 -530 6947 0
400 -6948 0
111 -6948 0
-400 -111 6948 0
-178 -6949 0
371 -6949 0
178 -371 6949 0
32 -6950 0
-774 -6950 0
-32 774 6950 0
798 -6951 0
-431 -6951 0
-798 431 6951 0
307 -6952 0
489 -6952 0
-307 -489 6952 0
323 -6953 0
410 -6953 0
-323 -410 6953 0
853 -6954 0
-509 -6954 0
-853 509 6954 0
-752 -6955 0
169 -6955 0
752 -169 6955 0
328 -6956 0
-636 -6956 0
-328 636 6956 0
-698 -6957 0
201 -6957 0
698 -201 6957 0
350 -6958 0
-835 -6958 0
-350 835 6958 0
312 -6959 0
-367 -6959 0
-312 367 6959 0
424 -6960 0
-132 -6960 0
-424 132 6960 0
725 -6961 0
571 -6961 0
-725 -571 6961 0
931 -6962 0
226 -6962 0
-931 -226 6962 0
806 -6963 0
-455 -6963 0
-806 455 6963 0
-763 -6964 0
301 -6964 0
763 -301 6964 0
-930 -6965 0
908 -6965 0
930 -908 6965 0
183 -6966 0
909 -6966 0
-183 -909 6966 0
-424 -6967 0
850 -6967 0
424 -850 6967 0
309 -6968 0
946 -6968 0
-309 -946 6968 0
135 -6969 0
-315 -6969 0
-135 315 6969 0
-89 -6970 0
683 -6970 0
89 -683 6970 0
288 -6971 0
-843 -6971 0
-288 843 6971 0
135 -6972 0
-229 -6972 0
-135 229 6972 0
173 -6973 0
714 -6973 0
-173 -714 6973 0
-754 -6974 0
502 -6974 0
754 -502 6974 0
-816 -6975 0
83 -6975 0
816 -83 6975 0
-106 -6976 0
491 -6976 0
106 -491 6976 0
-256 -6977 0
934 -6977 0
256 -934 6977 0
-82 -6978 0
749 -6978 0
82 -749 6978 0
-632 -6979 0
859 -6979 0
632 -859 6979 0
783 -6980 0
-291 -6980 0
-783 291 6980 0
-267 -6981 0
436 -6981 0
267 -436 6981 0
970 -6982 0
-911 -6982 0
-970 911 6982 0
-791 -6983 0
337 -6983 0
791 -337 6983 0
695 -6984 0
94 -6984 0
-695 -94 6984 0
846 -6985 0
830 -6985 0
-846 -830 6985 0
758 -6986 0
-146 -6986 0
-758 146 6986 0
847 -6987 0
798 -6987 0
-847 -798 6987 0
640 -6988 0
-235 -6988 0
-640 235 6988 0
46 -6989 0
273 -6989 0
-46 -273 6989 0
444 -6990 0
-326 -6990 0
-444 326 6990 0
614 -6991 0
869 -6991 0
-614 -869 6991 0
-137 -6992 0
371 -6992 0
137 -371 6992 0
79 -6993 0
78 -6993 0
-79 -78 6993 0
686 -6994 0
-557 -6994 0
-686 557 6994 0
14 -6995 0
-51 -6995 0
-14 51 6995 0
129 -6996 0
-471 -6996 0
-129 471 6996 0
296 -6997 0
-38 -6997 0
-296 38 6997 0
248 -6998 0
-27 -6998 0
-248 27 6998 0
195 -6999 0
915 -6999 0
-195 -915 6999 0
832 -7000 0
933 -7000 0
-832 -933 7000 0
768 -7001 0
-993 -7001 0
-768 993 7001 0
52 -7002 0
-766 -7002 0
-52 766 7002 0
140 -7003 0
-277 -7003 0
-140 277 7003 0
-543 -7004 0
505 -7004 0
543 -505 7004 0
-105 -7005 0
707 -7005 0
105 -707 7005 0
-643 -7006 0
939 -7006 0
643 -939 7006 0
-928 -7007 0
44 -7007 0
928 -44 7007 0
-904 -7008 0
374 -7008 0
904 -374 7008 0
200 -7009 0
-519 -7009 0
-200 519 7009 0
312 -7010 0
260 -7010 0
-312 -260 7010 0
312 -7011 0
-176 -7011 0
-312 176 7011 0
495 -7012 0
-737 -7012 0
-495 737 7012 0
3 -7013 0
1 -7013 0
-3 -1 7013 0
-965 -7014 0
362 -7014 0
965 -362 7014 0
-537 -7015 0
467 -7015 0
537 -467 7015 0
327 -7016 0
-445 -7016 0
-327 445 7016 0
254 -7017 0
-444 -7017 0
-254 444 7017 0
512 -7018 0
-390 -7018 0
-512 390 7018 0
304 -7019 0
516 -7019 0
-304 -516 7019 0
-896 -7020 0
431 -7020 0
896 -431 7020 0
486 -7021 0
529 -7021 0
-486 -529 7021 0
736 -7022 0
999 -7022 0
-736 -999 7022 0
-552 -7023 0
42 -7023 0
552 -42 7023 0
949 -7024 0
778 -7024 0
-949 -778 7024 0
-684 -7025 0
281 -7025 0
684 -281 7025 0
668 -7026 0
827 -7026 0
-668 -827 7026 0
108 -7027 0
876 -7027 0
-108 -876 7027 0
-659 -7028 0
565 -7028 0
659 -565 7028 0
852 -7029 0
994 -7029 0
-852 -994 7029 0
-17 -7030 0
454 -7030 0
17 -454 7030 0
775 -7031 0
913 -7031 0
-775 -913 7031 0
268 -7032 0
65 -7032 0
-268 -65 7032 0
-352 -7033 0
28 -7033 0
352 -28 7033 0
692 -7034 0
523 -7034 0
-692 -523 7034 0
869 -7035 0
-94 -7035 0
-869 94 7035 0
-437 -7036 0
490 -7036 0
437 -490 7036 0
613 -7037 0
465 -7037 0
-613 -465 7037 0
362 -7038 0
242 -7038 0
-362 -242 7038 0
287 -7039 0
-373 -7039 0
-287 373 7039 0
-698 -7040 0
926 -7040 0
698 -926 7040 0
-115 -7041 0
217 -7041 0
115 -217 7041 0
-383 -7042 0
105 -7042 0
383 -105 7042 0
-930 -7043 0
214 -7043 0
930 -214 7043 0
-112 -7044 0
330 -7044 0
112 -330 7044 0
527 -7045 0
-60 -7045 0
-527 60 7045 0
285 -7046 0
-462 -7046 0
-285 462 7046 0
278 -7047 0
852 -7047 0
-278 -852 7047 0
423 -7048 0
-974 -7048 0
-423 974 7048 0
920 -7049 0
-334 -7049 0
-920 334 7049 0
264 -7050 0
787 -7050 0
-264 -787 7050 0
534 -7051 0
-654 -7051 0
-534 654 7051 0
103 -7052 0
-114 -7052 0
-103 114 7052 0
710 -7053 0
858 -7053 0
-710 -858 7053 0
413 -7054 0
379 -7054 0
-413 -379 7054 0
9 -7055 0
417 -7055 0
-9 -417 7055 0
-529 -7056 0
585 -7056 0
529 -585 7056 0
479 -7057 0
347 -7057 0
-479 -347 7057 0
-884 -7058 0
564 -7058 0
884 -564 7058 0
63 -7059 0
-343 -7059 0
-63 343 7059 0
830 -7060 0
993 -7060 0
-830 -993 7060 0
286 -7061 0
-651 -7061 0
-286 651 7061 0
360 -7062 0
5 -7062 0
-360 -5 7062 0
918 -7063 0
-508 -7063 0
-918 508 7063 0
-915 -7064 0
548 -7064 0
915 -548 7064 0
462 -7065 0
349 -7065 0
-462 -349 7065 0
192 -7066 0
92 -7066 0
-192 -92 7066 0
-786 -7067 0
810 -7067 0
786 -810 7067 0
160 -7068 0
-704 -7068 0
-160 704 7068 0
572 -7069 0
274 -7069 0
-572 -274 7069 0
-785 -7070 0
100 -7070 0
785 -100 7070 0
-339 -7071 0
421 -7071 0
339 -421 7071 0
85 -7072 0
-148 -7072 0
-85 148 7072 0
117 -7073 0
811 -7073 0
-117 -811 7073 0
296 -7074 0
-902 -7074 0
-296 902 7074 0
-652 -7075 0
545 -7075 0
652 -545 7075 0
-791 -7076 0
993 -7076 0
791 -993 7076 0
-866 -7077 0
339 -7077 0
866 -339 7077 0
933 -7078 0
153 -7078 0
-933 -153 7078 0
-363 -7079 0
476 -7079 0
363 -476 7079 0
846 -7080 0
-100 -7080 0
-846 100 7080 0
728 -7081 0
618 -7081 0
-728 -618 7081 0
-970 -7082 0
834 -7082 0
970 -834 7082 0
-428 -7083 0
330 -7083 0
428 -330 7083 0
-651 -7084 0
482 -7084 0
651 -482 7084 0
-321 -7085 0
298 -7085 0
321 -298 7085 0
308 -7086 0
587 -7086 0
-308 -587 7086 0
-808 -7087 0
699 -7087 0
808 -699 7087 0
238 -7088 0
-563 -7088 0
-238 563 7088 0
-681 -7089 0
451 -7089 0
681 -451 7089 0
-960 -7090 0
985 -7090 0
960 -985 7090 0
996 -7091 0
-855 -7091 0
-996 855 7091 0
694 -7092 0
-269 -7092 0
-694 269 7092 0
-888 -7093 0
577 -7093 0
888 -577 7093 0
290 -7094 0
729 -7094 0
-290 -729 7094 0
197 -7095 0
117 -7095 0
-197 -117 7095 0
896 -7096 0
-842 -7096 0
-896 842 7096 0
207 -7097 0
642 -7097 0
-207 -642 7097 0
-49 -7098 0
906 -7098 0
49 -906 7098 0
-650 -7099 0
190 -7099 0
650 -190 7099 0
512 -7100 0
-617 -7100 0
-512 617 7100 0
283 -7101 0
-862 -7101 0
-283 862 7101 0
-513 -7102 0
524 -7102 0
513 -524 7102 0
558 -7103 0
18 -7103 0
-558 -18 7103 0
101 -7104 0
11 -7104 0
-101 -11 7104 0
-131 -7105 0
309 -7105 0
131 -309 7105 0
-369 -7106 0
253 -7106 0
369 -253 7106 0
-624 -7107 0
130 -7107 0
624 -130 7107 0
-170 -7108 0
164 -7108 0
170 -164 7108 0
758 -7109 0
828 -7109 0
-758 -828 7109 0
451 -7110 0
586 -7110 0
-451 -586 7110 0
66 -7111 0
-527 -7111 0
-66 527 7111 0
519 -7112 0
-569 -7112 0
-519 569 7112 0
222 -7113 0
429 -7113 0
-222 -429 7113 0
656 -7114 0
745 -7114 0
-656 -745 7114 0
-368 -7115 0
611 -7115 0
368 -611 7115 0
12 -7116 0
683 -7116 0
-12 -683 7116 0
328 -7117 0
388 -7117 0
-328 -388 7117 0
-441 -7118 0
66 -7118 0
441 -66 7118 0
971 -7119 0
338 -7119 0
-971 -338 7119 0
832 -7120 0
-86 -7120 0
-832 86 7120 0
-545 -7121 0
603 -7121 0
545 -603 7121 0
587 -7122 0
-54 -7122 0
-587 54 7122 0
-432 -7123 0
746 -7123 0
432 -746 7123 0
663 -7124 0
834 -7124 0
-663 -834 7124 0
584 -7125 0
-976 -7125 0
-584 976 7125 0
998 -7126 0
-754 -7126 0
-998 754 7126 0
676 -7127 0
-566 -7127 0
-676 566 7127 0
935 -7128 0
566 -7128 0
-935 -566 7128 0
172 -7129 0
740 -7129 0
-172 -740 7129 0
767 -7130 0
92 -7130 0
-767 -92 7130 0
622 -7131 0
-621 -7131 0
-622 621 7131 0
48 -7132 0
-714 -7132 0
-48 714 7132 0
359 -7133 0
685 -7133 0
-359 -685 7133 0
-110 -7134 0
9 -7134 0
110 -9 7134 0
782 -7135 0
972 -7135 0
-782 -972 7135 0
-74 -7136 0
162 -7136 0
74 -162 7136 0
-592 -7137 0
595 -7137 0
592 -595 7137 0
-379 -7138 0
729 -7138 0
379 -729 7138 0
466 -7139 0
-863 -7139 0
-466 863 7139 0
414 -7140 0
748 -7140 0
-414 -748 7140 0
824 -7141 0
-108 -7141 0
-824 108 7141 0
547 -7142 0
-630 -7142 0
-547 630 7142 0
6 -7143 0
748 -7143 0
-6 -748 7143 0
-152 -7144 0
373 -7144 0
152 -373 7144 0
223 -7145 0
710 -7145 0
-223 -710 7145 0
-12 -7146 0
9 -7146 0
12 -9 7146 0
839 -7147 0
107 -7147 0
-839 -107 7147 0
-146 -7148 0
246 -7148 0
146 -246 7148 0
878 -7149 0
929 -7149 0
-878 -929 7149 0
950 -7150 0
733 -7150 0
-950 -733 7150 0
-64 -7151 0
391 -7151 0
64 -391 7151 0
423 -7152 0
382 -7152 0
-423 -382 7152 0
-96 -7153 0
670 -7153 0
96 -670 7153 0
-658 -7154 0
-522 -7155 0
515 -7155 0
522 -515 7155 0
148 -7156 0
-445 -7156 0
-148 445 7156 0
431 -7157 0
396 -7157 0
-431 -396 7157 0
314 -7158 0
-158 -7158 0
-314 158 7158 0
-538 -7159 0
989 -7159 0
538 -989 7159 0
-161 -7160 0
84 -7160 0
161 -84 7160 0
-289 -7161 0
98 -7161 0
289 -98 7161 0
551 -7162 0
-996 -7162 0
-551 996 7162 0
-451 -7163 0
978 -7163 0
451 -978 7163 0
494 -7164 0
212 -7164 0
-494 -212 7164 0
873 -7165 0
-39 -7165 0
-873 39 7165 0
-432 -7166 0
792 -7166 0
432 -792 7166 0
528 -7167 0
717 -7167 0
-528 -717 7167 0
598 -7168 0
-278 -7168 0
-598 278 7168 0
188 -7169 0
297 -7169 0
-188 -297 7169 0
-513 -7170 0
438 -7170 0
513 -438 7170 0
626 -7171 0
418 -7171 0
-626 -418 7171 0
-465 -7172 0
179 -7172 0
465 -179 7172 0
723 -7173 0
-494 -7173 0
-723 494 7173 0
-728 -7174 0
291 -7174 0
728 -291 7174 0
246 -7175 0
252 -7175 0
-246 -252 7175 0
-432 -7176 0
387 -7176 0
432 -387 7176 0
31 -7177 0
450 -7177 0
-31 -450 7177 0
647 -7178 0
-470 -7178 0
-647 470 7178 0
55 -7179 0
-650 -7179 0
-55 650 7179 0
112 -7180 0
-535 -7180 0
-112 535 7180 0
288 -7181 0
-217 -7181 0
-288 217 7181 0
-418 -7182 0
540 -7182 0
418 -540 7182 0
485 -7183 0
-268 -7183 0
-485 268 7183 0
-834 -7184 0
681 -7184 0
834 -681 7184 0
725 -7185 0
505 -7185 0
-725 -505 7185 0
-205 -7186 0
641 -7186 0
205 -641 7186 0
-328 -7187 0
393 -7187 0
328 -393 7187 0
445 -7188 0
209 -7188 0
-445 -209 7188 0
287 -7189 0
-229 -7189 0
-287 229 7189 0
732 -7190 0
-623 -7190 0
-732 623 7190 0
-236 -7191 0
635 -7191 0
236 -635 7191 0
709 -7192 0
-550 -7192 0
-709 550 7192 0
-521 -7193 0
741 -7193 0
521 -741 7193 0
-104 -7194 0
622 -7194 0
104 -622 7194 0
80 -7195 0
-751 -7195 0
-80 751 7195 0
-117 -7196 0
361 -7196 0
117 -361 7196 0
-987 -7197 0
644 -7197 0
987 -644 7197 0
572 -7198 0
610 -7198 0
-572 -610 7198 0
120 -7199 0
443 -7199 0
-120 -443 7199 0
-968 -7200 0
211 -7200 0
968 -211 7200 0
882 -7201 0
-343 -7201 0
-882 343 7201 0
-864 -7202 0
167 -7202 0
864 -167 7202 0
485 -7203 0
596 -7203 0
-485 -596 7203 0
-425 -7204 0
446 -7204 0
425 -446 7204 0
296 -7205 0
775 -7205 0
-296 -775 7205 0
-531 -7206 0
954 -7206 0
531 -954 7206 0
936 -7207 0
-330 -7207 0
-936 330 7207 0
-760 -7208 0
272 -7208 0
760 -272 7208 0
-787 -7209 0
459 -7209 0
787 -459 7209 0
631 -7210 0
249 -7210 0
-631 -249 7210 0
319 -7211 0
660 -7211 0
-319 -660 7211 0
472 -7212 0
-541 -7212 0
-472 541 7212 0
221 -7213 0
-572 -7213 0
-221 572 7213 0
384 -7214 0
553 -7214 0
-384 -553 7214 0
-398 -7215 0
281 -7215 0
398 -281 7215 0
-338 -7216 0
921 -7216 0
338 -921 7216 0
856 -7217 0
119 -7217 0
-856 -119 7217 0
869 -7218 0
-236 -7218 0
-869 236 7218 0
174 -7219 0
852 -7219 0
-174 -852 7219 0
-249 -7220 0
657 -7220 0
249 -657 7220 0
-846 -7221 0
881 -7221 0
846 -881 7221 0
820 -7222 0
-45 -7222 0
-820 45 7222 0
719 -7223 0
-586 -7223 0
-719 586 7223 0
896 -7224 0
617 -7224 0
-896 -617 7224 0
582 -7225 0
541 -7225 0
-582 -541 7225 0
-283 -7226 0
250 -7226 0
283 -250 7226 0
553 -7227 0
-911 -7227 0
-553 911 7227 0
-664 -7228 0
169 -7228 0
664 -169 7228 0
-4 -7229 0
323 -7229 0
4 -323 7229 0
-802 -7230 0
169 -7230 0
802 -169 7230 0
632 -7231 0
-591 -7231 0
-632 591 7231 0
-457 -7232 0
997 -7232 0
457 -997 7232 0
-450 -7233 0
36 -7233 0
450 -36 7233 0
531 -7234 0
-71 -7234 0
-531 71 7234 0
280 -7235 0
-99 -7235 0
-280 99 7235 0
415 -7236 0
332 -7236 0
-415 -332 7236 0
15 -7237 0
283 -7237 0
-15 -283 7237 0
795 -7238 0
-847 -7238 0
-795 847 7238 0
725 -7239 0
-454 -7239 0
-725 454 7239 0
876 -7240 0
-375 -7240 0
-876 375 7240 0
784 -7241 0
721 -7241 0
-784 -721 7241 0
-584 -7242 0
252 -7242 0
584 -252 7242 0
535 -7243 0
-967 -7243 0
-535 967 7243 0
-123 -7244 0
251 -7244 0
123 -251 7244 0
216 -7245 0
-298 -7245 0
-216 298 7245 0
149 -7246 0
-700 -7246 0
-149 700 7246 0
-59 -7247 0
653 -7247 0
59 -653 7247 0
535 -7248 0
-935 -7248 0
-535 935 7248 0
598 -7249 0
-877 -7249 0
-598 877 7249 0
-1 -7250 0
541 -7250 0
1 -541 7250 0
933 -7251 0
-221 -7251 0
-933 221 7251 0
835 -7252 0
186 -7252 0
-835 -186 7252 0
247 -7253 0
-97 -7253 0
-247 97 7253 0
304 -7254 0
-536 -7254 0
-304 536 7254 0
-290 -7255 0
549 -7255 0
290 -549 7255 0
656 -7256 0
-833 -7256 0
-656 833 7256 0
158 -7257 0
874 -7257 0
-158 -874 7257 0
-914 -7258 0
386 -7258 0
914 -386 7258 0
319 -7259 0
-343 -7259 0
-319 343 7259 0
-714 -7260 0
586 -7260 0
714 -586 7260 0
-297 -7261 0
462 -7261 0
297 -462 7261 0
787 -7262 0
-942 -7262 0
-787 942 7262 0
8 -7263 0
660 -7263 0
-8 -660 7263 0
488 -7264 0
-401 -7264 0
-488 401 7264 0
211 -7265 0
986 -7265 0
-211 -986 7265 0
928 -7266 0
300 -7266 0
-928 -300 7266 0
-81 -7267 0
301 -7267 0
81 -301 7267 0
-579 -7268 0
753 -7268 0
579 -753 7268 0
-610 -7269 0
596 -7269 0
610 -596 7269 0
879 -7270 0
845 -7270 0
-879 -845 7270 0
30 -7271 0
-309 -7271 0
-30 309 7271 0
895 -7272 0
820 -7272 0
-895 -820 7272 0
496 -7273 0
-245 -7273 0
-496 245 7273 0
197 -7274 0
-367 -7274 0
-197 367 7274 0
548 -7275 0
769 -7275 0
-548 -769 7275 0
109 -7276 0
-694 -7276 0
-109 694 7276 0
-786 -7277 0
421 -7277 0
786 -421 7277 0
791 -7278 0
-335 -7278 0
-791 335 7278 0
-657 -7279 0
10 -7279 0
657 -10 7279 0
-600 -7280 0
882 -7280 0
600 -882 7280 0
-196 -7281 0
602 -7281 0
196 -602 7281 0
656 -7282 0
-349 -7282 0
-656 349 7282 0
576 -7283 0
-459 -7283 0
-576 459 7283 0
-794 -7284 0
149 -7284 0
794 -149 7284 0
973 -7285 0
-678 -7285 0
-973 678 7285 0
116 -7286 0
540 -7286 0
-116 -540 7286 0
558 -7287 0
877 -7287 0
-558 -877 7287 0
942 -7288 0
-667 -7288 0
-942 667 7288 0
294 -7289 0
604 -7289 0
-294 -604 7289 0
-680 -7290 0
566 -7290 0
680 -566 7290 0
352 -7291 0
961 -7291 0
-352 -961 7291 0
280 -7292 0
649 -7292 0
-280 -649 7292 0
424 -7293 0
-751 -7293 0
-424 751 7293 0
940 -7294 0
732 -7294 0
-940 -732 7294 0
566 -7295 0
-742 -7295 0
-566 742 7295 0
966 -7296 0
684 -7296 0
-966 -684 7296 0
888 -7297 0
-685 -7297 0
-888 685 7297 0
158 -7298 0
-695 -7298 0
-158 695 7298 0
460 -7299 0
-830 -7299 0
-460 830 7299 0
661 -7300 0
-454 -7300 0
-661 454 7300 0
-876 -7301 0
972 -7301 0
876 -972 7301 0
-232 -7302 0
753 -7302 0
232 -753 7302 0
733 -7303 0
625 -7303 0
-733 -625 7303 0
178 -7304 0
209 -7304 0
-178 -209 7304 0
-739 -7305 0
586 -7305 0
739 -586 7305 0
848 -7306 0
-948 -7306 0
-848 948 7306 0
352 -7307 0
335 -7307 0
-352 -335 7307 0
375 -7308 0
146 -7308 0
-375 -146 7308 0
749 -7309 0
-270 -7309 0
-749 270 7309 0
479 -7310 0
-470 -7310 0
-479 470 7310 0
376 -7311 0
211 -7311 0
-376 -211 7311 0
400 -7312 0
-949 -7312 0
-400 949 7312 0
950 -7313 0
-660 -7313 0
-950 660 7313 0
182 -7314 0
193 -7314 0
-182 -193 7314 0
964 -7315 0
226 -7315 0
-964 -226 7315 0
344 -7316 0
47 -7316 0
-344 -47 7316 0
263 -7317 0
535 -7317 0
-263 -535 7317 0
615 -7318 0
-277 -7318 0
-615 277 7318 0
-245 -7319 0
250 -7319 0
245 -250 7319 0
-424 -7320 0
278 -7320 0
424 -278 7320 0
400 -7321 0
202 -7321 0
-400 -202 7321 0
703 -7322 0
631 -7322 0
-703 -631 7322 0
968 -7323 0
-423 -7323 0
-968 423 7323 0
45 -7324 0
907 -7324 0
-45 -907 7324 0
604 -7325 0
371 -7325 0
-604 -371 7325 0
535 -7326 0
-669 -7326 0
-535 669 7326 0
432 -7327 0
-273 -7327 0
-432 273 7327 0
606 -7328 0
10 -7328 0
-606 -10 7328 0
928 -7329 0
758 -7329 0
-928 -758 7329 0
499 -7330 0
-790 -7330 0
-499 790 7330 0
742 -7331 0
449 -7331 0
-742 -449 7331 0
371 -7332 0
-750 -7332 0
-371 750 7332 0
-995 -7333 0
57 -7333 0
995 -57 7333 0
-908 -7334 0
866 -7334 0
908 -866 7334 0
-178 -7335 0
134 -7335 0
178 -134 7335 0
604 -7336 0
762 -7336 0
-604 -762 7336 0
-955 -7337 0
340 -7337 0
955 -340 7337 0
773 -7338 0
417 -7338 0
-773 -417 7338 0
237 -7339 0
-795 -7339 0
-237 795 7339 0
-500 -7340 0
428 -7340 0
500 -428 7340 0
618 -7341 0
490 -7341 0
-618 -490 7341 0
400 -7342 0
-658 -7342 0
-400 658 7342 0
422 -7343 0
686 -7343 0
-422 -686 7343 0
884 -7344 0
-510 -7344 0
-884 510 7344 0
-40 -7345 0
295 -7345 0
40 -295 7345 0
163 -7346 0
371 -7346 0
-163 -371 7346 0
248 -7347 0
539 -7347 0
-248 -539 7347 0
-973 -7348 0
945 -7348 0
973 -945 7348 0
-378 -7349 0
100 -7349 0
378 -100 7349 0
-989 -7350 0
426 -7350 0
989 -426 7350 0
209 -7351 0
673 -7351 0
-209 -673 7351 0
557 -7352 0
793 -7352 0
-557 -793 7352 0
-960 -7353 0
359 -7353 0
960 -359 7353 0
48 -7354 0
758 -7354 0
-48 -758 7354 0
752 -7355 0
-931 -7355 0
-752 931 7355 0
909 -7356 0
-724 -7356 0
-909 724 7356 0
-114 -7357 0
649 -7357 0
114 -649 7357 0
908 -7358 0
-942 -7358 0
-908 942 7358 0
520 -7359 0
494 -7359 0
-520 -494 7359 0
-302 -7360 0
922 -7360 0
302 -922 7360 0
941 -7361 0
164 -7361 0
-941 -164 7361 0
-907 -7362 0
51 -7362 0
907 -51 7362 0
751 -7363 0
793 -7363 0
-751 -793 7363 0
-308 -7364 0
172 -7364 0
308 -172 7364 0
-824 -7365 0
988 -7365 0
824 -988 7365 0
741 -7366 0
-197 -7366 0
-741 197 7366 0
892 -7367 0
-471 -7367 0
-892 471 7367 0
132 -7368 0
-37 -7368 0
-132 37 7368 0
-315 -7369 0
804 -7369 0
315 -804 7369 0
-888 -7370 0
983 -7370 0
888 -983 7370 0
608 -7371 0
306 -7371 0
-608 -306 7371 0
436 -7372 0
194 -7372 0
-436 -194 7372 0
32 -7373 0
-471 -7373 0
-32 471 7373 0
-249 -7374 0
842 -7374 0
249 -842 7374 0
-610 -7375 0
171 -7375 0
610 -171 7375 0
-793 -7376 0
780 -7376 0
793 -780 7376 0
659 -7377 0
851 -7377 0
-659 -851 7377 0
912 -7378 0
692 -7378 0
-912 -692 7378 0
911 -7379 0
13 -7379 0
-911 -13 7379 0
885 -7380 0
603 -7380 0
-885 -603 7380 0
845 -7381 0
-300 -7381 0
-845 300 7381 0
-344 -7382 0
645 -7382 0
344 -645 7382 0
879 -7383 0
433 -7383 0
-879 -433 7383 0
8 -7384 0
-922 -7384 0
-8 922 7384 0
-495 -7385 0
249 -7385 0
495 -249 7385 0
-249 -7386 0
155 -7386 0
249 -155 7386 0
-401 -7387 0
755 -7387 0
401 -755 7387 0
-373 -7388 0
154 -7388 0
373 -154 7388 0
342 -7389 0
785 -7389 0
-342 -785 7389 0
188 -7390 0
955 -7390 0
-188 -955 7390 0
256 -7391 0
-740 -7391 0
-256 740 7391 0
620 -7392 0
-487 -7392 0
-620 487 7392 0
898 -7393 0
-359 -7393 0
-898 359 7393 0
840 -7394 0
391 -7394 0
-840 -391 7394 0
248 -7395 0
-779 -7395 0
-248 779 7395 0
735 -7396 0
-476 -7396 0
-735 476 7396 0
-960 -7397 0
625 -7397 0
960 -625 7397 0
415 -7398 0
806 -7398 0
-415 -806 7398 0
488 -7399 0
729 -7399 0
-488 -729 7399 0
192 -7400 0
535 -7400 0
-192 -535 7400 0
-261 -7401 0
202 -7401 0
261 -202 7401 0
-322 -7402 0
965 -7402 0
322 -965 7402 0
682 -7403 0
506 -7403 0
-682 -506 7403 0
208 -7404 0
-244 -7404 0
-208 244 7404 0
-882 -7405 0
521 -7405 0
882 -521 7405 0
-904 -7406 0
385 -7406 0
904 -385 7406 0
-648 -7407 0
140 -7407 0
648 -140 7407 0
-400 -7408 0
799 -7408 0
400 -799 7408 0
764 -7409 0
19 -7409 0
-764 -19 7409 0
-818 -7410 0
969 -7410 0
818 -969 7410 0
591 -7411 0
-902 -7411 0
-591 902 7411 0
959 -7412 0
55 -7412 0
-959 -55 7412 0
-488 -7413 0
795 -7413 0
488 -795 7413 0
-248 -7414 0
666 -7414 0
248 -666 7414 0
-8 -7415 0
568 -7415 0
8 -568 7415 0
-780 -7416 0
603 -7416 0
780 -603 7416 0
888 -7417 0
-171 -7417 0
-888 171 7417 0
636 -7418 0
-143 -7418 0
-636 143 7418 0
4 -7419 0
-943 -7419 0
-4 943 7419 0
864 -7420 0
-855 -7420 0
-864 855 7420 0
892 -7421 0
-567 -7421 0
-892 567 7421 0
-272 -7422 0
672 -7422 0
272 -672 7422 0
-581 -7423 0
898 -7423 0
581 -898 7423 0
-370 -7424 0
13 -7424 0
370 -13 7424 0
-180 -7425 0
596 -7425 0
180 -596 7425 0
853 -7426 0
484 -7426 0
-853 -484 7426 0
511 -7427 0
-365 -7427 0
-511 365 7427 0
168 -7428 0
876 -7428 0
-168 -876 7428 0
580 -7429 0
857 -7429 0
-580 -857 7429 0
-699 -7430 0
388 -7430 0
699 -388 7430 0
789 -7431 0
-387 -7431 0
-789 387 7431 0
374 -7432 0
801 -7432 0
-374 -801 7432 0
-716 -7433 0
194 -7433 0
716 -194 7433 0
-121 -7434 0
972 -7434 0
121 -972 7434 0
104 -7435 0
-894 -7435 0
-104 894 7435 0
203 -7436 0
515 -7436 0
-203 -515 7436 0
85 -7437 0
-532 -7437 0
-85 532 7437 0
510 -7438 0
673 -7438 0
-510 -673 7438 0
887 -7439 0
-964 -7439 0
-887 964 7439 0
6 -7440 0
-693 -7440 0
-6 693 7440 0
56 -7441 0
966 -7441 0
-56 -966 7441 0
416 -7442 0
353 -7442 0
-416 -353 7442 0
989 -7443 0
837 -7443 0
-989 -837 7443 0
56 -7444 0
-521 -7444 0
-56 521 7444 0
719 -7445 0
67 -7445 0
-719 -67 7445 0
303 -7446 0
498 -7446 0
-303 -498 7446 0
-200 -7447 0
341 -7447 0
200 -341 7447 0
204 -7448 0
18 -7448 0
-204 -18 7448 0
373 -7449 0
643 -7449 0
-373 -643 7449 0
814 -7450 0
259 -7450 0
-814 -259 7450 0
-821 -7451 0
922 -7451 0
821 -922 7451 0
596 -7452 0
364 -7452 0
-596 -364 7452 0
-371 -7453 0
937 -7453 0
371 -937 7453 0
144 -7454 0
697 -7454 0
-144 -697 7454 0
421 -7455 0
-382 -7455 0
-421 382 7455 0
213 -7456 0
713 -7456 0
-213 -713 7456 0
-141 -7457 0
50 -7457 0
141 -50 7457 0
104 -7458 0
-434 -7458 0
-104 434 7458 0
-992 -7459 0
475 -7459 0
992 -475 7459 0
319 -7460 0
540 -7460 0
-319 -540 7460 0
197 -7461 0
404 -7461 0
-197 -404 7461 0
-944 -7462 0
290 -7462 0
944 -290 7462 0
502 -7463 0
-119 -7463 0
-502 119 7463 0
-674 -7464 0
499 -7464 0
674 -499 7464 0
523 -7465 0
-687 -7465 0
-523 687 7465 0
-98 -7466 0
402 -7466 0
98 -402 7466 0
144 -7467 0
-606 -7467 0
-144 606 7467 0
-97 -7468 0
620 -7468 0
97 -620 7468 0
-129 -7469 0
468 -7469 0
129 -468 7469 0
-981 -7470 0
441 -7470 0
981 -441 7470 0
-51 -7471 0
841 -7471 0
51 -841 7471 0
806 -7472 0
-511 -7472 0
-806 511 7472 0
-922 -7473 0
772 -7473 0
922 -772 7473 0
845 -7474 0
436 -7474 0
-845 -436 7474 0
284 -7475 0
-350 -7475 0
-284 350 7475 0
606 -7476 0
841 -7476 0
-606 -841 7476 0
61 -7477 0
-755 -7477 0
-61 755 7477 0
751 -7478 0
-629 -7478 0
-751 629 7478 0
901 -7479 0
-15 -7479 0
-901 15 7479 0
-664 -7480 0
240 -7480 0
664 -240 7480 0
238 -7481 0
36 -7481 0
-238 -36 7481 0
-60 -7482 0
99 -7482 0
60 -99 7482 0
159 -7483 0
305 -7483 0
-159 -305 7483 0
854 -7484 0
206 -7484 0
-854 -206 7484 0
-344 -7485 0
821 -7485 0
344 -821 7485 0
941 -7486 0
906 -7486 0
-941 -906 7486 0
-418 -7487 0
217 -7487 0
418 -217 7487 0
-802 -7488 0
595 -7488 0
802 -595 7488 0
-44 -7489 0
986 -7489 0
44 -986 7489 0
304 -7490 0
622 -7490 0
-304 -622 7490 0
-536 -7491 0
263 -7491 0
536 -263 7491 0
-187 -7492 0
61 -7492 0
187 -61 7492 0
-929 -7493 0
164 -7493 0
929 -164 7493 0
933 -7494 0
-926 -7494 0
-933 926 7494 0
846 -7495 0
733 -7495 0
-846 -733 7495 0
1000 -7496 0
303 -7496 0
-1000 -303 7496 0
511 -7497 0
-614 -7497 0
-511 614 7497 0
399 -7498 0
38 -7498 0
-399 -38 7498 0
589 -7499 0
-605 -7499 0
-589 605 7499 0
183 -7500 0
763 -7500 0
-183 -763 7500 0
822 -7501 0
265 -7501 0
-822 -265 7501 0
791 -7502 0
-470 -7502 0
-791 470 7502 0
743 -7503 0
-428 -7503 0
-743 428 7503 0
-715 -7504 0
365 -7504 0
715 -365 7504 0
893 -7505 0
-542 -7505 0
-893 542 7505 0
661 -7506 0
881 -7506 0
-661 -881 7506 0
752 -7507 0
-161 -7507 0
-752 161 7507 0
-565 -7508 0
43 -7508 0
565 -43 7508 0
598 -7509 0
-877 -7509 0
-598 877 7509 0
376 -7510 0
-57 -7510 0
-376 57 7510 0
821 -7511 0
-134 -7511 0
-821 134 7511 0
15 -7512 0
903 -7512 0
-15 -903 7512 0
684 -7513 0
370 -7513 0
-684 -370 7513 0
365 -7514 0
-726 -7514 0
-365 726 7514 0
711 -7515 0
259 -7515 0
-711 -259 7515 0
414 -7516 0
-420 -7516 0
-414 420 7516 0
-561 -7517 0
98 -7517 0
561 -98 7517 0
806 -7518 0
-106 -7518 0
-806 106 7518 0
-859 -7519 0
813 -7519 0
859 -813 7519 0
716 -7520 0
-981 -7520 0
-716 981 7520 0
367 -7521 0
548 -7521 0
-367 -548 7521 0
237 -7522 0
196 -7522 0
-237 -196 7522 0
24 -7523 0
-961 -7523 0
-24 961 7523 0
888 -7524 0
538 -7524 0
-888 -538 7524 0
262 -7525 0
-708 -7525 0
-262 708 7525 0
-754 -7526 0
209 -7526 0
754 -209 7526 0
-870 -7527 0
905 -7527 0
870 -905 7527 0
478 -7528 0
-715 -7528 0
-478 715 7528 0
936 -7529 0
579 -7529 0
-936 -579 7529 0
-649 -7530 0
578 -7530 0
649 -578 7530 0
840 -7531 0
-561 -7531 0
-840 561 7531 0
935 -7532 0
913 -7532 0
-935 -913 7532 0
30 -7533 0
677 -7533 0
-30 -677 7533 0
319 -7534 0
-98 -7534 0
-319 98 7534 0
-577 -7535 0
137 -7535 0
577 -137 7535 0
-121 -7536 0
519 -7536 0
121 -519 7536 0
-377 -7537 0
638 -7537 0
377 -638 7537 0
-121 -7538 0
389 -7538 0
121 -389 7538 0
-971 -7539 0
356 -7539 0
971 -356 7539 0
167 -7540 0
482 -7540 0
-167 -482 7540 0
350 -7541 0
-311 -7541 0
-350 311 7541 0
782 -7542 0
972 -7542 0
-782 -972 7542 0
444 -7543 0
714 -7543 0
-444 -714 7543 0
626 -7544 0
706 -7544 0
-626 -706 7544 0
764 -7545 0
-918 -7545 0
-764 918 7545 0
533 -7546 0
-964 -7546 0
-533 964 7546 0
655 -7547 0
371 -7547 0
-655 -371 7547 0
651 -7548 0
866 -7548 0
-651 -866 7548 0
-40 -7549 0
916 -7549 0
40 -916 7549 0
-219 -7550 0
515 -7550 0
219 -515 7550 0
799 -7551 0
313 -7551 0
-799 -313 7551 0
500 -7552 0
-517 -7552 0
-500 517 7552 0
-819 -7553 0
117 -7553 0
819 -117 7553 0
565 -7554 0
371 -7554 0
-565 -371 7554 0
371 -7555 0
265 -7555 0
-371 -265 7555 0
-115 -7556 0
812 -7556 0
115 -812 7556 0
-838 -7557 0
482 -7557 0
838 -482 7557 0
-660 -7558 0
876 -7558 0
660 -876 7558 0
38 -7559 0
-204 -7559 0
-38 204 7559 0
80 -7560 0
-875 -7560 0
-80 875 7560 0
316 -7561 0
-517 -7561 0
-316 517 7561 0
742 -7562 0
402 -7562 0
-742 -402 7562 0
222 -7563 0
-863 -7563 0
-222 863 7563 0
-37 -7564 0
825 -7564 0
37 -825 7564 0
416 -7565 0
639 -7565 0
-416 -639 7565 0
100 -7566 0
-4 -7566 0
-100 4 7566 0
246 -7567 0
-781 -7567 0
-246 781 7567 0
548 -7568 0
252 -7568 0
-548 -252 7568 0
397 -7569 0
-702 -7569 0
-397 702 7569 0
-962 -7570 0
609 -7570 0
962 -609 7570 0
927 -7571 0
-279 -7571 0
-927 279 7571 0
808 -7572 0
-229 -7572 0
-808 229 7572 0
231 -7573 0
174 -7573 0
-231 -174 7573 0
143 -7574 0
-444 -7574 0
-143 444 7574 0
768 -7575 0
-42 -7575 0
-768 42 7575 0
485 -7576 0
-476 -7576 0
-485 476 7576 0
548 -7577 0
-694 -7577 0
-548 694 7577 0
582 -7578 0
-391 -7578 0
-582 391 7578 0
171 -7579 0
-733 -7579 0
-171 733 7579 0
-514 -7580 0
126 -7580 0
514 -126 7580 0
279 -7581 0
-303 -7581 0
-279 303 7581 0
670 -7582 0
-117 -7582 0
-670 117 7582 0
-361 -7583 0
659 -7583 0
361 -659 7583 0
104 -7584 0
566 -7584 0
-104 -566 7584 0
-355 -7585 0
769 -7585 0
355 -769 7585 0
5 -7586 0
731 -7586 0
-5 -731 7586 0
47 -7587 0
-668 -7587 0
-47 668 7587 0
548 -7588 0
995 -7588 0
-548 -995 7588 0
28 -7589 0
395 -7589 0
-28 -395 7589 0
797 -7590 0
491 -7590 0
-797 -491 7590 0
813 -7591 0
537 -7591 0
-813 -537 7591 0
-523 -7592 0
140 -7592 0
523 -140 7592 0
16 -7593 0
697 -7593 0
-16 -697 7593 0
887 -7594 0
-251 -7594 0
-887 251 7594 0
236 -7595 0
562 -7595 0
-236 -562 7595 0
-960 -7596 0
817 -7596 0
960 -817 7596 0
789 -7597 0
428 -7597 0
-789 -428 7597 0
37 -7598 0
-676 -7598 0
-37 676 7598 0
868 -7599 0
347 -7599 0
-868 -347 7599 0
615 -7600 0
638 -7600 0
-615 -638 7600 0
-472 -7601 0
481 -7601 0
472 -481 7601 0
-359 -7602 0
265 -7602 0
359 -265 7602 0
166 -7603 0
-259 -7603 0
-166 259 7603 0
743 -7604 0
-694 -7604 0
-743 694 7604 0
-505 -7605 0
188 -7605 0
505 -188 7605 0
261 -7606 0
-470 -7606 0
-261 470 7606 0
-338 -7607 0
105 -7607 0
338 -105 7607 0
286 -7608 0
-869 -7608 0
-286 869 7608 0
-282 -7609 0
293 -7609 0
282 -293 7609 0
147 -7610 0
611 -7610 0
-147 -611 7610 0
-996 -7611 0
489 -7611 0
996 -489 7611 0
856 -7612 0
-853 -7612 0
-856 853 7612 0
920 -7613 0
620 -7613 0
-920 -620 7613 0
320 -7614 0
812 -7614 0
-320 -812 7614 0
-417 -7615 0
59 -7615 0
417 -59 7615 0
352 -7616 0
504 -7616 0
-352 -504 7616 0
559 -7617 0
851 -7617 0
-559 -851 7617 0
-186 -7618 0
950 -7618 0
186 -950 7618 0
535 -7619 0
610 -7619 0
-535 -610 7619 0
612 -7620 0
265 -7620 0
-612 -265 7620 0
-950 -7621 0
345 -7621 0
950 -345 7621 0
85 -7622 0
425 -7622 0
-85 -425 7622 0
382 -7623 0
565 -7623 0
-382 -565 7623 0
-1 -7624 0
465 -7624 0
1 -465 7624 0
624 -7625 0
-908 -7625 0
-624 908 7625 0
295 -7626 0
-625 -7626 0
-295 625 7626 0
-938 -7627 0
428 -7627 0
938 -428 7627 0
595 -7628 0
-79 -7628 0
-595 79 7628 0
-35 -7629 0
177 -7629 0
35 -177 7629 0
-728 -7630 0
399 -7630 0
728 -399 7630 0
-822 -7631 0
465 -7631 0
822 -465 7631 0
422 -7632 0
777 -7632 0
-422 -777 7632 0
-479 -7633 0
961 -7633 0
479 -961 7633 0
672 -7634 0
236 -7634 0
-672 -236 7634 0
312 -7635 0
847 -7635 0
-312 -847 7635 0
-581 -7636 0
843 -7636 0
581 -843 7636 0
949 -7637 0
530 -7637 0
-949 -530 7637 0
-3 -7638 0
602 -7638 0
3 -602 7638 0
909 -7639 0
65 -7639 0
-909 -65 7639 0
405 -7640 0
-311 -7640 0
-405 311 7640 0
-845 -7641 0
721 -7641 0
845 -721 7641 0
677 -7642 0
-247 -7642 0
-677 247 7642 0
806 -7643 0
-934 -7643 0
-806 934 7643 0
-224 -7644 0
573 -7644 0
224 -573 7644 0
100 -7645 0
-830 -7645 0
-100 830 7645 0
263 -7646 0
306 -7646 0
-263 -306 7646 0
-59 -7647 0
17 -7647 0
59 -17 7647 0
712 -7648 0
70 -7648 0
-712 -70 7648 0
236 -7649 0
722 -7649 0
-236 -722 7649 0
628 -7650 0
145 -7650 0
-628 -145 7650 0
623 -7651 0
-503 -7651 0
-623 503 7651 0
-560 -7652 0
166 -7652 0
560 -166 7652 0
-593 -7653 0
692 -7653 0
593 -692 7653 0
-796 -7654 0
177 -7654 0
796 -177 7654 0
271 -7655 0
418 -7655 0
-271 -418 7655 0
815 -7656 0
283 -7656 0
-815 -283 7656 0
-379 -7657 0
621 -7657 0
379 -621 7657 0
427 -7658 0
-503 -7658 0
-427 503 7658 0
-841 -7659 0
591 -7659 0
841 -591 7659 0
904 -7660 0
-492 -7660 0
-904 492 7660 0
135 -7661 0
644 -7661 0
-135 -644 7661 0
684 -7662 0
-214 -7662 0
-684 214 7662 0
551 -7663 0
-915 -7663 0
-551 915 7663 0
678 -7664 0
-691 -7664 0
-678 691 7664 0
775 -7665 0
-532 -7665 0
-775 532 7665 0
488 -7666 0
106 -7666 0
-488 -106 7666 0
374 -7667 0
26 -7667 0
-374 -26 7667 0
623 -7668 0
-604 -7668 0
-623 604 7668 0
624 -7669 0
60 -7669 0
-624 -60 7669 0
702 -7670 0
-212 -7670 0
-702 212 7670 0
269 -7671 0
-79 -7671 0
-269 79 7671 0
276 -7672 0
666 -7672 0
-276 -666 7672 0
-945 -7673 0
354 -7673 0
945 -354 7673 0
128 -7674 0
317 -7674 0
-128 -317 7674 0
584 -7675 0
520 -7675 0
-584 -520 7675 0
185 -7676 0
-935 -7676 0
-185 935 7676 0
-664 -7677 0
860 -7677 0
664 -860 7677 0
758 -7678 0
626 -7678 0
-758 -626 7678 0
-682 -7679 0
969 -7679 0
682 -969 7679 0
-216 -7680 0
757 -7680 0
216 -757 7680 0
54 -7681 0
108 -7681 0
-54 -108 7681 0
127 -7682 0
-806 -7682 0
-127 806 7682 0
173 -7683 0
-413 -7683 0
-173 413 7683 0
695 -7684 0
-374 -7684 0
-695 374 7684 0
238 -7685 0
-916 -7685 0
-238 916 7685 0
-773 -7686 0
851 -7686 0
773 -851 7686 0
632 -7687 0
23 -7687 0
-632 -23 7687 0
-51 -7688 0
409 -7688 0
51 -409 7688 0
936 -7689 0
-246 -7689 0
-936 246 7689 0
-931 -7690 0
66 -7690 0
931 -66 7690 0
351 -7691 0
878 -7691 0
-351 -878 7691 0
366 -7692 0
-844 -7692 0
-366 844 7692 0
63 -7693 0
246 -7693 0
-63 -246 7693 0
91 -7694 0
-182 -7694 0
-91 182 7694 0
-848 -7695 0
209 -7695 0
848 -209 7695 0
336 -7696 0
2 -7696 0
-336 -2 7696 0
-50 -7697 0
628 -7697 0
50 -628 7697 0
-275 -7698 0
930 -7698 0
275 -930 7698 0
879 -7699 0
-14 -7699 0
-879 14 7699 0
-488 -7700 0
882 -7700 0
488 -882 7700 0
-338 -7701 0
994 -7701 0
338 -994 7701 0
205 -7702 0
-557 -7702 0
-205 557 7702 0
167 -7703 0
819 -7703 0
-167 -819 7703 0
-354 -7704 0
203 -7704 0
354 -203 7704 0
392 -7705 0
-818 -7705 0
-392 818 7705 0
134 -7706 0
306 -7706 0
-134 -306 7706 0
344 -7707 0
754 -7707 0
-344 -754 7707 0
-713 -7708 0
506 -7708 0
713 -506 7708 0
608 -7709 0
887 -7709 0
-608 -887 7709 0
78 -7710 0
-914 -7710 0
-78 914 7710 0
999 -7711 0
765 -7711 0
-999 -765 7711 0
214 -7712 0
-199 -7712 0
-214 199 7712 0
112 -7713 0
-679 -7713 0
-112 679 7713 0
879 -7714 0
621 -7714 0
-879 -621 7714 0
-376 -7715 0
535 -7715 0
376 -535 7715 0
-457 -7716 0
4 -7716 0
457 -4 7716 0
687 -7717 0
-211 -7717 0
-687 211 7717 0
236 -7718 0
858 -7718 0
-236 -858 7718 0
895 -7719 0
713 -7719 0
-895 -713 7719 0
582 -7720 0
-342 -7720 0
-582 342 7720 0
-59 -7721 0
945 -7721 0
59 -945 7721 0
-916 -7722 0
345 -7722 0
916 -345 7722 0
142 -7723 0
-110 -7723 0
-142 110 7723 0
861 -7724 0
-852 -7724 0
-861 852 7724 0
312 -7725 0
-462 -7725 0
-312 462 7725 0
-84 -7726 0
130 -7726 0
84 -130 7726 0
734 -7727 0
-614 -7727 0
-734 614 7727 0
86 -7728 0
-538 -7728 0
-86 538 7728 0
839 -7729 0
621 -7729 0
-839 -621 7729 0
583 -7730 0
-410 -7730 0
-583 410 7730 0
-345 -7731 0
436 -7731 0
345 -436 7731 0
495 -7732 0
-164 -7732 0
-495 164 7732 0
470 -7733 0
36 -7733 0
-470 -36 7733 0
-312 -7734 0
911 -7734 0
312 -911 7734 0
600 -7735 0
987 -7735 0
-600 -987 7735 0
328 -7736 0
-569 -7736 0
-328 569 7736 0
664 -7737 0
-920 -7737 0
-664 920 7737 0
791 -7738 0
-898 -7738 0
-791 898 7738 0
-885 -7739 0
178 -7739 0
885 -178 7739 0
416 -7740 0
931 -7740 0
-416 -931 7740 0
541 -7741 0
-164 -7741 0
-541 164 7741 0
749 -7742 0
514 -7742 0
-749 -514 7742 0
828 -7743 0
-526 -7743 0
-828 526 7743 0
134 -7744 0
-964 -7744 0
-134 964 7744 0
143 -7745 0
-101 -7745 0
-143 101 7745 0
151 -7746 0
358 -7746 0
-151 -358 7746 0
134 -7747 0
-123 -7747 0
-134 123 7747 0
376 -7748 0
-153 -7748 0
-376 153 7748 0
15 -7749 0
812 -7749 0
-15 -812 7749 0
-781 -7750 0
465 -7750 0
781 -465 7750 0
918 -7751 0
-309 -7751 0
-918 309 7751 0
511 -7752 0
617 -7752 0
-511 -617 7752 0
602 -7753 0
-775 -7753 0
-602 775 7753 0
326 -7754 0
533 -7754 0
-326 -533 7754 0
59 -7755 0
811 -7755 0
-59 -811 7755 0
53 -7756 0
786 -7756 0
-53 -786 7756 0
453 -7757 0
346 -7757 0
-453 -346 7757 0
-938 -7758 0
171 -7758 0
938 -171 7758 0
493 -7759 0
826 -7759 0
-493 -826 7759 0
208 -7760 0
-432 -7760 0
-208 432 7760 0
632 -7761 0
-171 -7761 0
-632 171 7761 0
942 -7762 0
829 -7762 0
-942 -829 7762 0
471 -7763 0
-142 -7763 0
-471 142 7763 0
287 -7764 0
146 -7764 0
-287 -146 7764 0
503 -7765 0
33 -7765 0
-503 -33 7765 0
16 -7766 0
-486 -7766 0
-16 486 7766 0
516 -7767 0
418 -7767 0
-516 -418 7767 0
736 -7768 0
-883 -7768 0
-736 883 7768 0
-709 -7769 0
57 -7769 0
709 -57 7769 0
168 -7770 0
-701 -7770 0
-168 701 7770 0
960 -7771 0
-630 -7771 0
-960 630 7771 0
503 -7772 0
971 -7772 0
-503 -971 7772 0
565 -7773 0
-772 -7773 0
-565 772 7773 0
727 -7774 0
-965 -7774 0
-727 965 7774 0
-95 -7775 0
785 -7775 0
95 -785 7775 0
-42 -7776 0
941 -7776 0
42 -941 7776 0
-385 -7777 0
546 -7777 0
385 -546 7777 0
-394 -7778 0
68 -7778 0
394 -68 7778 0
415 -7779 0
635 -7779 0
-415 -635 7779 0
858 -7780 0
25 -7780 0
-858 -25 7780 0
-540 -7781 0
361 -7781 0
540 -361 7781 0
940 -7782 0
-175 -7782 0
-940 175 7782 0
-72 -7783 0
9 -7783 0
72 -9 7783 0
395 -7784 0
906 -7784 0
-395 -906 7784 0
78 -7785 0
-526 -7785 0
-78 526 7785 0
783 -7786 0
665 -7786 0
-783 -665 7786 0
-518 -7787 0
506 -7787 0
518 -506 7787 0
274 -7788 0
289 -7788 0
-274 -289 7788 0
676 -7789 0
347 -7789 0
-676 -347 7789 0
767 -7790 0
389 -7790 0
-767 -389 7790 0
656 -7791 0
828 -7791 0
-656 -828 7791 0
-354 -7792 0
913 -7792 0
354 -913 7792 0
448 -7793 0
886 -7793 0
-448 -886 7793 0
-105 -7794 0
802 -7794 0
105 -802 7794 0
134 -7795 0
546 -7795 0
-134 -546 7795 0
440 -7796 0
-783 -7796 0
-440 783 7796 0
470 -7797 0
210 -7797 0
-470 -210 7797 0
6 -7798 0
81 -7798 0
-6 -81 7798 0
836 -7799 0
-989 -7799 0
-836 989 7799 0
606 -7800 0
-579 -7800 0
-606 579 7800 0
262 -7801 0
-131 -7801 0
-262 131 7801 0
632 -7802 0
-468 -7802 0
-632 468 7802 0
727 -7803 0
-348 -7803 0
-727 348 7803 0
-912 -7804 0
966 -7804 0
912 -966 7804 0
-3 -7805 0
289 -7805 0
3 -289 7805 0
284 -7806 0
-366 -7806 0
-284 366 7806 0
374 -7807 0
437 -7807 0
-374 -437 7807 0
272 -7808 0
641 -7808 0
-272 -641 7808 0
148 -7809 0
-981 -7809 0
-148 981 7809 0
799 -7810 0
-690 -7810 0
-799 690 7810 0
454 -7811 0
-475 -7811 0
-454 475 7811 0
940 -7812 0
-901 -7812 0
-940 901 7812 0
934 -7813 0
977 -7813 0
-934 -977 7813 0
-634 -7814 0
761 -7814 0
634 -761 7814 0
-186 -7815 0
801 -7815 0
186 -801 7815 0
-102 -7816 0
41 -7816 0
102 -41 7816 0
-409 -7817 0
937 -7817 0
409 -937 7817 0
238 -7818 0
-845 -7818 0
-238 845 7818 0
-392 -7819 0
685 -7819 0
392 -685 7819 0
-585 -7820 0
518 -7820 0
585 -518 7820 0
720 -7821 0
-566 -7821 0
-720 566 7821 0
902 -7822 0
542 -7822 0
-902 -542 7822 0
965 -7823 0
-411 -7823 0
-965 411 7823 0
167 -7824 0
-746 -7824 0
-167 746 7824 0
588 -7825 0
-197 -7825 0
-588 197 7825 0
-777 -7826 0
338 -7826 0
777 -338 7826 0
-761 -7827 0
574 -7827 0
761 -574 7827 0
230 -7828 0
-892 -7828 0
-230 892 7828 0
391 -7829 0
902 -7829 0
-391 -902 7829 0
-588 -7830 0
298 -7830 0
588 -298 7830 0
675 -7831 0
138 -7831 0
-675 -138 7831 0
-384 -7832 0
353 -7832 0
384 -353 7832 0
-736 -7833 0
317 -7833 0
736 -317 7833 0
-344 -7834 0
493 -7834 0
344 -493 7834 0
-729 -7835 0
427 -7835 0
729 -427 7835 0
951 -7836 0
-459 -7836 0
-951 459 7836 0
746 -7837 0
313 -7837 0
-746 -313 7837 0
-26 -7838 0
746 -7838 0
26 -746 7838 0
317 -7839 0
-214 -7839 0
-317 214 7839 0
704 -7840 0
477 -7840 0
-704 -477 7840 0
-168 -7841 0
280 -7841 0
168 -280 7841 0
430 -7842 0
554 -7842 0
-430 -554 7842 0
654 -7843 0
12 -7843 0
-654 -12 7843 0
670 -7844 0
362 -7844 0
-670 -362 7844 0
904 -7845 0
-577 -7845 0
-904 577 7845 0
735 -7846 0
-685 -7846 0
-735 685 7846 0
368 -7847 0
349 -7847 0
-368 -349 7847 0
583 -7848 0
-613 -7848 0
-583 613 7848 0
92 -7849 0
-399 -7849 0
-92 399 7849 0
235 -7850 0
-319 -7850 0
-235 319 7850 0
-234 -7851 0
482 -7851 0
234 -482 7851 0
974 -7852 0
-878 -7852 0
-974 878 7852 0
-250 -7853 0
977 -7853 0
250 -977 7853 0
822 -7854 0
-454 -7854 0
-822 454 7854 0
-38 -7855 0
625 -7855 0
38 -625 7855 0
-833 -7856 0
569 -7856 0
833 -569 7856 0
333 -7857 0
529 -7857 0
-333 -529 7857 0
-428 -7858 0
961 -7858 0
428 -961 7858 0
637 -7859 0
-435 -7859 0
-637 435 7859 0
-713 -7860 0
334 -7860 0
713 -334 7860 0
434 -7861 0
-783 -7861 0
-434 783 7861 0
747 -7862 0
-239 -7862 0
-747 239 7862 0
-16 -7863 0
577 -7863 0
16 -577 7863 0
88 -7864 0
-631 -7864 0
-88 631 7864 0
-216 -7865 0
231 -7865 0
216 -231 7865 0
581 -7866 0
-126 -7866 0
-581 126 7866 0
504 -7867 0
-121 -7867 0
-504 121 7867 0
248 -7868 0
155 -7868 0
-248 -155 7868 0
87 -7869 0
-84 -7869 0
-87 84 7869 0
133 -7870 0
-255 -7870 0
-133 255 7870 0
341 -7871 0
667 -7871 0
-341 -667 7871 0
408 -7872 0
-691 -7872 0
-408 691 7872 0
168 -7873 0
153 -7873 0
-168 -153 7873 0
527 -7874 0
539 -7874 0
-527 -539 7874 0
624 -7875 0
-267 -7875 0
-624 267 7875 0
-65 -7876 0
683 -7876 0
65 -683 7876 0
710 -7877 0
-723 -7877 0
-710 723 7877 0
888 -7878 0
354 -7878 0
-888 -354 7878 0
-688 -7879 0
854 -7879 0
688 -854 7879 0
340 -7880 0
-359 -7880 0
-340 359 7880 0
-250 -7881 0
460 -7881 0
250 -460 7881 0
279 -7882 0
-255 -7882 0
-279 255 7882 0
862 -7883 0
93 -7883 0
-862 -93 7883 0
333 -7884 0
-387 -7884 0
-333 387 7884 0
851 -7885 0
-255 -7885 0
-851 255 7885 0
710 -7886 0
762 -7886 0
-710 -762 7886 0
-90 -7887 0
836 -7887 0
90 -836 7887 0
496 -7888 0
527 -7888 0
-496 -527 7888 0
-248 -7889 0
486 -7889 0
248 -486 7889 0
918 -7890 0
-818 -7890 0
-918 818 7890 0
823 -7891 0
-486 -7891 0
-823 486 7891 0
887 -7892 0
654 -7892 0
-887 -654 7892 0
756 -7893 0
810 -7893 0
-756 -810 7893 0
487 -7894 0
434 -7894 0
-487 -434 7894 0
-874 -7895 0
581 -7895 0
874 -581 7895 0
708 -7896 0
-551 -7896 0
-708 551 7896 0
448 -7897 0
-165 -7897 0
-448 165 7897 0
-576 -7898 0
311 -7898 0
576 -311 7898 0
333 -7899 0
-935 -7899 0
-333 935 7899 0
-496 -7900 0
577 -7900 0
496 -577 7900 0
-449 -7901 0
718 -7901 0
449 -718 7901 0
-144 -7902 0
643 -7902 0
144 -643 7902 0
-699 -7903 0
338 -7903 0
699 -338 7903 0
598 -7904 0
-399 -7904 0
-598 399 7904 0
824 -7905 0
724 -7905 0
-824 -724 7905 0
735 -7906 0
-158 -7906 0
-735 158 7906 0
451 -7907 0
-294 -7907 0
-451 294 7907 0
54 -7908 0
-981 -7908 0
-54 981 7908 0
-99 -7909 0
132 -7909 0
99 -132 7909 0
-760 -7910 0
851 -7910 0
760 -851 7910 0
-217 -7911 0
675 -7911 0
217 -675 7911 0
-514 -7912 0
306 -7912 0
514 -306 7912 0
-784 -7913 0
582 -7913 0
784 -582 7913 0
719 -7914 0
-257 -7914 0
-719 257 7914 0
-537 -7915 0
46 -7915 0
537 -46 7915 0
588 -7916 0
962 -7916 0
-588 -962 7916 0
-922 -7917 0
618 -7917 0
922 -618 7917 0
798 -7918 0
132 -7918 0
-798 -132 7918 0
-452 -7919 0
292 -7919 0
452 -292 7919 0
292 -7920 0
-6 -7920 0
-292 6 7920 0
-683 -7921 0
413 -7921 0
683 -413 7921 0
347 -7922 0
970 -7922 0
-347 -970 7922 0
381 -7923 0
369 -7923 0
-381 -369 7923 0
-500 -7924 0
107 -7924 0
500 -107 7924 0
125 -7925 0
-388 -7925 0
-125 388 7925 0
-480 -7926 0
284 -7926 0
480 -284 7926 0
-528 -7927 0
155 -7927 0
528 -155 7927 0
-436 -7928 0
714 -7928 0
436 -714 7928 0
335 -7929 0
-561 -7929 0
-335 561 7929 0
308 -7930 0
-613 -7930 0
-308 613 7930 0
-230 -7931 0
409 -7931 0
230 -409 7931 0
-867 -7932 0
658 -7932 0
867 -658 7932 0
698 -7933 0
-30 -7933 0
-698 30 7933 0
-3 -7934 0
324 -7934 0
3 -324 7934 0
279 -7935 0
-542 -7935 0
-279 542 7935 0
853 -7936 0
-397 -7936 0
-853 397 7936 0
254 -7937 0
398 -7937 0
-254 -398 7937 0
21 -7938 0
162 -7938 0
-21 -162 7938 0
501 -7939 0
793 -7939 0
-501 -793 7939 0
80 -7940 0
106 -7940 0
-80 -106 7940 0
917 -7941 0
-500 -7941 0
-917 500 7941 0
-937 -7942 0
501 -7942 0
937 -501 7942 0
531 -7943 0
930 -7943 0
-531 -930 7943 0
-224 -7944 0
198 -7944 0
224 -198 7944 0
743 -7945 0
-61 -7945 0
-743 61 7945 0
-754 -7946 0
981 -7946 0
754 -981 7946 0
136 -7947 0
-800 -7947 0
-136 800 7947 0
158 -7948 0
-34 -7948 0
-158 34 7948 0
-216 -7949 0
922 -7949 0
216 -922 7949 0
-233 -7950 0
878 -7950 0
233 -878 7950 0
597 -7951 0
-877 -7951 0
-597 877 7951 0
238 -7952 0
-383 -7952 0
-238 383 7952 0
-450 -7953 0
718 -7953 0
450 -718 7953 0
-522 -7954 0
613 -7954 0
522 -613 7954 0
-573 -7955 0
970 -7955 0
573 -970 7955 0
339 -7956 0
657 -7956 0
-339 -657 7956 0
-28 -7957 0
913 -7957 0
28 -913 7957 0
89 -7958 0
-95 -7958 0
-89 95 7958 0
426 -7959 0
-711 -7959 0
-426 711 7959 0
22 -7960 0
-655 -7960 0
-22 655 7960 0
-859 -7961 0
74 -7961 0
859 -74 7961 0
446 -7962 0
85 -7962 0
-446 -85 7962 0
-265 -7963 0
506 -7963 0
265 -506 7963 0
455 -7964 0
863 -7964 0
-455 -863 7964 0
-331 -7965 0
501 -7965 0
331 -501 7965 0
-241 -7966 0
156 -7966 0
241 -156 7966 0
365 -7967 0
-847 -7967 0
-365 847 7967 0
112 -7968 0
-262 -7968 0
-112 262 7968 0
800 -7969 0
657 -7969 0
-800 -657 7969 0
914 -7970 0
-423 -7970 0
-914 423 7970 0
251 -7971 0
-815 -7971 0
-251 815 7971 0
-168 -7972 0
176 -7972 0
168 -176 7972 0
446 -7973 0
-726 -7973 0
-446 726 7973 0
624 -7974 0
556 -7974 0
-624 -556 7974 0
-179 -7975 0
355 -7975 0
179 -355 7975 0
-480 -7976 0
365 -7976 0
480 -365 7976 0
-969 -7977 0
151 -7977 0
969 -151 7977 0
56 -7978 0
178 -7978 0
-56 -178 7978 0
867 -7979 0
-431 -7979 0
-867 431 7979 0
856 -7980 0
-360 -7980 0
-856 360 7980 0
555 -7981 0
89 -7981 0
-555 -89 7981 0
788 -7982 0
291 -7982 0
-788 -291 7982 0
941 -7983 0
-222 -7983 0
-941 222 7983 0
310 -7984 0
849 -7984 0
-310 -849 7984 0
535 -7985 0
987 -7985 0
-535 -987 7985 0
1 -7986 0
-615 -7986 0
-1 615 7986 0
350 -7987 0
382 -7987 0
-350 -382 7987 0
-868 -7988 0
833 -7988 0
868 -833 7988 0
631 -7989 0
62 -7989 0
-631 -62 7989 0
-825 -7990 0
846 -7990 0
825 -846 7990 0
647 -7991 0
-679 -7991 0
-647 679 7991 0
-842 -7992 0
851 -7992 0
842 -851 7992 0
-256 -7993 0
57 -7993 0
256 -57 7993 0
792 -7994 0
830 -7994 0
-792 -830 7994 0
534 -7995 0
158 -7995 0
-534 -158 7995 0
292 -7996 0
370 -7996 0
-292 -370 7996 0
445 -7997 0
-310 -7997 0
-445 310 7997 0
40 -7998 0
771 -7998 0
-40 -771 7998 0
78 -7999 0
445 -7999 0
-78 -445 7999 0
804 -8000 0
-447 -8000 0
-804 447 8000 0
216 -8001 0
250 -8001 0
-216 -250 8001 0
751 -8002 0
610 -8002 0
-751 -610 8002 0
56 -8003 0
-450 -8003 0
-56 450 8003 0
870 -8004 0
-253 -8004 0
-870 253 8004 0
-896 -8005 0
402 -8005 0
896 -402 8005 0
358 -8006 0
898 -8006 0
-358 -898 8006 0
-194 -8007 0
27 -8007 0
194 -27 8007 0
-544 -8008 0
595 -8008 0
544 -595 8008 0
-325 -8009 0
763 -8009 0
325 -763 8009 0
911 -8010 0
497 -8010 0
-911 -497 8010 0
951 -8011 0
-31 -8011 0
-951 31 8011 0
-609 -8012 0
709 -8012 0
609 -709 8012 0
561 -8013 0
193 -8013 0
-561 -193 8013 0
378 -8014 0
-607 -8014 0
-378 607 8014 0
399 -8015 0
202 -8015 0
-399 -202 8015 0
813 -8016 0
-807 -8016 0
-813 807 8016 0
607 -8017 0
-393 -8017 0
-607 393 8017 0
284 -8018 0
970 -8018 0
-284 -970 8018 0
788 -8019 0
595 -8019 0
-788 -595 8019 0
483 -8020 0
899 -8020 0
-483 -899 8020 0
246 -8021 0
-595 -8021 0
-246 595 8021 0
-537 -8022 0
254 -8022 0
537 -254 8022 0
63 -8023 0
698 -8023 0
-63 -698 8023 0
822 -8024 0
-578 -8024 0
-822 578 8024 0
887 -8025 0
844 -8025 0
-887 -844 8025 0
504 -8026 0
-259 -8026 0
-504 259 8026 0
519 -8027 0
-838 -8027 0
-519 838 8027 0
318 -8028 0
382 -8028 0
-318 -382 8028 0
207 -8029 0
-399 -8029 0
-207 399 8029 0
224 -8030 0
285 -8030 0
-224 -285 8030 0
23 -8031 0
740 -8031 0
-23 -740 8031 0
170 -8032 0
258 -8032 0
-170 -258 8032 0
262 -8033 0
898 -8033 0
-262 -898 8033 0
-953 -8034 0
494 -8034 0
953 -494 8034 0
-148 -8035 0
924 -8035 0
148 -924 8035 0
458 -8036 0
250 -8036 0
-458 -250 8036 0
256 -8037 0
-740 -8037 0
-256 740 8037 0
-354 -8038 0
774 -8038 0
354 -774 8038 0
1000 -8039 0
731 -8039 0
-1000 -731 8039 0
-680 -8040 0
290 -8040 0
680 -290 8040 0
-425 -8041 0
561 -8041 0
425 -561 8041 0
798 -8042 0
486 -8042 0
-798 -486 8042 0
351 -8043 0
-371 -8043 0
-351 371 8043 0
269 -8044 0
-935 -8044 0
-269 935 8044 0
667 -8045 0
571 -8045 0
-667 -571 8045 0
846 -8046 0
76 -8046 0
-846 -76 8046 0
552 -8047 0
-558 -8047 0
-552 558 8047 0
903 -8048 0
-725 -8048 0
-903 725 8048 0
-50 -8049 0
621 -8049 0
50 -621 8049 0
200 -8050 0
931 -8050 0
-200 -931 8050 0
-800 -8051 0
321 -8051 0
800 -321 8051 0
199 -8052 0
-853 -8052 0
-199 853 8052 0
821 -8053 0
185 -8053 0
-821 -185 8053 0
359 -8054 0
276 -8054 0
-359 -276 8054 0
-442 -8055 0
805 -8055 0
442 -805 8055 0
44 -8056 0
281 -8056 0
-44 -281 8056 0
703 -8057 0
-571 -8057 0
-703 571 8057 0
407 -8058 0
-557 -8058 0
-407 557 8058 0
-411 -8059 0
853 -8059 0
411 -853 8059 0
400 -8060 0
586 -8060 0
-400 -586 8060 0
821 -8061 0
-644 -8061 0
-821 644 8061 0
319 -8062 0
717 -8062 0
-319 -717 8062 0
-729 -8063 0
777 -8063 0
729 -777 8063 0
335 -8064 0
342 -8064 0
-335 -342 8064 0
125 -8065 0
-982 -8065 0
-125 982 8065 0
-754 -8066 0
51 -8066 0
754 -51 8066 0
880 -8067 0
-398 -8067 0
-880 398 8067 0
56 -8068 0
-98 -8068 0
-56 98 8068 0
711 -8069 0
299 -8069 0
-711 -299 8069 0
-11 -8070 0
809 -8070 0
11 -809 8070 0
-985 -8071 0
689 -8071 0
985 -689 8071 0
-25 -8072 0
182 -8072 0
25 -182 8072 0
148 -8073 0
19 -8073 0
-148 -19 8073 0
212 -8074 0
-774 -8074 0
-212 774 8074 0
640 -8075 0
-86 -8075 0
-640 86 8075 0
948 -8076 0
105 -8076 0
-948 -105 8076 0
-418 -8077 0
457 -8077 0
418 -457 8077 0
872 -8078 0
-38 -8078 0
-872 38 8078 0
31 -8079 0
-263 -8079 0
-31 263 8079 0
911 -8080 0
901 -8080 0
-911 -901 8080 0
-278 -8081 0
569 -8081 0
278 -569 8081 0
-610 -8082 0
810 -8082 0
610 -810 8082 0
301 -8083 0
602 -8083 0
-301 -602 8083 0
-252 -8084 0
57 -8084 0
252 -57 8084 0
608 -8085 0
-116 -8085 0
-608 116 8085 0
314 -8086 0
-159 -8086 0
-314 159 8086 0
590 -8087 0
739 -8087 0
-590 -739 8087 0
-745 -8088 0
308 -8088 0
745 -308 8088 0
-894 -8089 0
217 -8089 0
894 -217 8089 0
-211 -8090 0
41 -8090 0
211 -41 8090 0
943 -8091 0
117 -8091 0
-943 -117 8091 0
694 -8092 0
125 -8092 0
-694 -125 8092 0
480 -8093 0
410 -8093 0
-480 -410 8093 0
540 -8094 0
-324 -8094 0
-540 324 8094 0
224 -8095 0
150 -8095 0
-224 -150 8095 0
587 -8096 0
354 -8096 0
-587 -354 8096 0
171 -8097 0
-717 -8097 0
-171 717 8097 0
85 -8098 0
387 -8098 0
-85 -387 8098 0
797 -8099 0
692 -8099 0
-797 -692 8099 0
335 -8100 0
-612 -8100 0
-335 612 8100 0
-516 -8101 0
540 -8101 0
516 -540 8101 0
288 -8102 0
935 -8102 0
-288 -935 8102 0
167 -8103 0
-422 -8103 0
-167 422 8103 0
-3 -8104 0
509 -8104 0
3 -509 8104 0
157 -8105 0
178 -8105 0
-157 -178 8105 0
-783 -8106 0
345 -8106 0
783 -345 8106 0
-873 -8107 0
953 -8107 0
873 -953 8107 0
-65 -8108 0
565 -8108 0
65 -565 8108 0
760 -8109 0
728 -8109 0
-760 -728 8109 0
-182 -8110 0
137 -8110 0
182 -137 8110 0
582 -8111 0
-206 -8111 0
-582 206 8111 0
-724 -8112 0
787 -8112 0
724 -787 8112 0
606 -8113 0
-622 -8113 0
-606 622 8113 0
432 -8114 0
583 -8114 0
-432 -583 8114 0
44 -8115 0
-510 -8115 0
-44 510 8115 0
-792 -8116 0
982 -8116 0
792 -982 8116 0
-970 -8117 0
570 -8117 0
970 -570 8117 0
508 -8118 0
-623 -8118 0
-508 623 8118 0
872 -8119 0
-865 -8119 0
-872 865 8119 0
461 -8120 0
-611 -8120 0
-461 611 8120 0
974 -8121 0
-667 -8121 0
-974 667 8121 0
30 -8122 0
-317 -8122 0
-30 317 8122 0
236 -8123 0
577 -8123 0
-236 -577 8123 0
544 -8124 0
79 -8124 0
-544 -79 8124 0
-312 -8125 0
838 -8125 0
312 -838 8125 0
-178 -8126 0
570 -8126 0
178 -570 8126 0
799 -8127 0
-60 -8127 0
-799 60 8127 0
389 -8128 0
-782 -8128 0
-389 782 8128 0
-932 -8129 0
850 -8129 0
932 -850 8129 0
53 -8130 0
-559 -8130 0
-53 559 8130 0
-475 -8131 0
857 -8131 0
475 -857 8131 0
-989 -8132 0
651 -8132 0
989 -651 8132 0
-994 -8133 0
314 -8133 0
994 -314 8133 0
295 -8134 0
-933 -8134 0
-295 933 8134 0
143 -8135 0
-756 -8135 0
-143 756 8135 0
-248 -8136 0
583 -8136 0
248 -583 8136 0
-82 -8137 0
940 -8137 0
82 -940 8137 0
-440 -8138 0
221 -8138 0
440 -221 8138 0
944 -8139 0
787 -8139 0
-944 -787 8139 0
-690 -8140 0
714 -8140 0
690 -714 8140 0
903 -8141 0
-851 -8141 0
-903 851 8141 0
550 -8142 0
-509 -8142 0
-550 509 8142 0
160 -8143 0
-912 -8143 0
-160 912 8143 0
-156 -8144 0
641 -8144 0
156 -641 8144 0
-864 -8145 0
735 -8145 0
864 -735 8145 0
404 -8146 0
594 -8146 0
-404 -594 8146 0
-369 -8147 0
994 -8147 0
369 -994 8147 0
720 -8148 0
-708 -8148 0
-720 708 8148 0
-324 -8149 0
297 -8149 0
324 -297 8149 0
615 -8150 0
-516 -8150 0
-615 516 8150 0
-608 -8151 0
441 -8151 0
608 -441 8151 0
-52 -8152 0
59 -8152 0
52 -59 8152 0
277 -8153 0
-358 -8153 0
-277 358 8153 0
416 -8154 0
-963 -8154 0
-416 963 8154 0
512 -8155 0
380 -8155 0
-512 -380 8155 0
583 -8156 0
-981 -8156 0
-583 981 8156 0
669 -8157 0
948 -8157 0
-669 -948 8157 0
132 -8158 0
323 -8158 0
-132 -323 8158 0
14 -8159 0
-915 -8159 0
-14 915 8159 0
882 -8160 0
2 -8160 0
-882 -2 8160 0
485 -8161 0
636 -8161 0
-485 -636 8161 0
848 -8162 0
725 -8162 0
-848 -725 8162 0
951 -8163 0
-893 -8163 0
-951 893 8163 0
-866 -8164 0
411 -8164 0
866 -411 8164 0
829 -8165 0
-901 -8165 0
-829 901 8165 0
813 -8166 0
-916 -8166 0
-813 916 8166 0
183 -8167 0
-474 -8167 0
-183 474 8167 0
893 -8168 0
428 -8168 0
-893 -428 8168 0
658 -8169 0
-983 -8169 0
-658 983 8169 0
-460 -8170 0
561 -8170 0
460 -561 8170 0
-376 -8171 0
822 -8171 0
376 -822 8171 0
37 -8172 0
-295 -8172 0
-37 295 8172 0
63 -8173 0
803 -8173 0
-63 -803 8173 0
7 -8174 0
979 -8174 0
-7 -979 8174 0
-549 -8175 0
474 -8175 0
549 -474 8175 0
-514 -8176 0
234 -8176 0
514 -234 8176 0
-53 -8177 0
587 -8177 0
53 -587 8177 0
608 -8178 0
-702 -8178 0
-608 702 8178 0
111 -8179 0
349 -8179 0
-111 -349 8179 0
302 -8180 0
-22 -8180 0
-302 22 8180 0
58 -8181 0
-431 -8181 0
-58 431 8181 0
727 -8182 0
-827 -8182 0
-727 827 8182 0
894 -8183 0
-805 -8183 0
-894 805 8183 0
-940 -8184 0
12 -8184 0
940 -12 8184 0
864 -8185 0
935 -8185 0
-864 -935 8185 0
-430 -8186 0
297 -8186 0
430 -297 8186 0
636 -8187 0
-749 -8187 0
-636 749 8187 0
-682 -8188 0
646 -8188 0
682 -646 8188 0
822 -8189 0
813 -8189 0
-822 -813 8189 0
-168 -8190 0
526 -8190 0
168 -526 8190 0
54 -8191 0
-293 -8191 0
-54 293 8191 0
711 -8192 0
-462 -8192 0
-711 462 8192 0
982 -8193 0
313 -8193 0
-982 -313 8193 0
-28 -8194 0
747 -8194 0
28 -747 8194 0
-608 -8195 0
784 -8195 0
608 -784 8195 0
-616 -8196 0
173 -8196 0
616 -173 8196 0
343 -8197 0
-893 -8197 0
-343 893 8197 0
392 -8198 0
-462 -8198 0
-392 462 8198 0
-402 -8199 0
650 -8199 0
402 -650 8199 0
60 -8200 0
643 -8200 0
-60 -643 8200 0
54 -8201 0
-502 -8201 0
-54 502 8201 0
710 -8202 0
-292 -8202 0
-710 292 8202 0
870 -8203 0
427 -8203 0
-870 -427 8203 0
-496 -8204 0
455 -8204 0
496 -455 8204 0
502 -8205 0
581 -8205 0
-502 -581 8205 0
469 -8206 0
-71 -8206 0
-469 71 8206 0
-885 -8207 0
58 -8207 0
885 -58 8207 0
-358 -8208 0
114 -8208 0
358 -114 8208 0
-874 -8209 0
137 -8209 0
874 -137 8209 0
328 -8210 0
853 -8210 0
-328 -853 8210 0
656 -8211 0
-499 -8211 0
-656 499 8211 0
-888 -8212 0
827 -8212 0
888 -827 8212 0
424 -8213 0
-838 -8213 0
-424 838 8213 0
496 -8214 0
413 -8214 0
-496 -413 8214 0
238 -8215 0
914 -8215 0
-238 -914 8215 0
916 -8216 0
515 -8216 0
-916 -515 8216 0
-419 -8217 0
555 -8217 0
419 -555 8217 0
-510 -8218 0
713 -8218 0
510 -713 8218 0
295 -8219 0
-245 -8219 0
-295 245 8219 0
156 -8220 0
730 -8220 0
-156 -730 8220 0
-616 -8221 0
587 -8221 0
616 -587 8221 0
-872 -8222 0
805 -8222 0
872 -805 8222 0
-267 -8223 0
44 -8223 0
267 -44 8223 0
840 -8224 0
544 -8224 0
-840 -544 8224 0
144 -8225 0
227 -8225 0
-144 -227 8225 0
277 -8226 0
-20 -8226 0
-277 20 8226 0
214 -8227 0
-603 -8227 0
-214 603 8227 0
587 -8228 0
-998 -8228 0
-587 998 8228 0
646 -8229 0
-70 -8229 0
-646 70 8229 0
200 -8230 0
489 -8230 0
-200 -489 8230 0
518 -8231 0
361 -8231 0
-518 -361 8231 0
358 -8232 0
-253 -8232 0
-358 253 8232 0
526 -8233 0
-686 -8233 0
-526 686 8233 0
910 -8234 0
-535 -8234 0
-910 535 8234 0
247 -8235 0
-484 -8235 0
-247 484 8235 0
-568 -8236 0
105 -8236 0
568 -105 8236 0
-73 -8237 0
298 -8237 0
73 -298 8237 0
331 -8238 0
-343 -8238 0
-331 343 8238 0
720 -8239 0
-852 -8239 0
-720 852 8239 0
-497 -8240 0
556 -8240 0
497 -556 8240 0
-641 -8241 0
137 -8241 0
641 -137 8241 0
-160 -8242 0
181 -8242 0
160 -181 8242 0
435 -8243 0
-222 -8243 0
-435 222 8243 0
840 -8244 0
189 -8244 0
-840 -189 8244 0
-665 -8245 0
566 -8245 0
665 -566 8245 0
768 -8246 0
302 -8246 0
-768 -302 8246 0
565 -8247 0
474 -8247 0
-565 -474 8247 0
149 -8248 0
243 -8248 0
-149 -243 8248 0
54 -8249 0
433 -8249 0
-54 -433 8249 0
284 -8250 0
739 -8250 0
-284 -739 8250 0
192 -8251 0
-177 -8251 0
-192 177 8251 0
486 -8252 0
-725 -8252 0
-486 725 8252 0
-963 -8253 0
634 -8253 0
963 -634 8253 0
214 -8254 0
785 -8254 0
-214 -785 8254 0
-10 -8255 0
426 -8255 0
10 -426 8255 0
98 -8256 0
322 -8256 0
-98 -322 8256 0
514 -8257 0
-647 -8257 0
-514 647 8257 0
990 -8258 0
485 -8258 0
-990 -485 8258 0
-396 -8259 0
60 -8259 0
396 -60 8259 0
-410 -8260 0
458 -8260 0
410 -458 8260 0
616 -8261 0
-490 -8261 0
-616 490 8261 0
278 -8262 0
-795 -8262 0
-278 795 8262 0
184 -8263 0
-911 -8263 0
-184 911 8263 0
-31 -8264 0
105 -8264 0
31 -105 8264 0
877 -8265 0
-414 -8265 0
-877 414 8265 0
-593 -8266 0
239 -8266 0
593 -239 8266 0
765 -8267 0
-575 -8267 0
-765 575 8267 0
742 -8268 0
-44 -8268 0
-742 44 8268 0
29 -8269 0
-76 -8269 0
-29 76 8269 0
87 -8270 0
-889 -8270 0
-87 889 8270 0
831 -8271 0
894 -8271 0
-831 -894 8271 0
-294 -8272 0
34 -8272 0
294 -34 8272 0
869 -8273 0
-757 -8273 0
-869 757 8273 0
960 -8274 0
-106 -8274 0
-960 106 8274 0
-208 -8275 0
926 -8275 0
208 -926 8275 0
8 -8276 0
455 -8276 0
-8 -455 8276 0
-430 -8277 0
90 -8277 0
430 -90 8277 0
991 -8278 0
734 -8278 0
-991 -734 8278 0
-249 -8279 0
671 -8279 0
249 -671 8279 0
856 -8280 0
-970 -8280 0
-856 970 8280 0
-20 -8281 0
465 -8281 0
20 -465 8281 0
526 -8282 0
-243 -8282 0
-526 243 8282 0
-556 -8283 0
923 -8283 0
556 -923 8283 0
573 -8284 0
67 -8284 0
-573 -67 8284 0
712 -8285 0
-308 -8285 0
-712 308 8285 0
-75 -8286 0
403 -8286 0
75 -403 8286 0
318 -8287 0
-46 -8287 0
-318 46 8287 0
864 -8288 0
713 -8288 0
-864 -713 8288 0
-40 -8289 0
135 -8289 0
40 -135 8289 0
-528 -8290 0
668 -8290 0
528 -668 8290 0
-713 -8291 0
151 -8291 0
713 -151 8291 0
-966 -8292 0
937 -8292 0
966 -937 8292 0
714 -8293 0
345 -8293 0
-714 -345 8293 0
-699 -8294 0
659 -8294 0
699 -659 8294 0
550 -8295 0
-3 -8295 0
-550 3 8295 0
968 -8296 0
155 -8296 0
-968 -155 8296 0
783 -8297 0
-282 -8297 0
-783 282 8297 0
464 -8298 0
587 -8298 0
-464 -587 8298 0
791 -8299 0
-44 -8299 0
-791 44 8299 0
-137 -8300 0
822 -8300 0
137 -822 8300 0
844 -8301 0
970 -8301 0
-844 -970 8301 0
-272 -8302 0
9 -8302 0
272 -9 8302 0
312 -8303 0
-706 -8303 0
-312 706 8303 0
368 -8304 0
737 -8304 0
-368 -737 8304 0
623 -8305 0
127 -8305 0
-623 -127 8305 0
500 -8306 0
-93 -8306 0
-500 93 8306 0
952 -8307 0
-394 -8307 0
-952 394 8307 0
479 -8308 0
118 -8308 0
-479 -118 8308 0
359 -8309 0
407 -8309 0
-359 -407 8309 0
-43 -8310 0
617 -8310 0
43 -617 8310 0
-290 -8311 0
549 -8311 0
290 -549 8311 0
248 -8312 0
600 -8312 0
-248 -600 8312 0
893 -8313 0
-23 -8313 0
-893 23 8313 0
613 -8314 0
841 -8314 0
-613 -841 8314 0
-44 -8315 0
859 -8315 0
44 -859 8315 0
557 -8316 0
953 -8316 0
-557 -953 8316 0
333 -8317 0
747 -8317 0
-333 -747 8317 0
447 -8318 0
154 -8318 0
-447 -154 8318 0
112 -8319 0
-54 -8319 0
-112 54 8319 0
124 -8320 0
851 -8320 0
-124 -851 8320 0
124 -8321 0
-932 -8321 0
-124 932 8321 0
992 -8322 0
-867 -8322 0
-992 867 8322 0
973 -8323 0
554 -8323 0
-973 -554 8323 0
-689 -8324 0
475 -8324 0
689 -475 8324 0
968 -8325 0
107 -8325 0
-968 -107 8325 0
756 -8326 0
234 -8326 0
-756 -234 8326 0
152 -8327 0
538 -8327 0
-152 -538 8327 0
-434 -8328 0
57 -8328 0
434 -57 8328 0
574 -8329 0
-914 -8329 0
-574 914 8329 0
672 -8330 0
873 -8330 0
-672 -873 8330 0
-322 -8331 0
217 -8331 0
322 -217 8331 0
832 -8332 0
-174 -8332 0
-832 174 8332 0
72 -8333 0
-291 -8333 0
-72 291 8333 0
104 -8334 0
83 -8334 0
-104 -83 8334 0
78 -8335 0
380 -8335 0
-78 -380 8335 0
463 -8336 0
266 -8336 0
-463 -266 8336 0
112 -8337 0
863 -8337 0
-112 -863 8337 0
664 -8338 0
-675 -8338 0
-664 675 8338 0
-884 -8339 0
692 -8339 0
884 -692 8339 0
-130 -8340 0
2 -8340 0
130 -2 8340 0
253 -8341 0
-310 -8341 0
-253 310 8341 0
152 -8342 0
-78 -8342 0
-152 78 8342 0
563 -8343 0
-342 -8343 0
-563 342 8343 0
564 -8344 0
817 -8344 0
-564 -817 8344 0
-627 -8345 0
380 -8345 0
627 -380 8345 0
818 -8346 0
-903 -8346 0
-818 903 8346 0
376 -8347 0
165 -8347 0
-376 -165 8347 0
-803 -8348 0
380 -8348 0
803 -380 8348 0
183 -8349 0
67 -8349 0
-183 -67 8349 0
-282 -8350 0
561 -8350 0
282 -561 8350 0
152 -8351 0
754 -8351 0
-152 -754 8351 0
952 -8352 0
74 -8352 0
-952 -74 8352 0
637 -8353 0
-413 -8353 0
-637 413 8353 0
528 -8354 0
-692 -8354 0
-528 692 8354 0
383 -8355 0
-207 -8355 0
-383 207 8355 0
-249 -8356 0
379 -8356 0
249 -379 8356 0
-739 -8357 0
123 -8357 0
739 -123 8357 0
920 -8358 0
-869 -8358 0
-920 869 8358 0
295 -8359 0
330 -8359 0
-295 -330 8359 0
640 -8360 0
-158 -8360 0
-640 158 8360 0
292 -8361 0
-981 -8361 0
-292 981 8361 0
-544 -8362 0
175 -8362 0
544 -175 8362 0
-413 -8363 0
618 -8363 0
413 -618 8363 0
-842 -8364 0
692 -8364 0
842 -692 8364 0
-45 -8365 0
35 -8365 0
45 -35 8365 0
-587 -8366 0
261 -8366 0
587 -261 8366 0
175 -8367 0
916 -8367 0
-175 -916 8367 0
757 -8368 0
82 -8368 0
-757 -82 8368 0
-978 -8369 0
324 -8369 0
978 -324 8369 0
-202 -8370 0
465 -8370 0
202 -465 8370 0
728 -8371 0
-185 -8371 0
-728 185 8371 0
981 -8372 0
-348 -8372 0
-981 348 8372 0
-924 -8373 0
404 -8373 0
924 -404 8373 0
-980 -8374 0
131 -8374 0
980 -131 8374 0
984 -8375 0
-812 -8375 0
-984 812 8375 0
-487 -8376 0
217 -8376 0
487 -217 8376 0
-44 -8377 0
730 -8377 0
44 -730 8377 0
-187 -8378 0
761 -8378 0
187 -761 8378 0
734 -8379 0
635 -8379 0
-734 -635 8379 0
384 -8380 0
-878 -8380 0
-384 878 8380 0
495 -8381 0
708 -8381 0
-495 -708 8381 0
608 -8382 0
969 -8382 0
-608 -969 8382 0
304 -8383 0
-426 -8383 0
-304 426 8383 0
-280 -8384 0
821 -8384 0
280 -821 8384 0
758 -8385 0
979 -8385 0
-758 -979 8385 0
-301 -8386 0
275 -8386 0
301 -275 8386 0
272 -8387 0
-195 -8387 0
-272 195 8387 0
-888 -8388 0
815 -8388 0
888 -815 8388 0
688 -8389 0
-132 -8389 0
-688 132 8389 0
240 -8390 0
-6 -8390 0
-240 6 8390 0
364 -8391 0
994 -8391 0
-364 -994 8391 0
592 -8392 0
934 -8392 0
-592 -934 8392 0
-640 -8393 0
165 -8393 0
640 -165 8393 0
704 -8394 0
435 -8394 0
-704 -435 8394 0
982 -8395 0
-650 -8395 0
-982 650 8395 0
824 -8396 0
530 -8396 0
-824 -530 8396 0
237 -8397 0
-604 -8397 0
-237 604 8397 0
584 -8398 0
-762 -8398 0
-584 762 8398 0
-9 -8399 0
586 -8399 0
9 -586 8399 0
131 -8400 0
-319 -8400 0
-131 319 8400 0
-829 -8401 0
794 -8401 0
829 -794 8401 0
-976 -8402 0
422 -8402 0
976 -422 8402 0
343 -8403 0
19 -8403 0
-343 -19 8403 0
206 -8404 0
955 -8404 0
-206 -955 8404 0
648 -8405 0
-471 -8405 0
-648 471 8405 0
191 -8406 0
-523 -8406 0
-191 523 8406 0
605 -8407 0
20 -8407 0
-605 -20 8407 0
988 -8408 0
-773 -8408 0
-988 773 8408 0
502 -8409 0
-934 -8409 0
-502 934 8409 0
-144 -8410 0
229 -8410 0
144 -229 8410 0
152 -8411 0
818 -8411 0
-152 -818 8411 0
493 -8412 0
860 -8412 0
-493 -860 8412 0
-496 -8413 0
494 -8413 0
496 -494 8413 0
656 -8414 0
-122 -8414 0
-656 122 8414 0
-840 -8415 0
652 -8415 0
840 -652 8415 0
-267 -8416 0
979 -8416 0
267 -979 8416 0
592 -8417 0
-331 -8417 0
-592 331 8417 0
191 -8418 0
190 -8418 0
-191 -190 8418 0
672 -8419 0
-895 -8419 0
-672 895 8419 0
632 -8420 0
-613 -8420 0
-632 613 8420 0
709 -8421 0
-447 -8421 0
-709 447 8421 0
-301 -8422 0
321 -8422 0
301 -321 8422 0
102 -8423 0
-142 -8423 0
-102 142 8423 0
879 -8424 0
532 -8424 0
-879 -532 8424 0
15 -8425 0
733 -8425 0
-15 -733 8425 0
-114 -8426 0
361 -8426 0
114 -361 8426 0
80 -8427 0
-129 -8427 0
-80 129 8427 0
-236 -8428 0
394 -8428 0
236 -394 8428 0
-673 -8429 0
868 -8429 0
673 -868 8429 0
75 -8430 0
433 -8430 0
-75 -433 8430 0
-411 -8431 0
699 -8431 0
411 -699 8431 0
-41 -8432 0
589 -8432 0
41 -589 8432 0
901 -8433 0
-55 -8433 0
-901 55 8433 0
508 -8434 0
-719 -8434 0
-508 719 8434 0
-412 -8435 0
579 -8435 0
412 -579 8435 0
-722 -8436 0
713 -8436 0
722 -713 8436 0
16 -8437 0
-679 -8437 0
-16 679 8437 0
13 -8438 0
-286 -8438 0
-13 286 8438 0
-633 -8439 0
306 -8439 0
633 -306 8439 0
902 -8440 0
859 -8440 0
-902 -859 8440 0
350 -8441 0
-615 -8441 0
-350 615 8441 0
832 -8442 0
-209 -8442 0
-832 209 8442 0
925 -8443 0
-22 -8443 0
-925 22 8443 0
470 -8444 0
-787 -8444 0
-470 787 8444 0
-276 -8445 0
993 -8445 0
276 -993 8445 0
67 -8446 0
385 -8446 0
-67 -385 8446 0
575 -8447 0
690 -8447 0
-575 -690 8447 0
-506 -8448 0
681 -8448 0
506 -681 8448 0
-88 -8449 0
780 -8449 0
88 -780 8449 0
47 -8450 0
-607 -8450 0
-47 607 8450 0
403 -8451 0
82 -8451 0
-403 -82 8451 0
-312 -8452 0
453 -8452 0
312 -453 8452 0
7 -8453 0
-644 -8453 0
-7 644 8453 0
910 -8454 0
403 -8454 0
-910 -403 8454 0
280 -8455 0
250 -8455 0
-280 -250 8455 0
-880 -8456 0
688 -8456 0
880 -688 8456 0
294 -8457 0
802 -8457 0
-294 -802 8457 0
769 -8458 0
609 -8458 0
-769 -609 8458 0
-426 -8459 0
174 -8459 0
426 -174 8459 0
-463 -8460 0
521 -8460 0
463 -521 8460 0
-633 -8461 0
941 -8461 0
633 -941 8461 0
868 -8462 0
-471 -8462 0
-868 471 8462 0
900 -8463 0
532 -8463 0
-900 -532 8463 0
-905 -8464 0
51 -8464 0
905 -51 8464 0
278 -8465 0
641 -8465 0
-278 -641 8465 0
468 -8466 0
722 -8466 0
-468 -722 8466 0
-283 -8467 0
177 -8467 0
283 -177 8467 0
553 -8468 0
409 -8468 0
-553 -409 8468 0
191 -8469 0
502 -8469 0
-191 -502 8469 0
981 -8470 0
363 -8470 0
-981 -363 8470 0
491 -8471 0
922 -8471 0
-491 -922 8471 0
280 -8472 0
-773 -8472 0
-280 773 8472 0
-381 -8473 0
931 -8473 0
381 -931 8473 0
312 -8474 0
-259 -8474 0
-312 259 8474 0
-136 -8475 0
987 -8475 0
136 -987 8475 0
-692 -8476 0
898 -8476 0
692 -898 8476 0
845 -8477 0
532 -8477 0
-845 -532 8477 0
739 -8478 0
771 -8478 0
-739 -771 8478 0
476 -8479 0
690 -8479 0
-476 -690 8479 0
-723 -8480 0
281 -8480 0
723 -281 8480 0
509 -8481 0
172 -8481 0
-509 -172 8481 0
508 -8482 0
-286 -8482 0
-508 286 8482 0
331 -8483 0
665 -8483 0
-331 -665 8483 0
446 -8484 0
-414 -8484 0
-446 414 8484 0
116 -8485 0
650 -8485 0
-116 -650 8485 0
240 -8486 0
-132 -8486 0
-240 132 8486 0
992 -8487 0
-603 -8487 0
-992 603 8487 0
-950 -8488 0
113 -8488 0
950 -113 8488 0
-660 -8489 0
290 -8489 0
660 -290 8489 0
472 -8490 0
-892 -8490 0
-472 892 8490 0
775 -8491 0
-927 -8491 0
-775 927 8491 0
748 -8492 0
-830 -8492 0
-748 830 8492 0
-169 -8493 0
716 -8493 0
169 -716 8493 0
500 -8494 0
913 -8494 0
-500 -913 8494 0
128 -8495 0
-647 -8495 0
-128 647 8495 0
-474 -8496 0
918 -8496 0
474 -918 8496 0
950 -8497 0
-499 -8497 0
-950 499 8497 0
895 -8498 0
-811 -8498 0
-895 811 8498 0
316 -8499 0
-662 -8499 0
-316 662 8499 0
-136 -8500 0
637 -8500 0
136 -637 8500 0
918 -8501 0
-123 -8501 0
-918 123 8501 0
744 -8502 0
646 -8502 0
-744 -646 8502 0
-160 -8503 0
405 -8503 0
160 -405 8503 0
184 -8504 0
459 -8504 0
-184 -459 8504 0
-488 -8505 0
700 -8505 0
488 -700 8505 0
643 -8506 0
809 -8506 0
-643 -809 8506 0
829 -8507 0
-223 -8507 0
-829 223 8507 0
510 -8508 0
122 -8508 0
-510 -122 8508 0
847 -8509 0
-765 -8509 0
-847 765 8509 0
13 -8510 0
-460 -8510 0
-13 460 8510 0
-808 -8511 0
84 -8511 0
808 -84 8511 0
-504 -8512 0
173 -8512 0
504 -173 8512 0
-525 -8513 0
1 -8513 0
525 -1 8513 0
-651 -8514 0
805 -8514 0
651 -805 8514 0
531 -8515 0
-238 -8515 0
-531 238 8515 0
964 -8516 0
988 -8516 0
-964 -988 8516 0
823 -8517 0
-941 -8517 0
-823 941 8517 0
16 -8518 0
-473 -8518 0
-16 473 8518 0
-849 -8519 0
6 -8519 0
849 -6 8519 0
512 -8520 0
-826 -8520 0
-512 826 8520 0
944 -8521 0
381 -8521 0
-944 -381 8521 0
847 -8522 0
-926 -8522 0
-847 926 8522 0
-450 -8523 0
42 -8523 0
450 -42 8523 0
772 -8524 0
875 -8524 0
-772 -875 8524 0
112 -8525 0
-261 -8525 0
-112 261 8525 0
-506 -8526 0
20 -8526 0
506 -20 8526 0
677 -8527 0
-518 -8527 0
-677 518 8527 0
107 -8528 0
322 -8528 0
-107 -322 8528 0
-12 -8529 0
586 -8529 0
12 -586 8529 0
341 -8530 0
-479 -8530 0
-341 479 8530 0
-606 -8531 0
210 -8531 0
606 -210 8531 0
-571 -8532 0
661 -8532 0
571 -661 8532 0
-723 -8533 0
177 -8533 0
723 -177 8533 0
552 -8534 0
50 -8534 0
-552 -50 8534 0
252 -8535 0
-877 -8535 0
-252 877 8535 0
-233 -8536 0
643 -8536 0
233 -643 8536 0
901 -8537 0
505 -8537 0
-901 -505 8537 0
508 -8538 0
-286 -8538 0
-508 286 8538 0
12 -8539 0
-934 -8539 0
-12 934 8539 0
959 -8540 0
-668 -8540 0
-959 668 8540 0
199 -8541 0
-893 -8541 0
-199 893 8541 0
-243 -8542 0
124 -8542 0
243 -124 8542 0
927 -8543 0
-142 -8543 0
-927 142 8543 0
-376 -8544 0
738 -8544 0
376 -738 8544 0
628 -8545 0
90 -8545 0
-628 -90 8545 0
343 -8546 0
427 -8546 0
-343 -427 8546 0
539 -8547 0
938 -8547 0
-539 -938 8547 0
-552 -8548 0
855 -8548 0
552 -855 8548 0
-180 -8549 0
187 -8549 0
180 -187 8549 0
648 -8550 0
235 -8550 0
-648 -235 8550 0
-66 -8551 0
620 -8551 0
66 -620 8551 0
607 -8552 0
-807 -8552 0
-607 807 8552 0
-320 -8553 0
880 -8553 0
320 -880 8553 0
823 -8554 0
969 -8554 0
-823 -969 8554 0
-290 -8555 0
254 -8555 0
290 -254 8555 0
-218 -8556 0
394 -8556 0
218 -394 8556 0
279 -8557 0
-661 -8557 0
-279 661 8557 0
639 -8558 0
269 -8558 0
-639 -269 8558 0
733 -8559 0
905 -8559 0
-733 -905 8559 0
-288 -8560 0
533 -8560 0
288 -533 8560 0
151 -8561 0
677 -8561 0
-151 -677 8561 0
637 -8562 0
379 -8562 0
-637 -379 8562 0
-197 -8563 0
339 -8563 0
197 -339 8563 0
-314 -8564 0
297 -8564 0
314 -297 8564 0
539 -8565 0
338 -8565 0
-539 -338 8565 0
611 -8566 0
826 -8566 0
-611 -826 8566 0
-393 -8567 0
382 -8567 0
393 -382 8567 0
699 -8568 0
-959 -8568 0
-699 959 8568 0
496 -8569 0
136 -8569 0
-496 -136 8569 0
431 -8570 0
502 -8570 0
-431 -502 8570 0
935 -8571 0
-667 -8571 0
-935 667 8571 0
46 -8572 0
-991 -8572 0
-46 991 8572 0
135 -8573 0
-462 -8573 0
-135 462 8573 0
135 -8574 0
71 -8574 0
-135 -71 8574 0
494 -8575 0
-684 -8575 0
-494 684 8575 0
815 -8576 0
-436 -8576 0
-815 436 8576 0
126 -8577 0
-190 -8577 0
-126 190 8577 0
535 -8578 0
36 -8578 0
-535 -36 8578 0
73 -8579 0
265 -8579 0
-73 -265 8579 0
741 -8580 0
771 -8580 0
-741 -771 8580 0
-562 -8581 0
494 -8581 0
562 -494 8581 0
354 -8582 0
-646 -8582 0
-354 646 8582 0
-468 -8583 0
546 -8583 0
468 -546 8583 0
-722 -8584 0
662 -8584 0
722 -662 8584 0
95 -8585 0
989 -8585 0
-95 -989 8585 0
491 -8586 0
-343 -8586 0
-491 343 8586 0
-900 -8587 0
250 -8587 0
900 -250 8587 0
-825 -8588 0
713 -8588 0
825 -713 8588 0
-914 -8589 0
4 -8589 0
914 -4 8589 0
136 -8590 0
-317 -8590 0
-136 317 8590 0
-69 -8591 0
738 -8591 0
69 -738 8591 0
-205 -8592 0
107 -8592 0
205 -107 8592 0
192 -8593 0
-889 -8593 0
-192 889 8593 0
632 -8594 0
-961 -8594 0
-632 961 8594 0
736 -8595 0
666 -8595 0
-736 -666 8595 0
965 -8596 0
397 -8596 0
-965 -397 8596 0
173 -8597 0
-493 -8597 0
-173 493 8597 0
-936 -8598 0
186 -8598 0
936 -186 8598 0
-513 -8599 0
493 -8599 0
513 -493 8599 0
-28 -8600 0
657 -8600 0
28 -657 8600 0
430 -8601 0
174 -8601 0
-430 -174 8601 0
964 -8602 0
234 -8602 0
-964 -234 8602 0
-434 -8603 0
629 -8603 0
434 -629 8603 0
-696 -8604 0
620 -8604 0
696 -620 8604 0
192 -8605 0
849 -8605 0
-192 -849 8605 0
-75 -8606 0
893 -8606 0
75 -893 8606 0
592 -8607 0
-329 -8607 0
-592 329 8607 0
343 -8608 0
-417 -8608 0
-343 417 8608 0
39 -8609 0
-950 -8609 0
-39 950 8609 0
-194 -8610 0
81 -8610 0
194 -81 8610 0
488 -8611 0
555 -8611 0
-488 -555 8611 0
-627 -8612 0
66 -8612 0
627 -66 8612 0
504 -8613 0
-380 -8613 0
-504 380 8613 0
995 -8614 0
-542 -8614 0
-995 542 8614 0
384 -8615 0
566 -8615 0
-384 -566 8615 0
501 -8616 0
-54 -8616 0
-501 54 8616 0
382 -8617 0
-948 -8617 0
-382 948 8617 0
790 -8618 0
-731 -8618 0
-790 731 8618 0
-728 -8619 0
612 -8619 0
728 -612 8619 0
6 -8620 0
-735 -8620 0
-6 735 8620 0
798 -8621 0
913 -8621 0
-798 -913 8621 0
-368 -8622 0
624 -8622 0
368 -624 8622 0
-130 -8623 0
259 -8623 0
130 -259 8623 0
-47 -8624 0
73 -8624 0
47 -73 8624 0
539 -8625 0
169 -8625 0
-539 -169 8625 0
944 -8626 0
-993 -8626 0
-944 993 8626 0
919 -8627 0
-462 -8627 0
-919 462 8627 0
-716 -8628 0
690 -8628 0
716 -690 8628 0
-467 -8629 0
515 -8629 0
467 -515 8629 0
-290 -8630 0
316 -8630 0
290 -316 8630 0
951 -8631 0
-829 -8631 0
-951 829 8631 0
148 -8632 0
-284 -8632 0
-148 284 8632 0
934 -8633 0
603 -8633 0
-934 -603 8633 0
815 -8634 0
365 -8634 0
-815 -365 8634 0
574 -8635 0
838 -8635 0
-574 -838 8635 0
-817 -8636 0
949 -8636 0
817 -949 8636 0
469 -8637 0
-68 -8637 0
-469 68 8637 0
543 -8638 0
-711 -8638 0
-543 711 8638 0
-881 -8639 0
697 -8639 0
881 -697 8639 0
54 -8640 0
902 -8640 0
-54 -902 8640 0
240 -8641 0
-490 -8641 0
-240 490 8641 0
719 -8642 0
923 -8642 0
-719 -923 8642 0
342 -8643 0
691 -8643 0
-342 -691 8643 0
175 -8644 0
-178 -8644 0
-175 178 8644 0
