p cnf 100 628
-46 0
-64 0
-3 0
-44 0
-37 -51 0
-83 0
81 -65 0
85 -97 0
-14 0
-5 0
-23 0
32 -100 0
-40 0
99 -19 0
-19 0
-93 0
-70 0
-61 -12 0
-28 0
-77 0
-85 23 0
-40 68 0
-44 0
-76 0
-8 0
-39 54 0
-95 -50 0
-67 0
16 -57 0
-92 0
-82 47 0
-30 75 0
-56 0
-69 77 0
-46 0
-93 0
-86 -81 0
9 -39 0
96 -7 0
-35 0
-39 83 0
-51 47 0
-16 89 0
-44 0
78 -10 0
-17 0
-40 31 0
-52 0
-10 -9 0
-48 0
-91 0
-93 46 0
78 -66 0
-30 -43 0
-93 0
40 -43 0
-78 0
-6 -5 0
98 -58 0
-76 0
-83 0
50 -37 0
-69 0
-55 -4 0
-48 -91 0
-96 34 0
-69 77 0
-96 19 0
10 -12 0
-44 0
-77 0
-5 -18 0
-47 0
-56 -90 0
44 -97 0
24 -54 0
97 -98 0
-33 0
52 -42 0
27 -73 0
-15 0
-12 -41 0
16 94 0
-60 -12 0
57 -99 0
-61 -57 0
-39 -9 0
-31 0
-60 55 0
2 -13 0
81 -29 0
-87 0
-6 -30 0
-96 -9 0
-63 -41 0
-15 0
-82 -25 0
10 -42 0
-70 -12 0
-77 86 0
-87 67 0
-98 0
-64 0
-62 -52 0
-88 0
96 -92 0
35 -73 0
-30 -2 0
11 -69 0
-32 0
-98 0
-53 -89 0
-61 -5 0
-65 0
-37 0
-50 71 0
96 -41 0
-40 -63 0
92 -99 0
32 -62 0
-19 -74 0
-9 0
-34 0
-63 -14 0
-25 0
-92 84 0
-95 29 0
-31 -73 0
80 -11 0
-27 0
-37 0
-80 84 0
-63 -41 0
-23 0
-86 0
73 -85 0
-80 22 0
-45 0
67 -5 0
-23 -69 0
100 -59 0
-1 0
-85 69 0
-8 0
-78 0
24 -71 0
-13 0
27 -1 0
-80 0
-67 0
19 -45 0
-8 0
-10 71 0
-95 -93 0
61 -74 0
-92 0
81 -18 0
-22 -66 0
-65 0
24 -60 0
-16 -88 0
-29 93 0
-86 0
-62 -57 0
83 -91 0
-3 0
25 -70 0
9 -11 0
-8 -86 0
16 -92 0
-96 0
-45 -97 0
49 -61 0
94 -33 0
-72 0
-54 -12 0
-55 17 0
-88 67 0
-56 0
-24 26 0
97 -23 0
-43 0
-11 -58 0
83 -82 0
-21 -10 0
-75 -74 0
-68 -75 0
-28 0
-91 0
-14 0
-60 6 0
-47 19 0
-60 0
77 -42 0
82 -97 0
74 -44 0
-10 0
32 -91 0
94 0
-45 0
-28 0
-88 70 0
-80 62 0
-63 92 0
49 -100 0
-49 55 0
-53 -18 0
84 -58 0
-37 0
-12 0
37 -91 0
-94 -91 0
-51 -82 0
-38 15 0
90 -52 0
-10 -9 0
-1 0
-79 -43 0
-84 52 0
-52 -99 0
46 -18 0
-44 0
78 -2 0
-57 0
11 -3 0
-80 78 0
-62 14 0
-62 -52 0
-44 0
-34 0
-18 0
-79 0
-46 61 0
-38 53 0
20 -18 0
9 -84 0
-94 -90 0
-80 -29 0
-12 45 0
75 -82 0
-34 47 0
-34 0
-88 10 0
-4 0
-50 31 0
13 -89 0
-26 0
-59 0
-96 -5 0
59 -25 0
81 -15 0
-43 -50 0
-4 -26 0
-48 45 0
-60 -65 0
16 -31 0
-64 0
18 -53 0
33 -57 0
-24 51 0
56 -1 0
-44 0
-68 93 0
-42 -81 0
64 -84 0
-24 -81 0
32 -35 0
-40 -46 0
49 -4 0
-91 0
-54 0
-80 0
-52 0
-87 -37 0
-48 0
-96 54 0
-35 0
92 -26 0
97 -69 0
-79 34 0
-29 0
-9 0
-78 -74 0
-70 0
-13 0
-61 0
86 -25 0
-40 0
-15 -54 0
-80 0
77 -50 0
-5 0
-15 0
-88 0
-86 0
62 -25 0
88 -98 0
-61 -2 0
-66 -33 0
-89 0
-10 0
-70 -13 0
-41 0
-48 0
-48 -83 0
-37 -57 0
-33 0
-78 -1 0
-17 0
-10 7 0
-99 0
-79 -1 0
-75 0
-61 -52 0
-28 0
-45 -67 0
-77 -90 0
49 -25 0
-51 -99 0
-16 0
-55 -18 0
-55 100 0
-55 4 0
-30 -43 0
-99 0
-59 0
-16 -29 0
-46 51 0
-72 0
-79 53 0
-41 -9 0
-61 0
-20 36 0
41 -62 0
-5 -91 0
-85 95 0
-15 -5 0
12 -26 0
-29 0
-31 -99 0
-52 -17 0
-37 0
-72 91 0
-56 12 0
-22 0
-52 0
-72 29 0
-81 0
-80 69 0
89 -73 0
-26 0
-96 0
-1 0
-59 0
-31 0
-95 37 0
-47 0
72 -91 0
-80 -72 0
25 -76 0
76 -19 0
38 -49 0
-43 0
-51 0
-8 49 0
-21 0
-7 0
-54 0
38 -9 0
-19 0
-92 0
65 -37 0
-68 0
-11 0
-95 0
-72 0
28 -2 0
-50 0
-82 0
-22 2 0
-71 -93 0
84 -12 0
-77 0
-82 0
-40 66 0
-17 0
-60 0
-68 0
50 -19 0
-18 7 0
-80 0
-76 0
-14 0
-48 -58 0
35 -76 0
28 -97 0
-81 0
-63 0
-61 -25 0
-60 -81 0
74 -82 0
-47 -29 0
24 -11 0
-50 31 0
11 -25 0
-23 62 0
69 94 0
-22 0
27 -61 0
-13 0
43 -73 0
-65 -17 0
-16 -13 0
-46 -35 0
-84 100 0
-6 38 0
-16 44 0
-52 0
-52 -98 0
-59 -89 0
89 -23 0
-87 75 0
-49 0
-28 -99 0
-57 0
-62 0
-34 0
83 -69 0
-59 0
-20 -18 0
-54 0
-36 93 0
-61 0
-88 -71 0
42 -44 0
-24 0
-80 -37 0
-44 -27 0
-99 0
-95 0
-79 0
94 0
-40 0
-46 0
89 -69 0
74 -69 0
-75 0
-68 62 0
-23 85 0
35 -25 0
-47 0
-91 -75 0
-80 13 0
-68 -90 0
-48 0
-79 46 0
-100 -27 0
88 -83 0
-80 0
-57 0
-52 45 0
33 -69 0
-15 0
-87 -68 0
35 -57 0
96 -87 0
17 -31 0
-8 75 0
-40 -14 0
-40 49 0
91 -42 0
-69 0
-23 0
-70 -60 0
-31 -74 0
-46 90 0
-24 0
-37 -84 0
-69 -35 0
-37 0
80 -69 0
-86 -53 0
50 -13 0
-45 86 0
-82 14 0
-75 22 0
81 -19 0
-35 -65 0
-67 0
-72 0
-100 6 0
-48 53 0
68 -25 0
-43 0
97 -57 0
8 -93 0
-39 -65 0
-51 -82 0
-52 -75 0
-88 0
-80 19 0
-53 39 0
17 -52 0
-92 -18 0
57 -70 0
-52 -17 0
-39 -66 0
40 -5 0
-34 0
-20 -27 0
-48 0
20 -73 0
-29 69 0
94 0
69 -35 0
-59 0
-24 -57 0
-7 53 0
67 -100 0
96 -57 0
-24 0
9 -34 0
58 -89 0
-31 0
-37 0
-71 0
-37 -43 0
51 -83 0
-79 0
-71 -77 0
-14 0
-12 -35 0
-92 0
-99 0
-40 -30 0
-80 0
-87 -69 0
10 -27 0
-55 0
-32 -75 0
-29 -99 0
-30 0
-30 0
-39 -25 0
-48 -54 0
-84 0
-59 0
-20 0
-60 39 0
97 -45 0
-7 0
-69 0
-41 0
-58 0
4 -74 0
-58 0
-54 -99 0
-71 7 0
-79 -71 0
-72 7 0
-43 0
97 -98 0
-37 0
-20 0
100 -12 0
-63 44 0
-44 0
-32 0
53 -67 0
-44 68 0
24 -98 0
-16 31 0
72 -43 0
-62 75 0
-16 92 0
-52 0
-7 0
-95 -20 0
-30 0
-43 0
94 0
-13 0
-64 -93 0
52 -51 0
-38 -69 0
-13 -58 0
33 -3 0
-44 0
-78 -81 0
-96 -40 0
80 -90 0
-95 -59 0
-51 -2 0
-13 0
-7 0
-55 -58 0
14 -73 0
-10 -18 0
-18 0
65 -54 0
-24 -79 0
-74 63 0
-39 92 0
-7 47 0
-55 -47 0
-8 0
-38 0
-70 0
32 -41 0
-66 0
-63 0
94 0
-88 0
90 -50 0
-44 71 0
-69 62 0
-71 0
-73 0
-46 -22 0
-54 0
-48 74 0
-5 0
8 -62 0
-37 54 0
-29 77 0
-71 -54 0
-18 0
-23 67 0
