p cnf 20 51
-15 11 6 0
8 12 -11 15 0
10 -20 -18 0
3 -14 19 13 0
9 -4 14 0
8 18 -12 7 0
9 -14 -4 0
-7 0
16 20 -19 0
2 -5 -20 0
-8 5 13 0
2 -13 12 0
8 -14 11 -5 0
-14 -9 0
2 11 0
-8 12 -19 7 0
-15 12 6 0
8 9 13 -2 0
5 -3 0
-14 0
-14 0
15 -3 -1 6 0
-16 0
-5 -11 -9 0
11 -1 -10 -9 0
-5 -10 0
9 5 0
17 0
16 -19 14 -1 0
17 -13 5 14 0
2 -20 -19 -18 0
3 -15 -13 -18 0
-18 0
-9 6 15 0
-15 4 0
8 -2 -18 0
-20 15 0
19 -8 11 14 0
-13 0
1 11 -15 -7 0
-14 -20 0
-8 17 2 4 0
-4 0
-1 0
4 -11 -1 0
8 -6 0
17 -12 -11 -9 0
-5 -11 -2 -13 0
-15 -5 -19 -18 0
19 -12 -17 0
-6 13 0
